     256
Lattice="19.6230000000 0.0000000000 0.0000000000 0.0000000000 16.9480000000 0.0000000000 0.0000000000 0.0000000000 18.0" Properties=species:S:1:pos:R:3 pbc="T T T"
 Si         2.2418736545        0.5840809734        5.6910628939
 Si         4.6822631555        4.7958734164        5.7320344233
  O         2.8057179133        1.2619607844        4.3271362190
  O         0.3191751707        5.4881788395        4.3360034794
  O         2.4849400858        3.4465956341        2.8770600494
  O        -0.0091612409        7.6880387773        2.9261399325
  O         3.7839762680        3.5166404796        5.2766270953
  O         1.3127006400        7.7560765602        5.2814412864
  O         0.6456881978        3.9159793968        1.1210446966
  O         3.0672886306        8.2141261374        1.1815543862
  O         0.0139881168        2.3894169464        3.1986883856
  O         2.4449453114        6.6173956861        3.1986021696
 Si         1.1455019636        2.8505524696        2.0824412660
 Si         3.5695464997        7.1119067148        2.0992223405
 Si         3.5081221438        2.6773505979        3.9108031001
 Si         1.0246510191        6.9044801776        3.9288641262
 Si         7.1173332475       17.5360369280        5.7248036526
 Si         9.5738861640        4.7940745857        5.7411711188
  O         7.6620911100        1.2712984078        4.3529604848
  O         5.2357943243        5.5028904569        4.3805748802
  O         7.3941166982        3.4432045056        2.8778419021
  O         4.8941854290        7.6873902998        2.9258807394
  O         8.6415485804        3.5278668873        5.3079749676
  O         6.2079660984        7.7997620840        5.2721420646
  O         5.5552869141        3.9122293818        1.1211052635
  O         7.9772757137        8.0877836073        1.1142278691
  O         4.9389872223        2.3877919938        3.1970506099
  O         7.3416976747        6.6133377636        3.2004790968
 Si         6.0596493909        2.8461686504        2.0790016155
 Si         8.4856619334        7.0396571048        2.0888678242
 Si         8.3934140337        2.6771200991        3.9393380732
 Si         5.9290847329        6.9157160492        3.9380391932
 Si         2.2357858678        9.0336997383        5.6891280991
 Si         4.6793989948       13.2823996344        5.7035832330
  O         2.7907096808        9.7314540697        4.3290020439
  O         0.3247821914       13.9976776782        4.3314273163
  O         2.4871463289       11.9188355839        2.8740590859
  O        -0.0461545294       16.2191612974        2.9355459443
  O         3.7820625536       11.9931243558        5.2717494893
  O         1.3055879852       16.2706072090        5.2721575227
  O         0.6489505964       12.3848644544        1.1164698074
  O         3.0729843604       16.6863433025        1.1214483825
  O         0.0296010290       10.8606804900        3.1932407029
  O         2.4168496711       15.1507578427        3.1507462905
 Si         1.1513625534       11.3198264658        2.0766694974
 Si         3.5754940473       15.6056862372        2.0654913249
 Si         3.4994515950       11.1453770920        3.9134434643
 Si         1.0096203080       15.4260510321        3.9128982590
 Si         7.1389257277        9.0647647109        5.6869896836
 Si         9.5644798410       13.3004344504        5.7221496214
  O         7.7049272442        9.7492904854        4.3282945721
  O         5.2244151484       13.9873077169        4.3425577451
  O         7.3832756534       11.9305533844        2.8662628075
  O         4.8805505457       16.2063428364        2.9230294446
  O         8.6340173068       12.0423596928        5.2691084195
  O         6.1952261142       16.2709508725        5.2826363939
  O         5.4982352145       12.3871803565        1.1189184697
  O         7.9744263315       16.6881142643        1.1800083493
  O         4.9343622554       10.8583110020        3.2012856061
  O         7.3358336001       15.1049960484        3.1981074974
 Si         6.0398172763       11.3446966603        2.0829406410
 Si         8.4769720126       15.5902904931        2.1027680157
 Si         8.4003573174       11.1695196455        3.9144343387
 Si         5.9143348372       15.4153366018        3.9263913958
  O         1.3147763379        1.5821539000        6.6001524418
  O         3.7332581312        5.7650106284        6.6453187757
  O         3.0231025681       15.6158084110        8.7940719991
  O         0.5832933976        2.8990043361        8.7957492846
  O         2.6760686218        1.2689698975        8.8765137652
  O         0.2028333938        5.5034467177        8.8791675658
  O         1.0412562496        4.3723288302        6.6173522052
  O         3.5189237081        8.6052108149        6.6050041871
  O         0.2493652620       17.2140807717        8.6708851204
  O         2.6700177550        4.5071155408        8.7352411935
 Si         1.1976018974        1.5120212924        8.2401155173
 Si         3.6281744853        5.7384605598        8.2852092902
 Si         3.6031814398       17.0367902801        8.2544223727
 Si         1.1357036699        4.3293475082        8.2564577435
  O         6.2081185339        1.5798007129        6.6586799123
  O         8.6340876388        5.7635898504        6.6636997832
  O         7.9304474602       15.6158325755        8.8456924117
  O         5.4908522699        2.8991656605        8.8585845880
  O         7.5759836867        1.2653840978        8.9363607873
  O         5.1006416026        5.4996231940        8.9360881463
  O         5.9488119286        4.3718761830        6.6743339846
  O         8.4084302809        8.6074753306        6.6068597038
  O         5.1394383360       17.2143730744        8.7301881628
  O         7.5760949206        4.5145961986        8.7892516103
 Si         6.0964831351        1.5089486253        8.2996184919
 Si         8.5316791715        5.7368372228        8.3032545650
 Si         8.4977163562       17.0389402758        8.2947843591
 Si         6.0406710068        4.3287056817        8.3136908299
  O         1.3019066731       10.0087686712        6.6101317388
  O         3.7319392452       14.2446920425        6.6271723484
  O         3.0271160789        7.1476745964        8.7971888503
  O         0.5873110048       11.3670486138        8.7906090460
  O         2.6814902786        9.7380719826        8.8737554377
  O         0.2082702879       13.9688360615        8.8767419755
  O         1.0476237214       12.8463234228        6.6106126072
  O         3.5149089142       17.0841578386        6.6151734020
  O         0.2369003305        8.7413108150        8.7227593130
  O         2.6748877047       12.9793431449        8.7291499916
 Si         1.1944589912        9.9696641667        8.2522472300
 Si         3.6286896595       14.2115712325        8.2701741216
 Si         3.6104315946        8.5627192540        8.2427393299
 Si         1.1410802976       12.7963596996        8.2493727235
  O         6.2165144354       10.0592692212        6.6025575777
  O         8.6412928707       14.2845065308        6.6526911340
  O         7.9310655497        7.1502062266        8.8027546405
  O         5.4905428941       11.3703559727        8.8018427153
  O         7.5869580716        9.7426732907        8.8736163195
  O         5.1029122074       13.9706855541        8.9228191727
  O         5.9488762862       12.8602874274        6.6423719007
  O         8.3803674053       17.0839450625        6.6589593316
  O         5.1573454675        8.7387492796        8.6781910077
  O         7.5811698552       12.9824585043        8.7368155365
 Si         6.1058252158        9.9853770218        8.2427843883
 Si         8.5345218596       14.2213386446        8.2946538285
 Si         8.5116291678        8.5635354793        8.2429599526
 Si         6.0405334481       12.8073004613        8.2792722124
 Si        12.0480663035        0.5645807208        5.7367592848
 Si        14.4861464596        4.7983567448        5.7395862793
  O        12.6160168125        1.2531887038        4.3779490634
  O        10.1352658852        5.5011939710        4.3916700540
  O        12.2686397668        3.4402944226        2.9258121388
  O         9.7921687616        7.6740420400        2.9131413870
  O        13.5931095320        3.5119365552        5.3026741029
  O        11.1094182899        7.8037778639        5.2660638954
  O        10.3994843669        3.9086844011        1.1835459784
  O        12.8815934367        8.0893990809        1.1172290199
  O         9.8373102341        2.3823113795        3.2594630233
  O        12.2450479599        6.6134831594        3.2022345554
 Si        10.9409723671        2.8281001796        2.1064813669
 Si        13.3898739345        7.0409469315        2.0916908353
 Si        13.3051455967        2.6713343316        3.9388665239
 Si        10.8277618288        6.9124852147        3.9354929360
 Si        16.9120757033       17.5437670653        5.7057548665
 Si        19.3822970175        4.7944574211        5.6954947684
  O        17.4672363754        1.2717400044        4.3326297736
  O        15.0421484193        5.5039071969        4.3876432491
  O        17.1960761524        3.4517962013        2.8664819291
  O        14.6955012006        7.6786068680        2.9198490222
  O        18.4568868108        3.5225085604        5.2713517548
  O        16.0181314701        7.8016815516        5.2761973149
  O        15.3093453141        3.9131833885        1.1258597109
  O        17.7736547927        8.1577745986        1.1748963014
  O        14.7311541844        2.3906640500        3.2009579318
  O        17.1505916425        6.6145621839        3.2129722600
 Si        15.8514851154        2.8651351622        2.0844508699
 Si        18.2875595905        7.0842324587        2.1187160815
 Si        18.2020177939        2.6705922640        3.9097431377
 Si        15.7296667062        6.9197504115        3.9423104146
 Si        12.0399028304        9.0693624131        5.6811774587
 Si        14.4579648215       13.3247275485        5.7077487060
  O        12.6129485434        9.7608331652        4.3295602905
  O        10.1341757426       13.9799005104        4.3593608246
  O        12.2715088095       11.9299493454        2.8634534053
  O         9.8009566137       16.1727945409        2.9342796721
  O        13.5393342792       12.0522665435        5.2703544347
  O        11.1243833993       16.2364401060        5.3139347222
  O        10.4024630339       12.3861176689        1.1204577714
  O        12.8228942730       16.6269823261        1.1237594727
  O         9.8286664533       10.8704886224        3.2039757959
  O        12.2521257322       15.1060759928        3.2031823963
 Si        10.9383116737       11.3215446464        2.0635521383
 Si        13.3671334491       15.5830272442        2.0850887447
 Si        13.2963136632       11.1865235689        3.9105082074
 Si        10.8348141877       15.3983942792        3.9466218696
 Si        16.9570061408        9.0631103941        5.6890735000
 Si        19.3962596132       13.2842522754        5.6841583953
  O        17.5220121400        9.7354111963        4.3237737440
  O        14.9806183430       14.0339642044        4.3398000266
  O        17.1944140357       11.9192687836        2.8601638621
  O        14.6972621583       16.2114926135        2.8702222318
  O        18.4933080216       11.9986241267        5.2585131295
  O        15.9586961864       16.2960429658        5.2771725339
  O        15.3082093433       12.3857007544        1.1200750870
  O        17.7289836673       16.6872376294        1.1819288778
  O        14.7351141179       10.9160710451        3.2112818048
  O        17.1389358428       15.1421414548        3.2199018972
 Si        15.8472791736       11.3195425680        2.0596468744
 Si        18.2672913800       15.6077782780        2.1074787074
 Si        18.2136035546       11.1535543345        3.8954210777
 Si        15.7046772413       15.4382896902        3.9182339290
  O        11.1162341826        1.5425539114        6.6602821269
  O        13.5391917934        5.7612895058        6.6612324360
  O        12.8657173394       15.6189663981        8.8612863239
  O        10.3991009015        2.8913636525        8.8533469414
  O        12.4879140135        1.2623269940        8.9367182167
  O        10.0102911982        5.4967219904        8.9392883569
  O        10.8500294326        4.3671785417        6.6729923453
  O        13.3037086747        8.6059215597        6.6059687733
  O        10.0432326980       17.2119100297        8.7387544512
  O        12.4822690919        4.5126037393        8.7866190469
 Si        11.0061845261        1.4981726932        8.3010767144
 Si        13.4371018248        5.7358476791        8.3020922221
 Si        13.4229819886       17.0406778236        8.3034440166
 Si        10.9459374385        4.3242812710        8.3124786835
  O        16.0208251778        1.5860478148        6.6562045683
  O        18.4426483676        5.7693946544        6.6117594302
  O        17.7687256698       15.6133178224        8.7959722132
  O        15.3089588792        2.8992265266        8.8592040382
  O        17.4036472676        1.2591541793        8.9212780496
  O        14.9170422274        5.4982213341        8.9381424936
  O        15.7586694368        4.3730073072        6.6699306707
  O        18.2295974118        8.6111366308        6.6128017195
  O        14.9702307855       17.2172943722        8.7392140815
  O        17.3982497498        4.5106149697        8.7393743602
 Si        15.9198065840        1.5114422280        8.2974998088
 Si        18.3423037458        5.7405043487        8.2544345255
 Si        18.3205417649       17.0405819044        8.2505315423
 Si        15.8521373455        4.3287582837        8.3063333701
  O        11.1193743862       10.0611224997        6.6019923643
  O        13.5381378656       14.2910013777        6.6576311974
  O        12.8383303165        7.1491951589        8.8026398750
  O        10.3957116300       11.3673729681        8.8062578863
  O        12.4907519289        9.7421378401        8.8734287622
  O        10.0112612011       13.9703320456        8.9335838350
  O        10.8336264410       12.8551165209        6.6512914610
  O        13.3207740379       17.0825264262        6.6672634782
  O        10.0601710036        8.7375006002        8.6755251116
  O        12.4855505315       12.9838084247        8.7371625286
 Si        11.0093667074        9.9840783875        8.2419089056
 Si        13.4434382222       14.2202602322        8.2983102588
 Si        13.4140065595        8.5636870050        8.2405610309
 Si        10.9431115557       12.8056307483        8.2860672186
  O        16.0316260890       10.0609271458        6.5996449793
  O        18.4477525922       14.2452294706        6.6074473305
  O        17.7413105388        7.1421833396        8.7895332639
  O        15.3024804656       11.3769918603        8.7901329124
  O        17.3918553766        9.7419349834        8.8763813725
  O        14.9215569664       13.9675084668        8.9300056367
  O        15.7484572189       12.9014131177        6.6233036841
  O        18.1895677721       17.0835529238        6.6139380196
  O        14.9632333788        8.7408822815        8.6726551022
  O        17.3935085717       12.9848063758        8.7237198366
 Si        15.9132178580        9.9870179459        8.2393882137
 Si        18.3508841461       14.2099983425        8.2495510610
 Si        18.3210253885        8.5648322661        8.2520463163
 Si        15.8525102731       12.8135878199        8.2621171277
  H         0.1884502100        4.0213942600        0.5029856200
  H         5.0942002200        4.0213942600        0.5029856200
  H         9.9999502200        4.0213942600        0.5029856200
  H        14.9057002200        4.0213942600        0.5029856200
  H         2.6413252100        8.2583942600        0.5029856200
  H         7.5470752100        8.2583942600        0.5029856200
  H        12.4528252200        8.2583942600        0.5029856200
  H        17.3585752100        8.2583942600        0.5029856200
  H         0.1884502100       12.4953942600        0.5029856200
  H         5.0942002200       12.4953942600        0.5029856200
  H         9.9999502100       12.4953942600        0.5029856200
  H        14.9057002200       12.4953942600        0.5029856200
  H         2.6413252200       16.7323942600        0.5029856200
  H         7.5470752100       16.7323942600        0.5029856200
  H        12.4528252200       16.7323942600        0.5029856200
  H        17.3585752100       16.7323942600        0.5029856200
