Atoms  # charge
 
         256  atoms
           3  atom types
 
      0.000000000000      19.623000000000  xlo xhi
      0.000000000000      16.948000000000  ylo yhi
      0.000000000000      22.000000000000  zlo zhi
 
Masses
 
            1   28.08500000             # Si
            2   15.99900000             # O
            3   1.00800000              # H
 
Atoms  # charge
 
1	1	0.0	2.192008123300	0.650915310000	5.712186210000
2	1	0.0	4.661710203300	4.858963140000	5.761975333300
3	2	0.0	2.777302706700	1.325243260000	4.351783336700
4	2	0.0	0.308829843300	5.504684623300	4.354143776700
5	2	0.0	2.456481416700	3.492047316700	2.893545176700
6	2	0.0	0.002312060000	7.681000586700	2.901250326700
7	2	0.0	3.757806783300	3.593578876700	5.274798956700
8	2	0.0	1.305072416700	7.771651203300	5.280950656700
9	2	0.0	0.645688200000	3.915979400000	1.121044700000
10	2	0.0	3.067288630000	8.214126140000	1.181554390000
11	2	0.0	0.003372116700	2.400614006700	3.198413146700
12	2	0.0	2.452713070000	6.625805163300	3.206921296700
13	1	0.0	1.145501960000	2.850552470000	2.082441270000
14	1	0.0	3.569546500000	7.111906710000	2.099222340000
15	1	0.0	3.491860643300	2.732618726700	3.924119520000
16	1	0.0	1.027220876700	6.909589520000	3.936868180000
17	1	0.0	7.103828903300	0.632185783300	5.760262183300
18	1	0.0	9.576698886700	4.896250543300	5.733944600000
19	2	0.0	7.666163480000	1.339053373300	4.406248026700
20	2	0.0	5.218729540000	5.569123980000	4.408223883300
21	2	0.0	7.396579323300	3.461323566700	2.860645376700
22	2	0.0	4.909253700000	7.687361766700	2.909651446700
23	2	0.0	8.650117246700	3.633090480000	5.277020493300
24	2	0.0	6.270206110000	7.819659740000	5.326058330000
25	2	0.0	5.555286910000	3.912229380000	1.121105260000
26	2	0.0	7.977275710000	8.087783610000	1.114227870000
27	2	0.0	4.916321810000	2.414700870000	3.200295443300
28	2	0.0	7.358647190000	6.669012673300	3.214481186700
29	1	0.0	6.059649390000	2.846168650000	2.079001620000
30	1	0.0	8.485661930000	7.039657100000	2.088867820000
31	1	0.0	8.399990026700	2.726991926700	3.950674203300
32	1	0.0	5.947306230000	6.971123636700	3.977361836700
33	1	0.0	2.215986700000	9.042912470000	5.743427370000
34	1	0.0	4.656737430000	13.314229340000	5.711541240000
35	2	0.0	2.812228293300	9.727732566700	4.392430430000
36	2	0.0	0.301044056700	14.048285130000	4.351734083300
37	2	0.0	2.509054443300	11.863257486700	2.854513553300
38	2	0.0	0.009733420000	16.196614100000	2.840777570000
39	2	0.0	3.751556210000	12.028116636700	5.271103073300
40	2	0.0	1.299202693300	16.313750680000	5.264924690000
41	2	0.0	0.648950600000	12.384864450000	1.116469810000
42	2	0.0	3.072984360000	16.686343300000	1.121448380000
43	2	0.0	0.044485423300	10.936302606700	3.248484050000
44	2	0.0	2.452925550000	15.143472026700	3.195207056700
45	1	0.0	1.151362550000	11.319826470000	2.076669500000
46	1	0.0	3.575494050000	15.605686240000	2.065491320000
47	1	0.0	3.509596776700	11.132773920000	3.939008296700
48	1	0.0	1.026332086700	15.445658890000	3.920127040000
49	1	0.0	7.199049286700	9.087214850000	5.834904520000
50	1	0.0	9.590023886700	13.271898923300	5.840074260000
51	2	0.0	7.723164310000	9.786899320000	4.454852776700
52	2	0.0	5.213341600000	14.017698906700	4.354039946700
53	2	0.0	7.405351403300	11.866658796700	2.851376916700
54	2	0.0	4.900899613300	16.190356213300	2.894168520000
55	2	0.0	8.576233650000	12.160060400000	5.236400616700
56	2	0.0	6.201446323300	16.314348686700	5.275149656700
57	2	0.0	5.498235210000	12.387180360000	1.118918470000
58	2	0.0	7.974426330000	16.688114260000	1.180008350000
59	2	0.0	4.945724783300	10.861477600000	3.208921496700
60	2	0.0	7.349090780000	15.130467696700	3.209498236700
61	1	0.0	6.039817280000	11.344696660000	2.082940640000
62	1	0.0	8.476972010000	15.590290490000	2.102768020000
63	1	0.0	8.426031440000	11.177267663300	3.968804016700
64	1	0.0	5.924546976700	15.434206553300	3.939276153300
65	2	0.0	1.208167770000	1.583985720000	6.626187816700
66	2	0.0	3.707119160000	5.799036546700	6.698207873300
67	2	0.0	3.010059090000	15.669332510000	8.812258693300
68	2	0.0	0.511076296700	2.964285200000	8.788614556700
69	2	0.0	2.581498296700	1.322957620000	8.914529483300
70	2	0.0	0.166293720000	5.555649873300	8.928552136700
71	2	0.0	1.027271246700	4.426302830000	6.653786960000
72	2	0.0	3.469914400000	8.599377510000	6.687285313300
73	2	0.0	0.123400450000	0.354229930000	8.754969040000
74	2	0.0	2.631001216700	4.565557903300	8.800136250000
75	1	0.0	1.103093536700	1.555662280000	8.271061523300
76	1	0.0	3.614044470000	5.778971130000	8.344590616700
77	1	0.0	3.543222100000	0.167345463300	8.290488886700
78	1	0.0	1.106470940000	4.390298333300	8.295949870000
79	2	0.0	6.162804033300	1.588009176700	6.691794913300
80	2	0.0	8.659299263300	5.887600496700	6.657530490000
81	2	0.0	7.963972333300	15.638146906700	8.899210206700
82	2	0.0	5.509999076700	2.973810513300	8.872831520000
83	2	0.0	7.533554126700	1.280716773300	8.987431620000
84	2	0.0	5.093489886700	5.546816370000	8.983610776700
85	2	0.0	5.927683083300	4.422639473300	6.694624410000
86	2	0.0	8.427041883300	8.691278256700	6.830584413300
87	2	0.0	5.074640080000	0.353704203300	8.767673596700
88	2	0.0	7.592803086700	4.612937853300	8.778526113300
89	1	0.0	6.071265183300	1.560504533300	8.335305363300
90	1	0.0	8.547887190000	5.861464003300	8.312778353300
91	1	0.0	8.475602250000	0.123076056700	8.338481490000
92	1	0.0	6.054426176700	4.403898513300	8.333824910000
93	2	0.0	1.251047010000	10.017500436700	6.634937876700
94	2	0.0	3.706360310000	14.297574543300	6.609169330000
95	2	0.0	3.014287716700	7.180238363300	8.882458113300
96	2	0.0	0.515804213300	11.419327906700	8.782120283300
97	2	0.0	2.580626523300	9.767019776700	8.918472750000
98	2	0.0	0.134237513300	13.991145350000	8.921498423300
99	2	0.0	1.018886660000	12.917917220000	6.625426536700
100	2	0.0	3.465992420000	0.248663053300	6.649817136700
101	2	0.0	0.119530690000	8.797874820000	8.749349850000
102	2	0.0	2.628999953300	13.050164540000	8.715332726700
103	1	0.0	1.105191386700	10.001578490000	8.276685656700
104	1	0.0	3.601385496700	14.272034420000	8.255636613300
105	1	0.0	3.557013763300	8.609209076700	8.330073280000
106	1	0.0	1.090377596700	12.850137726700	8.266730633300
107	2	0.0	6.197437723300	10.059135593300	6.696764316700
108	2	0.0	8.663563526700	14.314379996700	6.701448040000
109	2	0.0	7.951864373300	7.237399380000	8.889316366700
110	2	0.0	5.411220020000	11.438485386700	8.823024710000
111	2	0.0	7.519833060000	9.856745053300	9.018044423300
112	2	0.0	5.083360866700	14.035347086700	8.884987766700
113	2	0.0	5.924374766700	12.883021820000	6.640298553300
114	2	0.0	8.359411730000	0.191610180000	6.700112813300
115	2	0.0	5.081285846700	8.829287313300	8.810736306700
116	2	0.0	7.542332850000	13.015939946700	8.761077320000
117	1	0.0	6.062110460000	10.038917293300	8.337228850000
118	1	0.0	8.549494780000	14.231025313300	8.349180753300
119	1	0.0	8.554349590000	8.711430206700	8.490957543300
120	1	0.0	6.013233763300	12.847680770000	8.283053266700
121	1	0.0	11.999458093300	0.645414193300	5.760221813300
122	1	0.0	14.458894733300	4.869834840000	5.778079673300
123	2	0.0	12.591707370000	1.325854893300	4.402729490000
124	2	0.0	10.141493273300	5.546135873300	4.350442770000
125	2	0.0	12.266131433300	3.465138940000	2.903261153300
126	2	0.0	9.863603966700	7.633927983300	2.804659600000
127	2	0.0	13.554210980000	3.594691270000	5.317845106700
128	2	0.0	11.147443403300	7.796601206700	5.282492296700
129	2	0.0	10.399484370000	3.908684400000	1.183545980000
130	2	0.0	12.881593440000	8.089399080000	1.117229020000
131	2	0.0	9.815297566700	2.360335116700	3.227281993300
132	2	0.0	12.311749220000	6.610591623300	3.240631923300
133	1	0.0	10.940972370000	2.828100180000	2.106481370000
134	1	0.0	13.389873930000	7.040946930000	2.091690840000
135	1	0.0	13.297759673300	2.731729223300	3.960093990000
136	1	0.0	10.865794910000	6.955433186700	3.938972136700
137	1	0.0	16.857915260000	0.647107860000	5.717614673300
138	1	0.0	19.369322523300	4.831551716700	5.727004430000
139	2	0.0	17.432785800000	1.325663533300	4.349004450000
140	2	0.0	15.031215163300	5.505046430000	4.390698743300
141	2	0.0	17.185983783300	3.473682100000	2.860758096700
142	2	0.0	14.776536306700	7.584907880000	2.793486563300
143	2	0.0	18.472422766700	3.549282453300	5.274541276700
144	2	0.0	15.964701440000	7.823172513300	5.219622753300
145	2	0.0	15.309345310000	3.913183390000	1.125859710000
146	2	0.0	17.773654790000	8.157774600000	1.174896300000
147	2	0.0	14.721331740000	2.432139213300	3.213656663300
148	2	0.0	17.202605970000	6.578843106700	3.242089383300
149	1	0.0	15.851485120000	2.865135160000	2.084450870000
150	1	0.0	18.287559590000	7.084232460000	2.118716080000
151	1	0.0	18.199157390000	2.705355353300	3.914883196700
152	1	0.0	15.751273696700	6.885510286700	3.923774433300
153	1	0.0	11.864260273300	9.225724903300	5.783720103300
154	1	0.0	14.389861650000	13.365953330000	5.706246306700
155	2	0.0	12.656654470000	9.738362136700	4.402691246700
156	2	0.0	10.270144113300	13.955814343300	4.511060806700
157	2	0.0	12.316292246700	11.870200086700	2.796078203300
158	2	0.0	9.811220383300	16.097760160000	2.946410296700
159	2	0.0	13.511454710000	12.101121333300	5.215836933300
160	2	0.0	11.073062010000	16.326516296700	5.317807210000
161	2	0.0	10.402463030000	12.386117670000	1.120457770000
162	2	0.0	12.822894270000	16.626982330000	1.123759470000
163	2	0.0	9.852364206700	10.893451300000	3.219268166700
164	2	0.0	12.283486696700	15.139581490000	3.250095850000
165	1	0.0	10.938311670000	11.321544650000	2.063552140000
166	1	0.0	13.367133450000	15.583027240000	2.085088740000
167	1	0.0	13.304543833300	11.147293670000	3.920302660000
168	1	0.0	10.854491243300	15.387460986700	4.009883916700
169	1	0.0	16.876725880000	9.084428943300	5.697907456700
170	1	0.0	19.359954573300	13.340085126700	5.705299293300
171	2	0.0	17.501191296700	9.769318640000	4.356659943300
172	2	0.0	14.969696286700	14.068565170000	4.352823930000
173	2	0.0	17.192634210000	11.904042250000	2.846382526700
174	2	0.0	14.719213913300	16.190437606700	2.838321396700
175	2	0.0	18.423798166700	12.078821540000	5.263135796700
176	2	0.0	15.942175326700	16.327673950000	5.265271913300
177	2	0.0	15.308209340000	12.385700750000	1.120075090000
178	2	0.0	17.728983670000	16.687237630000	1.181928880000
179	2	0.0	14.755947396700	10.872116776700	3.208203860000
180	2	0.0	17.161411696700	15.143010913300	3.228698280000
181	1	0.0	15.847279170000	11.319542570000	2.059646870000
182	1	0.0	18.267291380000	15.607778280000	2.107478710000
183	1	0.0	18.203903400000	11.180555120000	3.926390260000
184	1	0.0	15.713287406700	15.446998460000	3.922749423300
185	2	0.0	11.070758636700	1.628521220000	6.684175843300
186	2	0.0	13.565778750000	5.890405936700	6.690388516700
187	2	0.0	12.771329303300	15.655951506700	8.855790606700
188	2	0.0	10.375189860000	2.988728180000	8.854673333300
189	2	0.0	12.448918106700	1.340351100000	8.977327016700
190	2	0.0	10.036323843300	5.594214563300	8.930143300000
191	2	0.0	10.835388006700	4.424780640000	6.656848903300
192	2	0.0	13.024339013300	8.814850436700	6.884048250000
193	2	0.0	10.014923833300	0.351449916700	8.766956593300
194	2	0.0	12.492144370000	4.573314823300	8.737492343300
195	1	0.0	10.971320973300	1.585462286700	8.328372993300
196	1	0.0	13.427579670000	5.844823533300	8.338577820000
197	1	0.0	13.344353080000	0.135451223300	8.333041863300
198	1	0.0	10.947614226700	4.408305166700	8.297991100000
199	2	0.0	15.914223083300	1.601829723300	6.645138573300
200	2	0.0	18.423170443300	5.799614796700	6.644139736700
201	2	0.0	17.678768106700	15.641438930000	8.794626526700
202	2	0.0	15.227923826700	2.939175903300	8.856900726700
203	2	0.0	17.294638563300	1.317396776700	8.933870113300
204	2	0.0	14.897727226700	5.551821003300	8.982204866700
205	2	0.0	15.728521496700	4.418548230000	6.698025593300
206	2	0.0	18.131046403300	8.638394636700	6.638096276700
207	2	0.0	14.896415913300	0.299181953300	8.757566696700
208	2	0.0	17.358519036700	4.528424513300	8.763270720000
209	1	0.0	15.818931506700	1.547947930000	8.292201160000
210	1	0.0	18.301999000000	5.765253866700	8.289719560000
211	1	0.0	18.215413126700	0.141149883300	8.290161280000
212	1	0.0	15.805278976700	4.369157750000	8.339876086700
213	2	0.0	10.784930313300	10.169014023300	6.411691666700
214	2	0.0	13.431180520000	14.306464170000	6.645526116700
215	2	0.0	12.773214063300	7.187018586700	8.925986623300
216	2	0.0	10.427629593300	11.418157596700	9.359515170000
217	2	0.0	12.411408743300	9.713754846700	9.474245883300
218	2	0.0	9.982865496700	13.946747433300	9.046239716700
219	2	0.0	10.697300726700	12.740484563300	6.878677013300
220	2	0.0	13.265225606700	0.200258316700	6.691529026700
221	2	0.0	9.951859920000	8.887860893300	9.245902323300
222	2	0.0	12.456889316700	12.972784280000	8.763025153300
223	1	0.0	10.911352416700	10.012038646700	9.750066646700
224	1	0.0	13.338075870000	14.241918770000	8.295377613300
225	1	0.0	13.189532546700	8.703870530000	8.501078730000
226	1	0.0	10.885221266700	12.689355166700	8.509453806700
227	2	0.0	15.902209230000	10.021685933300	6.604304706700
228	2	0.0	18.428430950000	14.299298963300	6.639526646700
229	2	0.0	17.663365910000	7.160095333300	8.791909566700
230	2	0.0	15.177990510000	11.428863003300	8.740870470000
231	2	0.0	17.254090223300	9.776385533300	8.872157390000
232	2	0.0	14.844014966700	14.038990180000	8.887201413300
233	2	0.0	15.683890396700	12.924905910000	6.601858013300
234	2	0.0	18.117275806700	0.199719390000	6.650608336700
235	2	0.0	14.794572773300	8.836148673300	8.797263006700
236	2	0.0	17.307839940000	13.004611853300	8.698603703300
237	1	0.0	15.758398830000	10.004468663300	8.252073426700
238	1	0.0	18.281828653300	14.235415270000	8.276656606700
239	1	0.0	18.202804233300	8.606121980000	8.277355430000
240	1	0.0	15.758360530000	12.857207196700	8.242772530000
241	3	0.0	0.188450210000	4.021394260000	0.502985620000
242	3	0.0	5.094200220000	4.021394260000	0.502985620000
243	3	0.0	9.999950220000	4.021394260000	0.502985620000
244	3	0.0	14.905700220000	4.021394260000	0.502985620000
245	3	0.0	2.641325210000	8.258394260000	0.502985620000
246	3	0.0	7.547075210000	8.258394260000	0.502985620000
247	3	0.0	12.452825220000	8.258394260000	0.502985620000
248	3	0.0	17.358575210000	8.258394260000	0.502985620000
249	3	0.0	0.188450210000	12.495394260000	0.502985620000
250	3	0.0	5.094200220000	12.495394260000	0.502985620000
251	3	0.0	9.999950210000	12.495394260000	0.502985620000
252	3	0.0	14.905700220000	12.495394260000	0.502985620000
253	3	0.0	2.641325220000	16.732394260000	0.502985620000
254	3	0.0	7.547075210000	16.732394260000	0.502985620000
255	3	0.0	12.452825220000	16.732394260000	0.502985620000
256	3	0.0	17.358575210000	16.732394260000	0.502985620000
