256
Lattice="19.6230000000 0.0000000000 0.0000000000 0.0000000000 16.9480000000 0.0000000000 0.0000000000 0.0000000000 22.0000000000" Properties=species:S:1:pos:R:3 pbc="T T T"
Si       2.2045989250    0.6345941050    5.7082652950
Si       4.6681797500    4.8458484750    5.7521091150
O        2.7886855500    1.3123360950    4.3503862700
O        0.3092011100    5.5037345250    4.3527662450
O        2.4567633650    3.4855163150    2.8960882550
O        0.0021101500    7.6816812150    2.9019508950
O        3.7581237150    3.5813509250    5.2764788950
O        1.3044016000    7.7691272850    5.2808141900
O        0.6456882000    3.9159794000    1.1210447000
O        3.0672886300    8.2141261400    1.1815543900
O        0.0037612000    2.4027735250    3.1993245250
O        2.4528736550    6.6258913600    3.2074405950
Si       1.1455019600    2.8505524700    2.0824412700
Si       3.5695465000    7.1119067100    2.0992223400
Si       3.4931391800    2.7237624850    3.9228993550
Si       1.0265619000    6.9091948300    3.9347257100
Si       7.1061230000    0.6228862350    5.7494973800
Si       9.5806980650    4.8738976450    5.7331880450
O        7.6663534750    1.3254674600    4.3935728950
O        5.2185768100    5.5521664100    4.3944136850
O        7.3898321200    3.4621025550    2.8725105750
O        4.9086853050    7.6868101800    2.9081477250
O        8.6516475550    3.6089409850    5.2900612700
O        6.2556770650    7.8073022850    5.3132783450
O        5.5552869100    3.9122293800    1.1211052600
O        7.9772757100    8.0877836100    1.1142278700
O        4.9173461350    2.4139498450    3.1996740600
O        7.3580951200    6.6573284150    3.2134110800
Si       6.0596493900    2.8461686500    2.0790016200
Si       8.4856619300    7.0396571000    2.0888678200
Si       8.3970008700    2.7199396550    3.9512038550
Si       5.9428351250    6.9556880750    3.9648454900
Si       2.2190502550    9.0399734450    5.7326571100
Si       4.6633613050   13.3052013850    5.7096621350
O        2.8014427750    9.7276166800    4.3790113450
O        0.3028300250   14.0382581400    4.3486856000
O        2.4974589050   11.8757182350    2.8665491850
O        0.0097334200   16.1966141000    2.8407775700
O        3.7556656650   12.0196563900    5.2727600350
O        1.3003905050   16.3032579150    5.2670511450
O        0.6489506000   12.3848644500    1.1164698100
O        3.0729843600   16.6863433000    1.1214483800
O        0.0372049250   10.9157123450    3.2330715500
O        2.4533471600   15.1429478650    3.1955062600
Si       1.1513625500   11.3198264700    2.0766695000
Si       3.5754940500   15.6056862400    2.0654913200
Si       3.5047957200   11.1337164050    3.9351075750
Si       1.0256311250   15.4387028900    3.9195599250
Si       7.1829960450    9.0775105200    5.7981657250
Si       9.5886374450   13.2829254950    5.8091460150
O        7.7086102000    9.7867194650    4.4274538300
O        5.2129636550   14.0146808750    4.3530962050
O        7.3930827000   11.8931017700    2.8633725650
O        4.9008958600   16.1912768400    2.8946273850
O        8.5976067800   12.1327001750    5.2455972150
O        6.2009277000   16.3037488150    5.2761479650
O        5.4982352100   12.3871803600    1.1189184700
O        7.9744263300   16.6881142600    1.1800083500
O        4.9385061350   10.8590860650    3.2063181150
O        7.3501183000   15.1311807700    3.2106170150
Si       6.0398172800   11.3446966600    2.0829406400
Si       8.4769720100   15.5902904900    2.1027680200
Si       8.4172568350   11.1800782300    3.9560694950
Si       5.9231045400   15.4302980450    3.9358709100
O        1.2321773500    1.5821911650    6.6198577650
O        3.7208421550    5.7980021100    6.6837767450
O        3.0227292100   15.6531710700    8.8076225400
O        0.5335381850    2.9516474200    8.7897661650
O        2.6054465300    1.3112851600    8.9037152650
O        0.1798584200    5.5432485700    8.9285792050
O        1.0347841150    4.4149401550    6.6492222950
O        3.4815261250    8.5980768300    6.6671782500
O        0.1506832600    0.3397188150    8.7428060750
O        2.6460884850    4.5538282900    8.7799745850
Si       1.1261370350    1.5465504000    8.2638198800
Si       3.6249099400    5.7703080050    8.3282613950
Si       3.5590103800    0.1485521450    8.2826709250
Si       1.1179166500    4.3790446850    8.2899506400
O        6.1731254350    1.5871177350    6.6808993500
O        8.6607854600    5.8639842250    6.6556051900
O        7.9656830150   15.6306445300    8.8880247100
O        5.5109547250    2.9601537950    8.8679271350
O        7.5455654450    1.2792318950    8.9740290500
O        5.1024144350    5.5363944950    8.9708642200
O        5.9374673800    4.4107733900    6.6839267850
O        8.4261525200    8.6674534000    6.7702245500
O        5.0911577500    0.3383770850    8.7553809700
O        7.5937912450    4.5907564950    8.7772301550
Si       6.0795933650    1.5516903100    8.3240884650
Si       8.5510295300    5.8314313100    8.3072943250
Si       8.4813450650    0.1161002650    8.3259836200
Si       6.0569468750    4.3880390450    8.3239142950
O        1.2639852400   10.0172846550    6.6309094350
O        3.7185278050   14.2836501750    6.6169807050
O        3.0241426250    7.1715227150    8.8607759050
O        0.5378146700   11.4068276300    8.7824223100
O        2.6054278050    9.7573847700    8.9072520600
O        0.1578716700   13.9816452550    8.9100717500
O        1.0316072900   12.9053628100    6.6175813000
O        3.4780254200    0.2231110250    6.6437471200
O        0.1484515200    8.7826350400    8.7402858050
O        2.6447900000   13.0284247500    8.7145507350
Si       1.1276965900    9.9926147600    8.2716663550
Si       3.6152137150   14.2532938750    8.2614470800
Si       3.5710702700    8.5974543700    8.3084813150
Si       1.1079670850   12.8355986100    8.2580459400
O        6.1998507750   10.0493245000    6.6773137800
O        8.6642795900   14.3112382200    6.6884454350
O        7.9539684500    7.2152972200    8.8651504150
O        5.4360431950   11.4206501850    8.8147235650
O        7.5373912800    9.8244415200    8.9806498100
O        5.0946187150   14.0131000650    8.8967711550
O        5.9360077950   12.8810244750    6.6378359250
O        8.3619532250    0.1800345700    6.6885296800
O        5.0975701450    8.8071005850    8.7857252250
O        7.5579199800   13.0043116700    8.7492743450
Si       6.0731687350   10.0213309500    8.3167219450
Si       8.5528267500   14.2268170050    8.3348381750
Si       8.5458427850    8.6739893100    8.4253930100
Si       6.0261623850   12.8352736500    8.2785486350
Si      12.0107223700    0.6330946950    5.7495613750
Si      14.4671238500    4.8543022350    5.7641077500
O       12.6012881800    1.3124585300    4.3916639850
O       10.1361875750    5.5342540200    4.3521017550
O       12.2665094650    3.4642204100    2.9034309600
O        9.8490809700    7.6448555500    2.8277788050
O       13.5576937600    3.5820422850    5.3090879050
O       11.1399062550    7.7898384200    5.2800014700
O       10.3994843700    3.9086844000    1.1835459800
O       12.8815934400    8.0893990800    1.1172290200
O        9.8193576050    2.3726954500    3.2378577200
O       12.2991608400    6.6134102850    3.2334117400
Si      10.9409723700    2.8281001800    2.1064813700
Si      13.3898739300    7.0409469300    2.0916908400
Si      13.2984544700    2.7228411250    3.9507909000
Si      10.8568785550    6.9436440300    3.9353423200
Si      16.8711378400    0.6344829350    5.7161204850
Si      19.3761598800    4.8257512800    5.7243204550
O       17.4442174750    1.3149352050    4.3494064850
O       15.0301547950    5.5039016500    4.3813347250
O       17.1825353350    3.4722601150    2.8703917050
O       14.7603463300    7.6087554550    2.8196530350
O       18.4723452100    3.5475787750    5.2758771450
O       15.9791785500    7.8086975600    5.2340130050
O       15.3093453100    3.9131833900    1.1258597100
O       17.7736547900    8.1577746000    1.1748963000
O       14.7230280200    2.4265732900    3.2111669300
O       17.1932801000    6.5889520700    3.2359685800
Si      15.8514851200    2.8651351600    2.0844508700
Si      18.2875595900    7.0842324600    2.1187160800
Si      18.1991940650    2.7012683350    3.9169092650
Si      15.7463822250    6.8920240050    3.9247454500
Si      11.9082886750    9.1814965750    5.7584220700
Si      14.4142612000   13.3532597850    5.7085674300
O       12.6359176750    9.7506255650    4.3874935800
O       10.2328988350   13.9703081750    4.4712773050
O       12.2998893900   11.8947983650    2.8203282850
O        9.8109295300   16.1216838200    2.9355143900
O       13.5244002300   12.0887024100    5.2308638900
O       11.0833043100   16.3147302650    5.3087067300
O       10.4024630300   12.3861176700    1.1204577700
O       12.8228942700   16.6269823300    1.1237594700
O        9.8424309150   10.8852980600    3.2142171050
O       12.2778594050   15.1385092600    3.2408030000
Si      10.9383116700   11.3215446500    2.0635521400
Si      13.3671334500   15.5830272400    2.0850887400
Si      13.2996382500   11.1603777200    3.9189137900
Si      10.8486516100   15.3965170000    3.9900193800
Si      16.8975865050    9.0708979800    5.6967299050
Si      19.3687599500   13.3249584100    5.7008955900
O       17.5117796450    9.7555876750    4.3532399150
O       14.9833669700   14.0546403450    4.3522540250
O       17.1875224700   11.9048574800    2.8584888700
O       14.7154462150   16.1907980600    2.8493657300
O       18.4382900600   12.0579085650    5.2647225100
O       15.9454329150   16.3200734900    5.2684896900
O       15.3082093400   12.3857007500    1.1200750900
O       17.7289836700   16.6872376300    1.1819288800
O       14.7467286200   10.8832573050    3.2074903150
O       17.1610751500   15.1419653100    3.2285404650
Si      15.8472791700   11.3195425700    2.0596468700
Si      18.2672913800   15.6077782800    2.1074787100
Si      18.2055344200   11.1706726700    3.9221244000
Si      15.7145480050   15.4421683900    3.9233983800
O       11.0825125900    1.6165900400    6.6739685150
O       13.5665049850    5.8654298750    6.6798067500
O       12.7975485350   15.6441572100    8.8552497300
O       10.3863753600    2.9706943400    8.8537504900
O       12.4585275850    1.3235616350    8.9659989550
O       10.0364404300    5.5717840800    8.9312434100
O       10.8456038950    4.4126339000    6.6560791900
O       13.1004047850    8.7600014750    6.8095660100
O       10.0222344900    0.3369057150    8.7538412400
O       12.4949615150    4.5609508250    8.7466688600
Si      10.9811713100    1.5698699850    8.3177102750
Si      13.4371318950    5.8189051250    8.3265063000
Si      13.3605941000    0.1253056500    8.3224555900
Si      10.9533907300    4.3911640450    8.2974504600
O       15.9392593100    1.5983825750    6.6462404450
O       18.4365612300    5.7987596200    6.6431860750
O       17.7034669400   15.6312809050    8.7947119100
O       15.2522552250    2.9341069450    8.8560431650
O       17.3195692100    1.3057185150    8.9332252700
O       14.9091247300    5.5398337200    8.9698121500
O       15.7393508250    4.4074569750    6.6848991250
O       18.1563747700    8.6266476600    6.6339697700
O       14.9105144350    0.2975291200    8.7484572850
O       17.3717944200    4.5251589850    8.7525534450
Si      15.8431100600    1.5420171000    8.2920104900
Si      18.3180936850    5.7609529550    8.2872515400
Si      18.2393684200    0.1300640200    8.2858107550
Si      15.8214403600    4.3614447450    8.3260197850
O       10.8668898050   10.1320223550    6.4620354750
O       13.4662725150   14.3054852600    6.6464929100
O       12.7967218950    7.1775881800    8.8924323700
O       10.4248727850   11.4052100800    9.2168883300
O       12.4323493600    9.7170927700    9.3223178300
O        9.9960905700   13.9469608550    9.0183977650
O       10.7401996550   12.7754030750    6.8172908950
O       13.2758749200    0.1872726050    6.6819598850
O        9.9767802700    8.8510513900    9.1110573700
O       12.4700821950   12.9718517600    8.7506415450
Si      10.9364467800   10.0011602500    9.3750999700
Si      13.3703607200   14.2349381800    8.2943595650
Si      13.2485376750    8.6684455450    8.4321870900
Si      10.9060932900   12.7166684700    8.4488266300
O       15.9322481300   10.0216537000    6.6019968050
O       18.4381004400   14.2853674750    6.6354785500
O       17.6800528600    7.1555487350    8.7921842950
O       15.2135281950   11.4130016000    8.7519914250
O       17.2892755000    9.7659970350    8.8721203350
O       14.8680982100   14.0162331750    8.8991565500
O       15.7061663100   12.9137617000    6.6095109500
O       18.1317980400    0.1863578000    6.6479041050
O       14.8354989300    8.8127421100    8.7733105400
O       17.3340427750   12.9949236950    8.7026891800
Si      15.7976846600    9.9961732400    8.2484415100
Si      18.3035437150   14.2263363200    8.2725080100
Si      18.2321093850    8.5939106800    8.2718840200
Si      15.7867368100   12.8426083900    8.2487291450
H        0.1884502100    4.0213942600    0.5029856200
H        5.0942002200    4.0213942600    0.5029856200
H        9.9999502200    4.0213942600    0.5029856200
H       14.9057002200    4.0213942600    0.5029856200
H        2.6413252100    8.2583942600    0.5029856200
H        7.5470752100    8.2583942600    0.5029856200
H       12.4528252200    8.2583942600    0.5029856200
H       17.3585752100    8.2583942600    0.5029856200
H        0.1884502100   12.4953942600    0.5029856200
H        5.0942002200   12.4953942600    0.5029856200
H        9.9999502100   12.4953942600    0.5029856200
H       14.9057002200   12.4953942600    0.5029856200
H        2.6413252200   16.7323942600    0.5029856200
H        7.5470752100   16.7323942600    0.5029856200
H       12.4528252200   16.7323942600    0.5029856200
H       17.3585752100   16.7323942600    0.5029856200
