256
Lattice="19.6230000000 0.0000000000 0.0000000000 0.0000000000 16.9480000000 0.0000000000 0.0000000000 0.0000000000 22.0000000000" Properties=species:S:1:pos:R:3 pbc="T T T"
Si       2.2171897267    0.6182729000    5.7043443800
Si       4.6746492967    4.8327338100    5.7422428967
O        2.8000683933    1.2994289300    4.3489892033
O        0.3095723767    5.5027844267    4.3513887133
O        2.4570453133    3.4789853133    2.8986313333
O        0.0019082400    7.6823618433    2.9026514633
O        3.7584406467    3.5691229733    5.2781588333
O        1.3037307833    7.7666033667    5.2806777233
O        0.6456882000    3.9159794000    1.1210447000
O        3.0672886300    8.2141261400    1.1815543900
O        0.0041502833    2.4049330433    3.2002359033
O        2.4530342400    6.6259775567    3.2079598933
Si       1.1455019600    2.8505524700    2.0824412700
Si       3.5695465000    7.1119067100    2.0992223400
Si       3.4944177167    2.7149062433    3.9216791900
Si       1.0259029233    6.9088001400    3.9325832400
Si       7.1084170967    0.6135866867    5.7387325767
Si       9.5846972433    4.8515447467    5.7324314900
O        7.6665434700    1.3118815467    4.3808977633
O        5.2184240800    5.5352088400    4.3806034867
O        7.3830849167    3.4628815433    2.8843757733
O        4.9081169100    7.6862585933    2.9066440033
O        8.6531778633    3.5847914900    5.3031020467
O        6.2411480200    7.7949448300    5.3004983600
O        5.5552869100    3.9122293800    1.1211052600
O        7.9772757100    8.0877836100    1.1142278700
O        4.9183704600    2.4131988200    3.1990526767
O        7.3575430500    6.6456441567    3.2123409733
Si       6.0596493900    2.8461686500    2.0790016200
Si       8.4856619300    7.0396571000    2.0888678200
Si       8.3940117133    2.7128873833    3.9517335067
Si       5.9383640200    6.9402525133    3.9523291433
Si       2.2221138100    9.0370344200    5.7218868500
Si       4.6699851800   13.2961734300    5.7077830300
O        2.7906572567    9.7275007933    4.3655922600
O        0.3046159933   14.0282311500    4.3456371167
O        2.4858633667   11.8881789833    2.8785848167
O        0.0097334200   16.1966141000    2.8407775700
O        3.7597751200   12.0111961433    5.2744169967
O        1.3015783167   16.2927651500    5.2691776000
O        0.6489506000   12.3848644500    1.1164698100
O        3.0729843600   16.6863433000    1.1214483800
O        0.0299244267   10.8951220833    3.2176590500
O        2.4537687700   15.1424237033    3.1958054633
Si       1.1513625500   11.3198264700    2.0766695000
Si       3.5754940500   15.6056862400    2.0654913200
Si       3.4999946633   11.1346588900    3.9312068533
Si       1.0249301633   15.4317468900    3.9189928100
Si       7.1669428033    9.0678061900    5.7614269300
Si       9.5872510033   13.2939520667    5.7782177700
O        7.6940560900    9.7865396100    4.4000548833
O        5.2125857100   14.0116628433    4.3521524633
O        7.3808139967   11.9195447433    2.8753682133
O        4.9008921067   16.1921974667    2.8950862500
O        8.6189799100   12.1053399500    5.2547938133
O        6.2004090767   16.2931489433    5.2771462733
O        5.4982352100   12.3871803600    1.1189184700
O        7.9744263300   16.6881142600    1.1800083500
O        4.9312874867   10.8566945300    3.2037147333
O        7.3511458200   15.1318938433    3.2117357933
Si       6.0398172800   11.3446966600    2.0829406400
Si       8.4769720100   15.5902904900    2.1027680200
Si       8.4084822300   11.1828887967    3.9433349733
Si       5.9216621033   15.4263895367    3.9324656667
O        1.2561869300    1.5803966100    6.6135277133
O        3.7345651500    5.7969676733    6.6693456167
O        3.0353993300   15.6370096300    8.8029863867
O        0.5560000733    2.9390096400    8.7909177733
O        2.6293947633    1.2996127000    8.8929010467
O        0.1934231200    5.5308472667    8.9286062733
O        1.0422969833    4.4035774800    6.6446576300
O        3.4931378500    8.5967761500    6.6470711867
O        0.1779660700    0.3252077000    8.7306431100
O        2.6611757533    4.5420986767    8.7598129200
Si       1.1491805333    1.5374385200    8.2565782367
Si       3.6357754100    5.7616448800    8.3119321733
Si       3.5747986600    0.1297588267    8.2748529633
Si       1.1293623600    4.3677910367    8.2839514100
O        6.1834468367    1.5862262933    6.6700037867
O        8.6622716567    5.8403679533    6.6536798900
O        7.9673936967   15.6231421533    8.8768392133
O        5.5119103733    2.9464970767    8.8630227500
O        7.5575767633    1.2777470167    8.9606264800
O        5.1113389833    5.5259726200    8.9581176633
O        5.9472516767    4.3989073067    6.6732291600
O        8.4252631567    8.6436285433    6.7098646867
O        5.1076754200    0.3230499667    8.7430883433
O        7.5947794033    4.5685751367    8.7759341967
Si       6.0879215467    1.5428760867    8.3128715667
Si       8.5541718700    5.8013986167    8.3018102967
Si       8.4870878800    0.1091244733    8.3134857500
Si       6.0594675733    4.3721795767    8.3140036800
O        1.2769234700   10.0170688733    6.6268809933
O        3.7306953000   14.2697258067    6.6247920800
O        3.0339975333    7.1628070667    8.8390936967
O        0.5598251267   11.3943273533    8.7827243367
O        2.6302290867    9.7477497633    8.8960313700
O        0.1815058267   13.9721451600    8.8986450767
O        1.0443279200   12.8928084000    6.6097360633
O        3.4900584200    0.1975589967    6.6376771033
O        0.1773723500    8.7673952600    8.7312217600
O        2.6605800467   13.0066849600    8.7137687433
Si       1.1502017933    9.9836510300    8.2666470533
Si       3.6290419333   14.2345533300    8.2672575467
Si       3.5851267767    8.5856996633    8.2868893500
Si       1.1255565733   12.8210594933    8.2493612467
O        6.2022638267   10.0395134067    6.6578632433
O        8.6649956533   14.3080964433    6.6754428300
O        7.9560725267    7.1931950600    8.8409844633
O        5.4608663700   11.4028149833    8.8064224200
O        7.5549495000    9.7921379867    8.9432551967
O        5.1058765633   13.9908530433    8.9085545433
O        5.9476408233   12.8790271300    6.6353732967
O        8.3644947200    0.1684589600    6.6769465467
O        5.1138544433    8.7849138567    8.7607141433
O        7.5735071100   12.9926833933    8.7374713700
Si       6.0842270100   10.0037446067    8.2962150400
Si       8.5561587200   14.2226086967    8.3204955967
Si       8.5373359800    8.6365484133    8.3598284767
Si       6.0390910067   12.8228665300    8.2740440033
Si      12.0219866467    0.6207751967    5.7389009367
Si      14.4753529667    4.8387696300    5.7501358267
O       12.6108689900    1.2990621667    4.3805984800
O       10.1308818767    5.5223721667    4.3537607400
O       12.2668874967    3.4633018800    2.9036007667
O        9.8345579733    7.6557831167    2.8508980100
O       13.5611765400    3.5693933000    5.3003307033
O       11.1323691067    7.7830756333    5.2775106433
O       10.3994843700    3.9086844000    1.1835459800
O       12.8815934400    8.0893990800    1.1172290200
O        9.8234176433    2.3850557833    3.2484334467
O       12.2865724600    6.6162289467    3.2261915567
Si      10.9409723700    2.8281001800    2.1064813700
Si      13.3898739300    7.0409469300    2.0916908400
Si      13.2991492667    2.7139530267    3.9414878100
Si      10.8479622000    6.9318548733    3.9317125033
Si      16.8843604200    0.6218580100    5.7146262967
Si      19.3829972367    4.8199508433    5.7216364800
O       17.4556491500    1.3042068767    4.3498085200
O       15.0290944267    5.5027568700    4.3719707067
O       17.1790868867    3.4708381300    2.8800253133
O       14.7441563533    7.6326030300    2.8458195067
O       18.4722676533    3.5458750967    5.2772130133
O       15.9936556600    7.7942226067    5.2484032567
O       15.3093453100    3.9131833900    1.1258597100
O       17.7736547900    8.1577746000    1.1748963000
O       14.7247243000    2.4210073667    3.2086771967
O       17.1839542300    6.5990610333    3.2298477767
Si      15.8514851200    2.8651351600    2.0844508700
Si      18.2875595900    7.0842324600    2.1187160800
Si      18.1992307400    2.6971813167    3.9189353333
Si      15.7414907533    6.8985377233    3.9257164667
Si      11.9523170767    9.1372682467    5.7331240367
Si      14.4386607500   13.3405662400    5.7108885533
O       12.6151808800    9.7628889933    4.3722959133
O       10.1956535567   13.9848020067    4.4314938033
O       12.2834865333   11.9193966433    2.8445783667
O        9.8106386767   16.1456074800    2.9246184833
O       13.5373457500   12.0762834867    5.2458908467
O       11.0935466100   16.3029442333    5.2996062500
O       10.4024630300   12.3861176700    1.1204577700
O       12.8228942700   16.6269823300    1.1237594700
O        9.8324976233   10.8771448200    3.2091660433
O       12.2722321133   15.1374370300    3.2315101500
Si      10.9383116700   11.3215446500    2.0635521400
Si      13.3671334500   15.5830272400    2.0850887400
Si      13.2947326667   11.1734617700    3.9175249200
Si      10.8428119767   15.4055730133    3.9701548433
Si      16.9184471300    9.0573670167    5.6955523533
Si      19.3775653267   13.3098316933    5.6964918867
O       17.5223679933    9.7418567100    4.3498198867
O       14.9970376533   14.0407155200    4.3516841200
O       17.1824107300   11.9056727100    2.8705952133
O       14.7116785167   16.1911585133    2.8604100633
O       18.4527819533   12.0369955900    5.2663092233
O       15.9486905033   16.3124730300    5.2717074667
O       15.3082093400   12.3857007500    1.1200750900
O       17.7289836700   16.6872376300    1.1819288800
O       14.7375098433   10.8943978333    3.2067767700
O       17.1607386033   15.1409197067    3.2283826500
Si      15.8472791700   11.3195425700    2.0596468700
Si      18.2672913800   15.6077782800    2.1074787100
Si      18.2071654400   11.1607902200    3.9178585400
Si      15.7158086033   15.4373383200    3.9240473367
O       11.0942665433    1.6046588600    6.6637611867
O       13.5672312200    5.8404538133    6.6692249833
O       12.8237677667   15.6323629133    8.8547088533
O       10.3975608600    2.9526605000    8.8528276467
O       12.4681370633    1.3067721700    8.9546708933
O       10.0365570167    5.5493535967    8.9323435200
O       10.8558197833    4.4004871600    6.6553094767
O       13.1764705567    8.7051525133    6.7350837700
O       10.0295451467    0.3223615133    8.7407258867
O       12.4977786600    4.5485868267    8.7558453767
Si      10.9910216467    1.5542776833    8.3070475567
Si      13.4466841200    5.7929867167    8.3144347800
Si      13.3768351200    0.1151600767    8.3118693167
Si      10.9591672333    4.3740229233    8.2969098200
O       15.9642955367    1.5949354267    6.6473423167
O       18.4499520167    5.7979044433    6.6422324133
O       17.7281657733   15.6211228800    8.7947972933
O       15.2765866233    2.9290379867    8.8551856033
O       17.3444998567    1.2940402533    8.9325804267
O       14.9205222333    5.5278464367    8.9574194333
O       15.7501801533    4.3963657200    6.6717726567
O       18.1817031367    8.6149006833    6.6298432633
O       14.9246129567    0.2958762867    8.7393478733
O       17.3850698033    4.5218934567    8.7418361700
Si      15.8672886133    1.5360862700    8.2918198200
Si      18.3341883700    5.7566520433    8.2847835200
Si      18.2633237133    0.1189781567    8.2814602300
Si      15.8376017433    4.3537317400    8.3121634833
O       10.9488492967   10.0950306867    6.5123792833
O       13.5013645100   14.3045063500    6.6474597033
O       12.8202297267    7.1681577733    8.8588781167
O       10.4221159767   11.3922625633    9.0742614900
O       12.4532899767    9.7204306933    9.1703897767
O       10.0093156433   13.9471742767    8.9905558133
O       10.7830985833   12.8103215867    6.7559047767
O       13.2865242333    0.1742868933    6.6723907433
O       10.0017006200    8.8142418867    8.9762124167
O       12.4832750733   12.9709192400    8.7382579367
Si      10.9615411433    9.9902818533    9.0001332933
Si      13.4026455700   14.2279575900    8.2933415167
Si      13.3075428033    8.6330205600    8.3632954500
Si      10.9269653133   12.7439817733    8.3881994533
O       15.9622870300   10.0216214667    6.5996889033
O       18.4477699300   14.2714359867    6.6314304533
O       17.6967398100    7.1510021367    8.7924590233
O       15.2490658800   11.3971401967    8.7631123800
O       17.3244607767    9.7556085367    8.8720832800
O       14.8921814533   13.9934761700    8.9111116867
O       15.7284422233   12.9026174900    6.6171638867
O       18.1463202733    0.1729962100    6.6451998733
O       14.8764250867    8.7893355467    8.7493580733
O       17.3602456100   12.9852355367    8.7067746567
Si      15.8369704900    9.9878778167    8.2448095933
Si      18.3252587767   14.2172573700    8.2683594133
Si      18.2614145367    8.5816993800    8.2664126100
Si      15.8151130900   12.8280095833    8.2546857600
H        0.1884502100    4.0213942600    0.5029856200
H        5.0942002200    4.0213942600    0.5029856200
H        9.9999502200    4.0213942600    0.5029856200
H       14.9057002200    4.0213942600    0.5029856200
H        2.6413252100    8.2583942600    0.5029856200
H        7.5470752100    8.2583942600    0.5029856200
H       12.4528252200    8.2583942600    0.5029856200
H       17.3585752100    8.2583942600    0.5029856200
H        0.1884502100   12.4953942600    0.5029856200
H        5.0942002200   12.4953942600    0.5029856200
H        9.9999502100   12.4953942600    0.5029856200
H       14.9057002200   12.4953942600    0.5029856200
H        2.6413252200   16.7323942600    0.5029856200
H        7.5470752100   16.7323942600    0.5029856200
H       12.4528252200   16.7323942600    0.5029856200
H       17.3585752100   16.7323942600    0.5029856200
