324
 Atoms. Timestep: 0
Si 0.114181 4.35417 0
Si 2.62811 0 0
Si 1.19988 6.63019 3.67925
Si 3.71381 2.27601 3.67925
Si 1.19988 2.07816 1.83963
Si 3.71381 6.43234 1.83963
O 1.06639 5.46135 4.80511
O 3.58032 1.10718 4.80511
O 2.27863 2.54702 2.96549
O 4.79257 6.90119 2.96549
O 1.68269 0.699977 1.12586
O 4.19648 5.05415 1.12586
O 1.06639 3.247 0.713764
O 3.58032 7.60117 0.713764
O 2.27863 6.16133 2.55339
O 4.79257 1.80716 2.55339
O 1.68269 8.00855 4.39302
O 4.19648 3.65437 4.39302
Si 5.1419 4.35417 0
Si 7.65583 0 0
Si 6.22759 6.63019 3.67925
Si 8.74153 2.27601 3.67925
Si 6.22759 2.07816 1.83963
Si 8.74153 6.43234 1.83963
O 6.09426 5.46135 4.80511
O 8.60804 1.10718 4.80511
O 7.3065 2.54702 2.96549
O 9.82028 6.90119 2.96549
O 6.71041 0.699977 1.12586
O 9.22434 5.05415 1.12586
O 6.09426 3.247 0.713764
O 8.60804 7.60117 0.713764
O 7.3065 6.16133 2.55339
O 9.82028 1.80716 2.55339
O 6.71041 8.00855 4.39302
O 9.22434 3.65437 4.39302
Si 10.1698 4.35417 0
Si 12.6835 0 0
Si 11.2555 6.63019 3.67925
Si 13.7692 2.27601 3.67925
Si 11.2555 2.07816 1.83963
Si 13.7692 6.43234 1.83963
O 11.122 5.46135 4.80511
O 13.6359 1.10718 4.80511
O 12.3342 2.54702 2.96549
O 14.8482 6.90119 2.96549
O 11.7381 0.699977 1.12586
O 14.2521 5.05415 1.12586
O 11.122 3.247 0.713764
O 13.6359 7.60117 0.713764
O 12.3342 6.16133 2.55339
O 14.8482 1.80716 2.55339
O 11.7381 8.00855 4.39302
O 14.2521 3.65437 4.39302
Si 0.114181 13.0625 0
Si 2.62811 8.70835 0
Si 1.19988 15.3385 3.67925
Si 3.71381 10.9844 3.67925
Si 1.19988 10.7865 1.83963
Si 3.71381 15.1407 1.83963
O 1.06639 14.1697 4.80511
O 3.58032 9.81553 4.80511
O 2.27863 11.2554 2.96549
O 4.79257 15.6095 2.96549
O 1.68269 9.40833 1.12586
O 4.19648 13.7625 1.12586
O 1.06639 11.9553 0.713764
O 3.58032 16.3095 0.713764
O 2.27863 14.8697 2.55339
O 4.79257 10.5155 2.55339
O 1.68269 16.7169 4.39302
O 4.19648 12.3627 4.39302
Si 5.1419 13.0625 0
Si 7.65583 8.70835 0
Si 6.22759 15.3385 3.67925
Si 8.74153 10.9844 3.67925
Si 6.22759 10.7865 1.83963
Si 8.74153 15.1407 1.83963
O 6.09426 14.1697 4.80511
O 8.60804 9.81553 4.80511
O 7.3065 11.2554 2.96549
O 9.82028 15.6095 2.96549
O 6.71041 9.40833 1.12586
O 9.22434 13.7625 1.12586
O 6.09426 11.9553 0.713764
O 8.60804 16.3095 0.713764
O 7.3065 14.8697 2.55339
O 9.82028 10.5155 2.55339
O 6.71041 16.7169 4.39302
O 9.22434 12.3627 4.39302
Si 10.1698 13.0625 0
Si 12.6835 8.70835 0
Si 11.2555 15.3385 3.67925
Si 13.7692 10.9844 3.67925
Si 11.2555 10.7865 1.83963
Si 13.7692 15.1407 1.83963
O 11.122 14.1697 4.80511
O 13.6359 9.81553 4.80511
O 12.3342 11.2554 2.96549
O 14.8482 15.6095 2.96549
O 11.7381 9.40833 1.12586
O 14.2521 13.7625 1.12586
O 11.122 11.9553 0.713764
O 13.6359 16.3095 0.713764
O 12.3342 14.8697 2.55339
O 14.8482 10.5155 2.55339
O 11.7381 16.7169 4.39302
O 14.2521 12.3627 4.39302
Si 0.114181 4.35417 5.51888
Si 2.62811 0 5.51888
Si 1.19988 6.63019 9.1983
Si 3.71381 2.27601 9.1983
Si 1.19988 2.07816 7.3585
Si 3.71381 6.43234 7.3585
O 1.06639 5.46135 10.3242
O 3.58032 1.10718 10.3242
O 2.27863 2.54702 8.48437
O 4.79257 6.90119 8.48437
O 1.68269 0.699977 6.64474
O 4.19648 5.05415 6.64474
O 1.06639 3.247 6.23264
O 3.58032 7.60117 6.23264
O 2.27863 6.16133 8.07243
O 4.79257 1.80716 8.07243
O 1.68269 8.00855 9.91206
O 4.19648 3.65437 9.91206
Si 5.1419 4.35417 5.51888
Si 7.65583 0 5.51888
Si 6.22759 6.63019 9.1983
Si 8.74153 2.27601 9.1983
Si 6.22759 2.07816 7.3585
Si 8.74153 6.43234 7.3585
O 6.09426 5.46135 10.3242
O 8.60804 1.10718 10.3242
O 7.3065 2.54702 8.48437
O 9.82028 6.90119 8.48437
O 6.71041 0.699977 6.64474
O 9.22434 5.05415 6.64474
O 6.09426 3.247 6.23264
O 8.60804 7.60117 6.23264
O 7.3065 6.16133 8.07243
O 9.82028 1.80716 8.07243
O 6.71041 8.00855 9.91206
O 9.22434 3.65437 9.91206
Si 10.1698 4.35417 5.51888
Si 12.6835 0 5.51888
Si 11.2555 6.63019 9.1983
Si 13.7692 2.27601 9.1983
Si 11.2555 2.07816 7.3585
Si 13.7692 6.43234 7.3585
O 11.122 5.46135 10.3242
O 13.6359 1.10718 10.3242
O 12.3342 2.54702 8.48437
O 14.8482 6.90119 8.48437
O 11.7381 0.699977 6.64474
O 14.2521 5.05415 6.64474
O 11.122 3.247 6.23264
O 13.6359 7.60117 6.23264
O 12.3342 6.16133 8.07243
O 14.8482 1.80716 8.07243
O 11.7381 8.00855 9.91206
O 14.2521 3.65437 9.91206
Si 0.114181 13.0625 5.51888
Si 2.62811 8.70835 5.51888
Si 1.19988 15.3385 9.1983
Si 3.71381 10.9844 9.1983
Si 1.19988 10.7865 7.3585
Si 3.71381 15.1407 7.3585
O 1.06639 14.1697 10.3242
O 3.58032 9.81553 10.3242
O 2.27863 11.2554 8.48437
O 4.79257 15.6095 8.48437
O 1.68269 9.40833 6.64474
O 4.19648 13.7625 6.64474
O 1.06639 11.9553 6.23264
O 3.58032 16.3095 6.23264
O 2.27863 14.8697 8.07243
O 4.79257 10.5155 8.07243
O 1.68269 16.7169 9.91206
O 4.19648 12.3627 9.91206
Si 5.1419 13.0625 5.51888
Si 7.65583 8.70835 5.51888
Si 6.22759 15.3385 9.1983
Si 8.74153 10.9844 9.1983
Si 6.22759 10.7865 7.3585
Si 8.74153 15.1407 7.3585
O 6.09426 14.1697 10.3242
O 8.60804 9.81553 10.3242
O 7.3065 11.2554 8.48437
O 9.82028 15.6095 8.48437
O 6.71041 9.40833 6.64474
O 9.22434 13.7625 6.64474
O 6.09426 11.9553 6.23264
O 8.60804 16.3095 6.23264
O 7.3065 14.8697 8.07243
O 9.82028 10.5155 8.07243
O 6.71041 16.7169 9.91206
O 9.22434 12.3627 9.91206
Si 10.1698 13.0625 5.51888
Si 12.6835 8.70835 5.51888
Si 11.2555 15.3385 9.1983
Si 13.7692 10.9844 9.1983
Si 11.2555 10.7865 7.3585
Si 13.7692 15.1407 7.3585
O 11.122 14.1697 10.3242
O 13.6359 9.81553 10.3242
O 12.3342 11.2554 8.48437
O 14.8482 15.6095 8.48437
O 11.7381 9.40833 6.64474
O 14.2521 13.7625 6.64474
O 11.122 11.9553 6.23264
O 13.6359 16.3095 6.23264
O 12.3342 14.8697 8.07243
O 14.8482 10.5155 8.07243
O 11.7381 16.7169 9.91206
O 14.2521 12.3627 9.91206
Si 0.114181 4.35417 11.0379
Si 2.62811 0 11.0379
Si 1.19988 6.63019 14.7172
Si 3.71381 2.27601 14.7172
Si 1.19988 2.07816 12.8775
Si 3.71381 6.43234 12.8775
O 1.06639 5.46135 15.843
O 3.58032 1.10718 15.843
O 2.27863 2.54702 14.0034
O 4.79257 6.90119 14.0034
O 1.68269 0.699977 12.1638
O 4.19648 5.05415 12.1638
O 1.06639 3.247 11.7517
O 3.58032 7.60117 11.7517
O 2.27863 6.16133 13.5913
O 4.79257 1.80716 13.5913
O 1.68269 8.00855 15.4309
O 4.19648 3.65437 15.4309
Si 5.1419 4.35417 11.0379
Si 7.65583 0 11.0379
Si 6.22759 6.63019 14.7172
Si 8.74153 2.27601 14.7172
Si 6.22759 2.07816 12.8775
Si 8.74153 6.43234 12.8775
O 6.09426 5.46135 15.843
O 8.60804 1.10718 15.843
O 7.3065 2.54702 14.0034
O 9.82028 6.90119 14.0034
O 6.71041 0.699977 12.1638
O 9.22434 5.05415 12.1638
O 6.09426 3.247 11.7517
O 8.60804 7.60117 11.7517
O 7.3065 6.16133 13.5913
O 9.82028 1.80716 13.5913
O 6.71041 8.00855 15.4309
O 9.22434 3.65437 15.4309
Si 10.1698 4.35417 11.0379
Si 12.6835 0 11.0379
Si 11.2555 6.63019 14.7172
Si 13.7692 2.27601 14.7172
Si 11.2555 2.07816 12.8775
Si 13.7692 6.43234 12.8775
O 11.122 5.46135 15.843
O 13.6359 1.10718 15.843
O 12.3342 2.54702 14.0034
O 14.8482 6.90119 14.0034
O 11.7381 0.699977 12.1638
O 14.2521 5.05415 12.1638
O 11.122 3.247 11.7517
O 13.6359 7.60117 11.7517
O 12.3342 6.16133 13.5913
O 14.8482 1.80716 13.5913
O 11.7381 8.00855 15.4309
O 14.2521 3.65437 15.4309
Si 0.114181 13.0625 11.0379
Si 2.62811 8.70835 11.0379
Si 1.19988 15.3385 14.7172
Si 3.71381 10.9844 14.7172
Si 1.19988 10.7865 12.8775
Si 3.71381 15.1407 12.8775
O 1.06639 14.1697 15.843
O 3.58032 9.81553 15.843
O 2.27863 11.2554 14.0034
O 4.79257 15.6095 14.0034
O 1.68269 9.40833 12.1638
O 4.19648 13.7625 12.1638
O 1.06639 11.9553 11.7517
O 3.58032 16.3095 11.7517
O 2.27863 14.8697 13.5913
O 4.79257 10.5155 13.5913
O 1.68269 16.7169 15.4309
O 4.19648 12.3627 15.4309
Si 5.1419 13.0625 11.0379
Si 7.65583 8.70835 11.0379
Si 6.22759 15.3385 14.7172
Si 8.74153 10.9844 14.7172
Si 6.22759 10.7865 12.8775
Si 8.74153 15.1407 12.8775
O 6.09426 14.1697 15.843
O 8.60804 9.81553 15.843
O 7.3065 11.2554 14.0034
O 9.82028 15.6095 14.0034
O 6.71041 9.40833 12.1638
O 9.22434 13.7625 12.1638
O 6.09426 11.9553 11.7517
O 8.60804 16.3095 11.7517
O 7.3065 14.8697 13.5913
O 9.82028 10.5155 13.5913
O 6.71041 16.7169 15.4309
O 9.22434 12.3627 15.4309
Si 10.1698 13.0625 11.0379
Si 12.6835 8.70835 11.0379
Si 11.2555 15.3385 14.7172
Si 13.7692 10.9844 14.7172
Si 11.2555 10.7865 12.8775
Si 13.7692 15.1407 12.8775
O 11.122 14.1697 15.843
O 13.6359 9.81553 15.843
O 12.3342 11.2554 14.0034
O 14.8482 15.6095 14.0034
O 11.7381 9.40833 12.1638
O 14.2521 13.7625 12.1638
O 11.122 11.9553 11.7517
O 13.6359 16.3095 11.7517
O 12.3342 14.8697 13.5913
O 14.8482 10.5155 13.5913
O 11.7381 16.7169 15.4309
O 14.2521 12.3627 15.4309
324
 Atoms. Timestep: 2
Si 0.13904 4.35418 -4.61797e-05
Si 2.65301 1.12432e-05 -4.48809e-05
Si 1.18744 6.65169 3.67918
Si 3.70135 2.29756 3.67923
Si 1.18746 2.05669 1.8397
Si 3.70136 6.41082 1.83965
O 0.998691 5.49294 4.78419
O 3.51262 1.13872 4.78422
O 2.28516 2.47261 2.94449
O 4.79913 6.82677 2.94454
O 1.74382 0.742828 1.10492
O 4.25766 5.09701 1.10492
O 0.998667 3.21543 0.734711
O 3.51259 7.56965 0.734677
O 2.28518 6.23578 2.57438
O 4.79914 1.8816 2.57434
O 1.74384 7.96561 4.414
O 4.25769 3.61143 4.41398
Si 5.16683 4.35418 -4.62054e-05
Si 7.68067 1.12614e-05 -4.48402e-05
Si 6.21516 6.65167 3.67924
Si 8.72907 2.29752 3.67918
Si 6.21518 2.05672 1.83964
Si 8.72909 6.41086 1.8397
O 6.02649 5.49296 4.78417
O 8.54036 1.13876 4.7842
O 7.31305 2.47263 2.94456
O 9.82681 6.82677 2.94449
O 6.77157 0.742794 1.10489
O 9.28548 5.09701 1.10492
O 6.02646 3.21541 0.734729
O 8.54033 7.56962 0.734702
O 7.31307 6.23576 2.57432
O 9.82683 1.8816 2.57438
O 6.77159 7.96565 4.41402
O 9.28551 3.61143 4.41399
Si 10.1947 4.35418 -4.61914e-05
Si 12.7085 1.12424e-05 -4.48768e-05
Si 11.243 6.65173 3.67923
Si 13.7568 2.29749 3.67924
Si 11.243 2.05665 1.83965
Si 13.7568 6.41088 1.83964
O 11.0542 5.49291 4.78421
O 13.5682 1.13877 4.78418
O 12.3408 2.4726 2.94454
O 14.8547 6.82679 2.94456
O 11.7993 0.742828 1.10492
O 14.3132 5.09698 1.10489
O 11.0542 3.21546 0.734685
O 13.5681 7.5696 0.734721
O 12.3408 6.23578 2.57434
O 14.8547 1.88157 2.57432
O 11.7993 7.96561 4.41399
O 14.3133 3.61146 4.41402
Si 0.13904 13.0625 -4.35213e-05
Si 2.65301 8.70836 -4.48895e-05
Si 1.18745 15.36 3.67918
Si 3.70135 11.0059 3.67923
Si 1.18746 10.765 1.8397
Si 3.70136 15.1192 1.83965
O 0.998695 14.2013 4.78418
O 3.51262 9.84707 4.78422
O 2.28516 11.1809 2.94449
O 4.79913 15.5351 2.94454
O 1.74382 9.45118 1.10491
O 4.25766 13.8054 1.10493
O 0.998663 11.9238 0.734708
O 3.51259 16.278 0.734673
O 2.28518 14.9441 2.57438
O 4.79914 10.59 2.57434
O 1.74384 16.674 4.41399
O 4.25769 12.3198 4.41399
Si 5.16683 13.0625 -4.35311e-05
Si 7.68067 8.70836 -4.48698e-05
Si 6.21516 15.36 3.67924
Si 8.72907 11.0059 3.67918
Si 6.21517 10.7651 1.83964
Si 8.72909 15.1192 1.8397
O 6.02649 14.2013 4.78417
O 8.54036 9.84711 4.78419
O 7.31305 11.181 2.94456
O 9.82681 15.5351 2.94449
O 6.77157 9.45114 1.10489
O 9.28548 13.8054 1.10492
O 6.02646 11.9238 0.734727
O 8.54033 16.278 0.734699
O 7.31307 14.9441 2.57432
O 9.82683 10.59 2.57438
O 6.77159 16.674 4.41402
O 9.28551 12.3198 4.41399
Si 10.1947 13.0625 -4.35563e-05
Si 12.7085 8.70836 -4.48701e-05
Si 11.243 15.3601 3.67923
Si 13.7568 11.0058 3.67924
Si 11.243 10.765 1.83965
Si 13.7568 15.1192 1.83964
O 11.0543 14.2013 4.78421
O 13.5682 9.84712 4.78417
O 12.3408 11.1809 2.94454
O 14.8547 15.5351 2.94456
O 11.7993 9.45118 1.10492
O 14.3132 13.8053 1.10489
O 11.0542 11.9238 0.734683
O 13.5681 16.278 0.734717
O 12.3408 14.9441 2.57434
O 14.8547 10.5899 2.57432
O 11.7993 16.674 4.41399
O 14.3133 12.3198 4.41402
Si 0.139034 4.35418 5.51883
Si 2.65301 1.41724e-05 5.51884
Si 1.18746 6.65169 9.19817
Si 3.70137 2.29755 9.19822
Si 1.18748 2.05669 7.35863
Si 3.70138 6.41082 7.35858
O 0.998671 5.49296 10.3032
O 3.5126 1.13874 10.3032
O 2.28518 2.4726 8.4634
O 4.79915 6.82675 8.46345
O 1.7438 0.742841 6.62381
O 4.25765 5.09702 6.62381
O 0.998649 3.21541 6.25362
O 3.51257 7.56964 6.25358
O 2.2852 6.23579 8.0934
O 4.79916 1.88161 8.09335
O 1.74382 7.9656 9.93303
O 4.25767 3.61141 9.93301
Si 5.16682 4.35418 5.51883
Si 7.68067 1.41819e-05 5.51884
Si 6.21518 6.65166 9.19823
Si 8.72909 2.29752 9.19817
Si 6.2152 2.05672 7.35857
Si 8.72911 6.41086 7.35863
O 6.02647 5.49298 10.3032
O 8.54034 1.13878 10.3032
O 7.31307 2.47262 8.46346
O 9.82683 6.82676 8.4634
O 6.77155 0.742807 6.62378
O 9.28546 5.09702 6.62381
O 6.02645 3.2154 6.25364
O 8.54032 7.5696 6.25361
O 7.31309 6.23577 8.09333
O 9.82685 1.88161 8.0934
O 6.77157 7.96563 9.93305
O 9.28548 3.61141 9.93302
Si 10.1947 4.35418 5.51883
Si 12.7085 1.41655e-05 5.51884
Si 11.243 6.65173 9.19822
Si 13.7568 2.29749 9.19823
Si 11.2431 2.05666 7.35858
Si 13.7568 6.41089 7.35857
O 11.0542 5.49293 10.3032
O 13.5681 1.13879 10.3032
O 12.3408 2.47259 8.46345
O 14.8547 6.82678 8.46346
O 11.7993 0.742841 6.62381
O 14.3132 5.09699 6.62378
O 11.0542 3.21545 6.25359
O 13.5681 7.56959 6.25363
O 12.3408 6.23579 8.09335
O 14.8547 1.88159 8.09333
O 11.7993 7.9656 9.93302
O 14.3132 3.61145 9.93305
Si 0.139034 13.0625 5.51884
Si 2.65301 8.70836 5.51884
Si 1.18747 15.36 9.19817
Si 3.70137 11.0059 9.19822
Si 1.18748 10.765 7.35863
Si 3.70138 15.1192 7.35858
O 0.998675 14.2013 10.3032
O 3.5126 9.84709 10.3032
O 2.28518 11.1809 8.4634
O 4.79915 15.5351 8.46345
O 1.7438 9.45119 6.62381
O 4.25764 13.8054 6.62382
O 0.998645 11.9238 6.25362
O 3.51257 16.278 6.25358
O 2.2852 14.9441 8.0934
O 4.79916 10.59 8.09335
O 1.74382 16.6739 9.93302
O 4.25767 12.3198 9.93302
Si 5.16682 13.0625 5.51884
Si 7.68067 8.70836 5.51884
Si 6.21518 15.36 9.19823
Si 8.72909 11.0059 9.19817
Si 6.21519 10.7651 7.35857
Si 8.72911 15.1192 7.35863
O 6.02647 14.2013 10.3032
O 8.54034 9.84713 10.3032
O 7.31307 11.181 8.46346
O 9.82683 15.5351 8.4634
O 6.77155 9.45116 6.62378
O 9.28546 13.8054 6.62381
O 6.02644 11.9238 6.25363
O 8.54031 16.278 6.25361
O 7.31309 14.9441 8.09334
O 9.82685 10.59 8.0934
O 6.77157 16.674 9.93305
O 9.28549 12.3198 9.93302
Si 10.1947 13.0625 5.51884
Si 12.7085 8.70836 5.51884
Si 11.243 15.3601 9.19822
Si 13.7568 11.0058 9.19823
Si 11.2431 10.765 7.35858
Si 13.7568 15.1192 7.35857
O 11.0542 14.2013 10.3032
O 13.5681 9.84714 10.3032
O 12.3408 11.1809 8.46345
O 14.8547 15.5351 8.46346
O 11.7993 9.45119 6.62381
O 14.3132 13.8053 6.62379
O 11.0542 11.9238 6.25359
O 13.5681 16.2779 6.25362
O 12.3408 14.9441 8.09335
O 14.8547 10.5899 8.09333
O 11.7993 16.6739 9.93302
O 14.3132 12.3198 9.93305
Si 0.139034 4.35417 11.0379
Si 2.65301 8.31372e-06 11.0379
Si 1.18744 6.65169 14.7171
Si 3.70135 2.29756 14.7172
Si 1.18746 2.05669 12.8776
Si 3.70136 6.41082 12.8776
O 0.998689 5.49295 15.8221
O 3.51262 1.13873 15.8221
O 2.28516 2.47261 13.9824
O 4.79913 6.82677 13.9825
O 1.74382 0.742827 12.1428
O 4.25767 5.09701 12.1428
O 0.998669 3.21543 11.7726
O 3.51259 7.56966 11.7726
O 2.28518 6.23578 13.6123
O 4.79914 1.8816 13.6123
O 1.74384 7.96561 15.4519
O 4.25769 3.61143 15.4519
Si 5.16682 4.35417 11.0379
Si 7.68067 8.3314e-06 11.0379
Si 6.21516 6.65167 14.7172
Si 8.72907 2.29752 14.7171
Si 6.21518 2.05672 12.8776
Si 8.72909 6.41086 12.8776
O 6.02649 5.49296 15.8221
O 8.54036 1.13876 15.8221
O 7.31305 2.47263 13.9825
O 9.82681 6.82677 13.9824
O 6.77157 0.742793 12.1428
O 9.28548 5.09701 12.1428
O 6.02647 3.21542 11.7726
O 8.54034 7.56962 11.7726
O 7.31307 6.23576 13.6122
O 9.82683 1.8816 13.6123
O 6.77159 7.96565 15.4519
O 9.2855 3.61143 15.4519
Si 10.1947 4.35417 11.0379
Si 12.7085 8.32937e-06 11.0379
Si 11.243 6.65173 14.7172
Si 13.7568 2.29749 14.7172
Si 11.243 2.05665 12.8776
Si 13.7568 6.41088 12.8776
O 11.0542 5.49291 15.8221
O 13.5682 1.13878 15.8221
O 12.3408 2.4726 13.9825
O 14.8547 6.82679 13.9825
O 11.7993 0.742826 12.1428
O 14.3132 5.09697 12.1428
O 11.0542 3.21547 11.7726
O 13.5681 7.56961 11.7726
O 12.3408 6.23578 13.6123
O 14.8547 1.88157 13.6122
O 11.7993 7.96561 15.4519
O 14.3133 3.61146 15.4519
Si 0.139034 13.0625 11.0379
Si 2.65301 8.70836 11.0379
Si 1.18745 15.36 14.7171
Si 3.70135 11.0059 14.7172
Si 1.18746 10.765 12.8776
Si 3.70136 15.1192 12.8776
O 0.998693 14.2013 15.8221
O 3.51262 9.84707 15.8221
O 2.28516 11.1809 13.9824
O 4.79913 15.5351 13.9825
O 1.74382 9.45118 12.1428
O 4.25767 13.8054 12.1428
O 0.998665 11.9238 11.7726
O 3.51259 16.278 11.7726
O 2.28518 14.9441 13.6123
O 4.79914 10.59 13.6123
O 1.74384 16.674 15.4519
O 4.25769 12.3198 15.4519
Si 5.16682 13.0625 11.0379
Si 7.68067 8.70836 11.0379
Si 6.21516 15.36 14.7172
Si 8.72907 11.0059 14.7171
Si 6.21517 10.7651 12.8776
Si 8.72909 15.1192 12.8776
O 6.02649 14.2013 15.8221
O 8.54036 9.84711 15.8221
O 7.31305 11.181 13.9825
O 9.82681 15.5351 13.9824
O 6.77157 9.45114 12.1428
O 9.28548 13.8054 12.1428
O 6.02646 11.9238 11.7726
O 8.54033 16.278 11.7726
O 7.31307 14.9441 13.6122
O 9.82683 10.59 13.6123
O 6.77159 16.674 15.4519
O 9.2855 12.3198 15.4519
Si 10.1947 13.0625 11.0379
Si 12.7085 8.70836 11.0379
Si 11.243 15.3601 14.7172
Si 13.7568 11.0058 14.7172
Si 11.243 10.765 12.8776
Si 13.7568 15.1192 12.8776
O 11.0543 14.2013 15.8221
O 13.5682 9.84712 15.8221
O 12.3408 11.1809 13.9825
O 14.8547 15.5351 13.9825
O 11.7993 9.45118 12.1428
O 14.3132 13.8053 12.1428
O 11.0542 11.9238 11.7726
O 13.5681 16.278 11.7726
O 12.3408 14.9441 13.6123
O 14.8547 10.5899 13.6122
O 11.7993 16.674 15.4519
O 14.3133 12.3198 15.4519
324
 Atoms. Timestep: 500
Si 0.0535442 4.36265 16.561
Si 2.67158 0.0172169 0.0953403
Si 1.15754 6.5809 3.73473
Si 3.8901 2.1518 3.72124
Si 1.31497 2.22422 1.85942
Si 3.70864 6.2977 1.8497
O 0.935859 5.3389 4.7441
O 3.5414 0.987467 4.67803
O 2.51013 2.49329 2.87476
O 5.00087 6.65252 2.81725
O 1.68338 0.86301 1.09997
O 4.09496 5.01753 0.973245
O 1.00451 3.29041 0.757927
O 3.43579 7.47695 0.791188
O 2.37125 6.22014 2.67841
O 5.05528 1.93402 2.66704
O 1.52273 7.94517 4.47765
O 4.30383 3.37929 4.63646
Si 5.00372 4.36659 16.4166
Si 7.62394 -0.00113834 16.4491
Si 6.3024 6.55232 3.66467
Si 8.69473 2.26795 3.59432
Si 6.24945 2.24746 1.66775
Si 8.7999 6.52622 1.80236
O 6.03258 5.38564 4.76079
O 8.21535 0.931413 4.39113
O 7.44954 2.68347 2.67965
O 9.94496 7.04973 2.82446
O 6.734 0.896196 0.88033
O 9.28303 5.1992 1.08112
O 5.98503 3.31299 0.546965
O 8.43247 7.67582 0.771331
O 7.48244 6.24942 2.64524
O 9.96843 1.91402 2.59762
O 6.63054 7.90767 4.45236
O 9.12647 3.41002 4.61571
Si 10.1048 4.34206 16.5453
Si 12.6381 0.010035 0.0486889
Si 11.1811 6.70318 3.71393
Si 13.8015 2.34528 3.6839
Si 11.3124 2.12645 1.81943
Si 13.7054 6.36392 1.77863
O 10.8097 5.41017 4.6693
O 13.5337 1.0255 4.64007
O 12.4516 2.4885 2.81444
O 14.9155 6.65463 2.83749
O 11.6781 0.801475 1.06644
O 14.0419 5.01008 0.974439
O 11.001 3.27147 0.725269
O 13.456 7.61266 0.841537
O 12.3178 6.1833 2.57852
O 15.0488 2.10548 2.74643
O 11.8107 7.88338 4.56972
O 14.1438 3.537 4.63718
Si 0.0729429 13.0129 16.5212
Si 2.60845 8.64044 0.0288327
Si 1.09573 15.3517 3.67812
Si 3.78688 10.9912 3.74132
Si 1.31701 10.9055 1.86104
Si 3.56672 15.081 1.87738
O 0.93741 14.3028 4.85984
O 3.36037 9.71636 4.66723
O 2.43596 11.3447 2.90693
O 4.63947 15.1974 3.02175
O 1.90891 9.65639 1.06843
O 4.0399 13.8273 0.992766
O 1.03427 12.0535 0.797902
O 3.5299 16.4078 0.996252
O 2.15314 14.8287 2.61444
O 4.97769 10.6713 2.70775
O 1.6039 16.7057 4.29296
O 4.20131 12.1891 4.62745
Si 5.05493 13.0881 0.0699446
Si 7.48283 8.73149 16.48
Si 6.09346 15.2386 3.63934
Si 8.87667 10.8628 3.63361
Si 6.25353 10.8784 1.82635
Si 8.67276 15.2494 1.835
O 6.20744 13.9039 4.51864
O 8.51355 9.66394 4.69017
O 7.572 11.0644 2.71343
O 9.77455 15.5032 2.96748
O 6.60263 9.54541 0.957953
O 9.20398 13.9316 1.03948
O 6.00916 12.0334 0.785175
O 8.47596 16.3764 0.761319
O 7.2077 15.0675 2.49488
O 10.0406 10.3378 2.65778
O 6.43089 16.4751 4.58408
O 9.43938 12.1419 4.35938
Si 10.2649 13.2094 0.0892255
Si 12.6734 8.62451 16.4976
Si 11.2122 15.3418 3.57023
Si 13.9049 10.8393 3.66459
Si 11.29 10.7585 1.81765
Si 13.6895 15.045 1.82111
O 11.1494 14.1302 4.63632
O 13.6928 9.76023 4.75691
O 12.5228 11.0302 2.87534
O 14.7532 15.4593 2.98473
O 11.7405 9.53119 0.868336
O 14.1845 13.7518 1.06828
O 10.968 12.0399 0.921791
O 13.5349 16.2878 0.744699
O 12.2947 14.987 2.50665
O 15.0924 10.5202 2.61118
O 11.6779 16.6215 4.3992
O 14.4628 12.2004 4.35473
Si 0.0326996 4.27123 5.56349
Si 2.56556 17.3825 5.41327
Si 1.14078 6.63767 9.29946
Si 3.76521 2.28444 9.17894
Si 1.23095 2.02662 7.329
Si 3.67522 6.5416 7.3747
O 1.00073 5.45409 10.4246
O 3.46996 1.0784 10.2366
O 2.45268 2.39056 8.24906
O 4.78948 6.90184 8.44819
O 1.7215 0.742506 6.48802
O 4.19001 5.27841 6.58176
O 0.8723 3.14839 6.25868
O 3.30214 7.72563 6.3509
O 2.3424 6.2847 8.25283
O 4.95177 1.86921 8.2671
O 1.56552 7.96396 9.94359
O 4.03189 3.57346 10.0452
Si 5.15392 4.33619 5.62812
Si 7.5102 17.3682 5.43988
Si 6.20337 6.65149 9.24967
Si 8.93131 2.17734 9.28761
Si 6.3525 2.1055 7.42706
Si 8.6814 6.38171 7.4102
O 5.89727 5.44845 10.265
O 8.72992 0.911029 10.2146
O 7.49508 2.38472 8.48743
O 9.80895 7.00771 8.38162
O 6.73866 0.890064 6.43588
O 9.21454 5.02025 6.72985
O 6.07114 3.39547 6.51275
O 8.46746 7.35223 6.13801
O 7.35641 6.21985 8.25192
O 10.0376 1.88142 8.19876
O 6.72863 7.94522 10.0228
O 9.34929 3.42767 10.1708
Si 9.9936 4.30361 5.56241
Si 12.6324 -0.0319601 5.42398
Si 11.2094 6.74198 9.18467
Si 13.8519 2.26591 9.29261
Si 11.3507 2.1075 7.31045
Si 13.7245 6.36452 7.4111
O 10.8972 5.5061 10.1208
O 13.5226 1.12434 10.3519
O 12.4939 2.47581 8.40217
O 14.8771 6.73297 8.4857
O 11.8606 0.896437 6.47749
O 14.3646 5.07334 6.73774
O 10.9884 3.27777 6.2717
O 13.579 7.52899 6.27369
O 12.3125 6.32205 8.14312
O 15.0354 1.85614 8.24574
O 11.7141 7.9851 10.0666
O 14.2953 3.60386 10.0525
Si 0.105229 13.0984 5.50409
Si 2.4164 8.74489 5.53651
Si 1.38707 15.2976 9.07093
Si 3.83377 10.8605 9.11884
Si 1.23022 10.9059 7.42297
Si 3.90133 15.1331 7.29
O 0.945566 14.1699 10.0858
O 3.46209 9.71195 10.14
O 2.46256 11.1683 8.34062
O 5.04419 15.7421 8.28872
O 1.50676 9.58568 6.5472
O 4.5506 13.9318 6.60084
O 1.0452 12.0821 6.39264
O 3.40791 16.1963 6.19361
O 2.56551 14.8636 8.15667
O 4.98154 10.4334 8.07792
O 1.76653 16.6673 9.80257
O 4.33783 12.1057 9.94118
Si 5.2849 13.0045 5.49037
Si 7.71898 8.5287 5.41087
Si 6.35262 15.2714 9.1592
Si 8.88446 10.9464 9.21632
Si 6.36562 10.6985 7.31674
Si 8.88183 15.1607 7.2898
O 6.01888 14.0855 10.14
O 8.63385 9.72886 10.1931
O 7.47823 11.0197 8.40439
O 10.0061 15.5215 8.35743
O 6.92568 9.40858 6.57772
O 9.4562 13.9091 6.41278
O 6.13061 11.9328 6.28654
O 8.49428 16.377 6.2582
O 7.56659 14.8623 8.1256
O 9.99149 10.6729 8.09849
O 6.82166 16.5165 9.9994
O 9.33158 12.2395 10.0941
Si 10.2979 13.0379 5.40152
Si 12.7992 8.66374 5.51741
Si 11.3716 15.2766 9.24603
Si 13.7985 11.0254 9.32555
Si 11.4185 10.8818 7.30548
Si 13.7644 15.1207 7.27927
O 11.0493 14.1137 10.3367
O 13.5322 9.83639 10.3924
O 12.4592 11.2191 8.48254
O -0.0260255 15.4179 8.14366
O 11.9246 9.50778 6.59255
O 14.0583 13.7207 6.45327
O 11.198 11.9771 6.21186
O 13.3973 16.2326 6.24522
O 12.5848 14.8668 8.28239
O 14.9809 10.6494 8.34141
O 11.8248 16.5664 10.1208
O 14.3367 12.2623 10.1327
Si 0.0951637 4.38503 11.1874
Si 2.60731 17.4223 10.8982
Si 1.00788 6.73171 14.794
Si 3.7718 2.09778 14.6367
Si 1.19397 1.96497 12.8425
Si 3.4307 6.55334 12.9158
O 0.905639 5.58703 15.9123
O 3.56717 1.06093 15.8588
O 2.36187 2.25272 13.8851
O 4.6672 6.84865 13.9075
O 1.54009 0.74625 11.9721
O 3.93275 5.27788 12.0268
O 0.89645 3.22899 11.918
O 3.31988 7.74494 11.8899
O 2.12036 6.34092 13.7522
O 4.88708 1.70017 13.6091
O 1.5361 8.01811 15.5889
O 4.14439 3.55029 15.396
Si 4.91992 4.50198 11.0664
Si 7.75619 17.3604 11.0756
Si 6.0978 6.70851 14.6766
Si 8.69084 2.30564 14.6798
Si 6.18059 2.10535 12.7495
Si 8.61378 6.47262 12.9031
O 5.87608 5.51323 15.7318
O 8.56748 1.0393 15.6532
O 7.33884 2.47095 13.8301
O 9.64871 6.9743 14.0402
O 6.76392 0.933185 11.8247
O 9.1975 5.21378 12.134
O 5.78779 3.3802 11.8636
O 8.48249 7.6165 11.8782
O 7.24241 6.21825 13.634
O 9.83628 1.99835 13.6027
O 6.65894 8.00176 15.3336
O 9.11444 3.52971 15.5023
Si 10.1626 4.41474 11.1108
Si 12.6479 0.060862 11.1404
Si 11.1424 6.67513 14.6785
Si 13.8067 2.20254 14.7723
Si 11.3323 2.24151 12.8876
Si 13.678 6.48076 12.9642
O 10.9408 5.40627 15.6466
O 13.6889 1.09569 15.9114
O 12.3864 2.45283 14.0879
O 14.6941 6.94162 14.1164
O 11.7344 0.996683 11.984
O 14.2722 5.18895 12.2799
O 11.2025 3.54529 11.9398
O 13.6103 7.60411 11.8099
O 12.2393 6.27659 13.5844
O 14.901 1.79129 13.6467
O 11.7514 7.90702 15.4196
O 14.3051 3.60293 15.4458
Si 0.130189 13.1916 11.063
Si 2.51976 8.79408 10.9373
Si 1.26444 15.3392 14.7767
Si 3.79996 10.8351 14.6984
Si 1.26192 10.9853 12.8406
Si 3.69208 15.06 12.8509
O 0.839693 14.1778 15.7618
O 3.56473 9.56539 15.6275
O 2.35125 11.1381 14.0115
O 4.77231 15.5654 13.8302
O 1.7328 9.74611 11.9294
O 4.22234 13.798 12.0349
O 1.11855 12.2998 11.9468
O 3.36446 16.2673 11.7411
O 2.33249 14.8384 13.6507
O 4.94902 10.6964 13.6997
O 1.8636 16.5147 15.5839
O 4.31307 12.1439 15.5829
Si 5.17275 13.0369 11.0033
Si 7.69868 8.75792 11.0215
Si 6.10611 15.354 14.7164
Si 8.73445 11.1112 14.8052
Si 6.27372 10.8941 12.9059
Si 8.68467 15.0974 13.0017
O 5.80357 14.2555 15.8687
O 8.44896 9.8417 15.7285
O 7.3505 11.3414 14.0142
O 9.83807 15.4839 14.1116
O 6.87106 9.64432 12.0724
O 9.21687 13.9031 12.1696
O 6.03445 11.9694 11.8436
O 8.46231 16.3284 12.0055
O 7.30581 14.8505 13.7486
O 9.89128 10.66 13.767
O 6.72034 16.6606 15.3863
O 9.31839 12.419 15.5413
Si 10.1663 13.0386 11.1047
Si 12.6812 8.73632 11.1414
Si 11.2968 15.3706 14.7868
Si 13.8204 10.9023 14.6535
Si 11.1886 10.6893 12.9707
Si 13.8522 15.2294 12.9676
O 11.1762 14.2935 16.0104
O 13.558 9.64658 15.6467
O 12.4675 11.1509 13.9124
O 14.9419 15.6239 14.0699
O 11.7352 9.39598 12.2958
O 14.3513 14.0339 12.104
O 10.9485 11.9065 11.8877
O 13.5298 16.4886 12.0084
O 12.4651 14.9215 13.7845
O 14.9525 10.7519 13.565
O 11.8175 16.6662 15.4867
O 14.2453 12.1306 15.5868
324
 Atoms. Timestep: 1000
Si 0.151413 4.3925 16.6566
Si 2.78476 -0.00659961 0.199671
Si 1.11373 6.53914 3.60422
Si 3.81439 2.20968 3.70542
Si 1.30115 2.10231 1.92655
Si 3.60052 6.25362 1.72445
O 0.940451 5.44598 4.81041
O 3.53599 0.841115 4.53111
O 2.46529 2.60404 2.98023
O 4.72067 6.55527 2.79683
O 1.92168 0.784844 1.2378
O 4.07508 4.9331 0.943011
O 0.99407 3.19801 0.722855
O 3.26165 7.42123 0.689287
O 2.1907 6.07966 2.53045
O 4.98851 1.97628 2.65896
O 1.62589 7.85682 4.3304
O 4.36504 3.45034 4.65098
Si 5.03938 4.23752 16.3865
Si 7.59422 0.0575218 16.4418
Si 6.16313 6.54779 3.59553
Si 8.7626 2.16275 3.65347
Si 6.29329 2.18906 1.78612
Si 8.76687 6.49991 1.89929
O 5.98842 5.48865 4.85044
O 8.3577 0.925608 4.59398
O 7.54116 2.5549 2.68857
O 9.74412 7.01387 2.98651
O 6.81527 0.85549 1.06643
O 9.44157 5.34902 1.07832
O 6.02172 3.2445 0.663496
O 8.32808 7.61226 0.762653
O 7.39671 6.10251 2.6595
O 10.1131 1.82462 2.90232
O 6.60125 7.94723 4.20583
O 9.08834 3.46762 4.58226
Si 10.1283 4.40931 16.5788
Si 12.7164 0.0220917 -0.039368
Si 11.1155 6.71403 3.78686
Si 13.8198 2.16466 3.56828
Si 11.3027 2.03607 1.84849
Si 13.6208 6.35105 1.80803
O 10.7773 5.45178 4.7375
O 13.3474 0.938912 4.4402
O 12.5766 2.59638 2.65869
O 14.7459 6.72759 2.93902
O 11.838 0.683882 1.15481
O 14.1907 4.96295 1.20017
O 10.8281 3.12074 0.769583
O 13.469 7.51088 0.742821
O 12.2411 6.30748 2.70202
O 15.1258 1.86128 2.72473
O 11.5047 7.94322 4.69712
O 14.3384 3.38366 4.53729
Si 0.0541741 13.0423 16.6417
Si 2.70887 8.7126 -0.115931
Si 0.999295 15.2891 3.66518
Si 3.65021 10.9024 3.9015
Si 1.33296 10.8036 1.83794
Si 3.52506 15.0837 1.93986
O 0.836417 13.9778 4.60408
O 3.35082 9.75236 4.86951
O 2.31811 11.1627 3.08802
O 4.63272 15.4322 3.0631
O 2.04162 9.70207 0.913837
O 4.04541 13.8017 1.16248
O 0.965474 12.022 0.910444
O 3.64205 16.3483 0.914826
O 2.08311 15.0247 2.52708
O 4.83984 10.5569 2.80573
O 1.55889 16.5498 4.48916
O 4.24532 12.1853 4.685
Si 5.02531 12.9762 0.153193
Si 7.50991 8.71927 16.5357
Si 6.08447 15.3016 3.68522
Si 8.8386 10.7246 3.72757
Si 6.24418 10.7702 1.88007
Si 8.52923 15.227 1.72906
O 6.16148 13.8388 4.44506
O 8.62537 9.54834 4.78016
O 7.50462 10.9012 2.90804
O 9.60889 15.6335 2.87028
O 6.58643 9.51461 0.968587
O 9.11405 13.8568 1.16357
O 5.97077 11.9902 0.938435
O 8.53991 16.3646 0.573618
O 7.09301 15.2113 2.42757
O 10.0938 10.4955 2.76232
O 6.64007 16.4219 4.6766
O 9.20877 12.0925 4.55708
Si 10.1194 13.0585 0.107018
Si 12.6022 8.62917 16.5076
Si 11.0464 15.3928 3.54867
Si 13.9011 10.6879 3.60058
Si 11.3803 10.8169 1.80334
Si 13.6687 15.1906 1.86239
O 10.9002 14.1018 4.49438
O 13.4874 9.45262 4.60537
O 12.6511 11.0974 2.67851
O 14.6362 15.5867 3.04335
O 11.7777 9.57497 0.931282
O 14.1901 13.8988 1.10598
O 11.0438 12.0671 0.88414
O 13.588 16.3832 0.76348
O 12.1807 15.0593 2.43286
O 15.0249 10.3044 2.54651
O 11.5703 16.5327 4.50682
O 14.2987 11.9053 4.54502
Si 0.0606556 4.32472 5.55417
Si 2.63776 17.2211 5.42801
Si 1.18351 6.57129 9.27916
Si 3.84469 2.35601 9.28654
Si 1.38103 2.02102 7.31953
Si 3.55248 6.37464 7.48169
O 1.07925 5.55176 10.5029
O 3.50641 1.29281 10.3901
O 2.60992 2.46454 8.29749
O 4.6621 6.86678 8.57464
O 1.87552 0.709538 6.54866
O 4.25726 5.17239 6.66453
O 0.983983 3.26988 6.4133
O 3.3103 7.53109 6.4042
O 2.17083 6.08951 8.16635
O 5.17092 1.88445 8.45814
O 1.75387 7.95 9.9307
O 4.20661 3.78344 9.89429
Si 5.16542 4.37884 5.67508
Si 7.60711 17.3118 5.54568
Si 6.04664 6.80527 9.28962
Si 8.95652 2.26216 9.20586
Si 6.35443 2.04927 7.48646
Si 8.59105 6.30038 7.47892
O 5.92596 5.67538 10.4043
O 8.86606 1.09325 10.2985
O 7.62622 2.31776 8.43295
O 9.77237 6.8232 8.4227
O 6.80493 0.887228 6.55288
O 9.14688 4.96536 6.82437
O 6.10716 3.36421 6.5468
O 8.30388 7.24486 6.15698
O 7.17682 6.332 8.26902
O 10.1326 1.92537 8.18228
O 6.70503 8.07174 9.98346
O 9.28343 3.66178 9.93229
Si 10.0208 4.34574 5.57611
Si 12.5689 -0.0336015 5.42001
Si 11.1588 6.74548 9.19173
Si 14.0043 2.21187 9.11612
Si 11.4256 2.25333 7.29696
Si 13.7073 6.28846 7.48588
O 10.9251 5.65369 10.3867
O 13.3916 1.16494 10.2074
O 12.7438 2.58028 8.21505
O 14.8581 6.65209 8.55546
O 11.7285 0.83498 6.50248
O 14.2371 5.0489 6.62534
O 11.0999 3.43258 6.30722
O 13.4767 7.51004 6.45551
O 12.3261 6.22493 8.24567
O 15.1972 1.59916 8.25799
O 11.7851 8.04075 9.85136
O 14.5373 3.46596 9.97381
Si -0.0431801 12.9447 5.5079
Si 2.48012 8.57829 5.49135
Si 1.49347 15.288 8.98004
Si 3.82865 10.9353 9.1803
Si 1.20319 10.7989 7.35566
Si 4.02614 15.1423 7.26668
O 1.05892 14.2923 10.1768
O 3.60046 9.80133 10.2081
O 2.4962 11.0319 8.32124
O 5.03361 15.7967 8.32979
O 1.58705 9.46517 6.52141
O 4.77696 13.8795 6.5271
O 0.913955 12.0663 6.38712
O 3.58007 16.1087 6.04511
O 2.73062 14.8049 8.09003
O 5.08251 10.6879 8.18008
O 1.92684 16.6984 9.62652
O 4.22059 12.3496 9.93987
Si 5.39084 12.9011 5.47804
Si 7.53892 8.48984 5.41314
Si 6.33207 15.5555 9.22136
Si 8.98925 10.8179 9.23907
Si 6.43183 10.5593 7.33074
Si 8.85669 15.2017 7.30185
O 5.9709 14.3216 10.1686
O 8.78576 9.66094 10.3536
O 7.64383 10.8739 8.36228
O 10.0646 15.6086 8.26836
O 6.65935 9.21633 6.48655
O 9.20767 13.9171 6.46199
O 6.26948 11.718 6.22848
O 8.60388 16.3152 6.22391
O 7.50681 15.1352 8.24181
O 10.1856 10.6315 8.21108
O 6.92794 16.7745 10.0204
O 9.32757 12.1854 10.0038
Si 10.1091 13.0613 5.43322
Si 12.6366 8.63885 5.64843
Si 11.3544 15.4266 9.14815
Si 13.8527 11.0913 9.34565
Si 11.4953 10.9828 7.37556
Si 13.8981 15.1981 7.17232
O 11.0838 14.2372 10.182
O 13.5798 9.85975 10.3257
O 12.5069 11.4371 8.55685
O 0.201983 15.3765 8.03576
O 12.0213 9.68947 6.64627
O 14.0316 13.8026 6.43338
O 11.0815 12.1319 6.3261
O 13.5645 16.3935 6.20325
O 12.5881 15.1459 8.16493
O 14.9676 10.5936 8.222
O 11.5815 16.7684 10.0164
O 14.3767 12.365 10.1832
Si 0.157772 4.35108 11.0988
Si 2.58763 17.4817 10.8776
Si 1.01914 6.76053 14.7405
Si 3.7196 2.09908 14.6458
Si 1.11728 1.90165 12.788
Si 3.50858 6.52366 12.9096
O 0.83144 5.68655 16.005
O 3.68539 1.01497 15.8813
O 2.34337 1.9528 13.8452
O 4.58866 6.93576 14.0026
O 1.41401 0.640103 11.7903
O 4.01826 5.24293 12.0835
O 1.0347 3.31795 11.9365
O 3.28211 7.80124 11.9507
O 2.17238 6.24469 13.7418
O 4.8346 1.80384 13.5456
O 1.63147 8.10569 15.3906
O 4.17796 3.43041 15.2966
Si 5.03024 4.48679 11.0269
Si 7.87612 17.532 11.0457
Si 5.96867 6.63285 14.7274
Si 8.57414 2.51059 14.6552
Si 6.2162 2.14746 12.7814
Si 8.56983 6.2931 12.9469
O 5.83939 5.428 15.726
O 8.2907 1.16033 15.544
O 7.22206 2.74267 13.8721
O 9.77599 6.57792 13.9801
O 6.99057 0.968629 12.0669
O 9.12 5.01908 12.1196
O 5.82897 3.39234 11.8118
O 8.34885 7.46402 11.7586
O 7.14403 6.33123 13.7196
O 9.84325 2.29888 13.6507
O 6.48722 7.92726 15.5898
O 9.05762 3.72225 15.6379
Si 10.183 4.45591 11.0516
Si 12.4627 0.172644 11.0656
Si 11.1575 6.52474 14.6748
Si 13.7682 2.35796 14.6823
Si 11.2209 2.28516 12.9696
Si 13.6697 6.39332 12.821
O 11.132 5.27648 15.7298
O 13.4659 1.14309 15.7503
O 12.4186 2.70108 13.9638
O 14.7318 6.93629 13.9129
O 11.6623 0.960218 12.2179
O 14.2451 5.05953 12.1101
O 11.0767 3.40347 11.8344
O 13.494 7.60478 11.742
O 12.3014 6.25374 13.5634
O 14.8507 1.8511 13.6401
O 11.6834 7.74061 15.5441
O 14.4384 3.59426 15.4511
Si 0.172774 13.312 11.0902
Si 2.59328 8.81194 10.959
Si 1.20132 15.4273 14.8205
Si 3.79867 10.8992 14.6513
Si 1.24384 10.9346 12.8127
Si 3.6837 15.1994 12.7893
O 0.878204 14.0773 15.6783
O 3.68797 9.56486 15.5392
O 2.43603 11.1377 13.8862
O 5.00517 15.4013 13.7735
O 1.63215 9.76956 11.8143
O 4.10117 13.9248 11.9531
O 1.07918 12.2476 11.8819
O 3.481 16.3934 11.735
O 2.41314 15.0809 13.7683
O 4.9546 10.7746 13.5137
O 1.82072 16.6531 15.754
O 4.19249 12.0632 15.6588
Si 5.14553 13.2089 10.9185
Si 7.71251 8.70451 11.0674
Si 6.28593 15.201 14.7783
Si 8.80024 10.9469 14.7658
Si 6.37926 10.9902 12.7974
Si 8.76443 15.1332 12.9556
O 5.86904 14.1189 15.8615
O 8.45453 9.66512 15.6999
O 7.4653 11.2887 13.9202
O 9.9324 15.5319 13.9162
O 6.89006 9.67457 12.0386
O 9.25196 13.8855 11.9746
O 6.14143 12.2413 11.7095
O 8.49283 16.3377 11.9448
O 7.51207 14.7836 13.889
O 9.92405 10.6036 13.7058
O 6.68651 16.6454 15.3812
O 9.18281 12.2041 15.6678
Si 10.2043 13.1436 11.0066
Si 12.6126 8.7457 11.0276
Si 11.2276 15.3786 14.7886
Si 13.8406 10.9087 14.7649
Si 11.3078 10.876 12.8441
Si 13.7972 15.3738 12.9795
O 10.9665 14.1899 15.8391
O 13.5696 9.55996 15.6421
O 12.4454 11.1314 13.9134
O 14.9572 15.7302 14.006
O 11.7133 9.58872 11.9699
O 14.3526 14.1485 12.0847
O 11.0724 12.1397 11.8986
O 13.2997 16.5786 12.017
O 12.4848 15.0328 13.8077
O 14.9707 10.6948 13.6205
O 11.709 16.7716 15.4823
O 14.2586 12.128 15.6578
324
 Atoms. Timestep: 1500
Si -0.155121 4.47259 0.0313317
Si 2.78027 0.0433103 -0.0376127
Si 1.08756 6.52821 3.75461
Si 3.64463 2.29245 3.766
Si 1.24363 2.23717 1.77239
Si 3.53405 6.43083 1.75047
O 0.989977 5.3569 4.81261
O 3.35954 0.932895 4.6757
O 2.33902 2.57917 2.90172
O 4.57345 6.62888 2.93628
O 1.81044 1.08369 0.806264
O 4.07387 5.01182 1.10344
O 0.856986 3.49853 0.798869
O 3.37171 7.53506 0.674505
O 2.12223 6.25913 2.58275
O 4.88261 1.82692 2.75988
O 1.75233 7.83576 4.51746
O 4.107 3.35553 4.84658
Si 4.87529 4.19778 16.5095
Si 7.67287 0.0378728 16.5347
Si 6.08495 6.43612 3.63674
Si 8.66278 2.22257 3.64723
Si 6.1708 1.94659 1.83193
Si 8.64147 6.47681 1.88615
O 5.84653 5.22818 4.56389
O 8.32908 1.04095 4.64525
O 7.34473 2.42827 2.78409
O 9.62784 6.83327 3.06795
O 6.65421 0.634099 1.05957
O 9.2925 5.17152 1.15592
O 5.77575 3.07355 0.663602
O 8.56026 7.62568 0.750942
O 7.21615 6.22771 2.55268
O 9.877 1.94925 2.70277
O 6.48267 7.70974 4.51442
O 9.14521 3.48839 4.51796
Si 10.1904 4.4326 0.0678817
Si 12.608 -0.0359409 16.5497
Si 11.033 6.5958 3.85791
Si 13.8843 2.25722 3.6985
Si 11.304 2.08093 1.88547
Si 13.5498 6.49164 2.03588
O 10.9169 5.39892 4.85931
O 13.7602 0.986708 4.63127
O 12.5276 2.48595 2.92722
O 14.7185 6.76771 3.07912
O 11.6719 0.783758 0.988879
O 13.9846 5.19924 1.19982
O 10.993 3.35719 0.906461
O 13.3526 7.76585 1.01535
O 12.0991 6.27928 2.72048
O 15.057 1.83671 2.63145
O 11.6558 7.97906 4.50469
O 14.2943 3.57007 4.45921
Si 0.0941598 13.0686 0.0834333
Si 2.63079 8.64207 16.4891
Si 1.09844 15.2152 3.61957
Si 3.80262 10.8608 3.70739
Si 1.33614 10.8231 1.84028
Si 3.70063 15.0293 1.77202
O 0.860588 14.0262 4.68312
O 3.54323 9.68794 4.79266
O 2.4401 11.1838 2.89685
O 4.71943 15.3218 2.98293
O 1.81071 9.46213 1.08276
O 4.37182 13.9287 0.873001
O 1.08289 12.028 0.783443
O 3.43604 16.3619 0.965699
O 2.27087 14.7773 2.55303
O 4.87576 10.5071 2.55972
O 1.62398 16.5023 4.45427
O 4.37834 12.215 4.45919
Si 5.2667 13.0474 -0.102968
Si 7.71919 8.68006 16.4738
Si 6.17168 15.2421 3.58096
Si 8.64201 10.8194 3.74286
Si 6.31303 10.7289 1.81123
Si 8.71556 15.1194 1.79928
O 6.29851 14.0658 4.68174
O 8.24348 9.54995 4.58014
O 7.33817 11.2322 2.8963
O 9.7178 15.5763 2.92605
O 6.8734 9.4772 1.06824
O 9.32868 13.889 0.992978
O 6.0289 11.9529 0.753825
O 8.60162 16.3216 0.684097
O 7.28041 14.953 2.42776
O 9.78027 10.4818 2.67726
O 6.69779 16.5462 4.39186
O 9.26473 12.056 4.55051
Si 10.2446 12.9924 0.0127983
Si 12.6135 8.7398 16.5329
Si 11.1596 15.3806 3.64957
Si 13.8011 10.8492 3.65424
Si 11.1544 10.6353 1.92098
Si 13.6444 15.1315 1.8269
O 10.8905 14.1972 4.71328
O 13.8035 9.54786 4.61997
O 12.4043 10.7762 2.88355
O 14.7159 15.5389 2.98011
O 11.4726 9.50312 0.810184
O 14.323 13.7516 1.18107
O 11.0264 11.917 0.924077
O 13.4327 16.2639 0.807098
O 12.2202 14.8299 2.5484
O 14.9781 10.8315 2.58921
O 11.8297 16.5991 4.45793
O 14.171 12.1335 4.52515
Si 0.101538 4.30998 5.60646
Si 2.55981 17.2407 5.51795
Si 1.22611 6.71788 9.259
Si 3.80522 2.35257 9.24929
Si 1.34075 2.00116 7.44713
Si 3.79541 6.45486 7.35462
O 1.13034 5.57826 10.4043
O 3.593 1.23468 10.3088
O 2.49854 2.58 8.36323
O 4.88232 6.91475 8.48364
O 1.81587 0.593262 6.70292
O 4.31793 5.12551 6.6761
O 0.847052 3.12415 6.40654
O 3.65779 7.48031 6.14974
O 2.36983 6.33651 8.13252
O 4.95881 2.02862 8.1782
O 1.75433 8.07333 9.93957
O 4.23435 3.67823 10.0941
Si 5.15235 4.26738 5.60124
Si 7.48077 17.3723 5.51149
Si 6.29616 6.63049 9.22732
Si 8.94026 2.26492 9.17716
Si 6.33784 2.05837 7.32596
Si 8.75854 6.28253 7.40307
O 5.98821 5.57734 10.3617
O 8.71034 1.24535 10.4721
O 7.60049 2.31372 8.30946
O 9.92185 6.91998 8.38156
O 6.55127 0.675226 6.55168
O 9.40883 4.94382 6.85249
O 6.15408 3.28428 6.3209
O 8.47336 7.26741 6.13282
O 7.42757 6.15048 8.16147
O 10.1847 1.82168 8.25746
O 6.905 8.01022 9.84715
O 9.26835 3.7052 9.84611
Si 10.1131 4.20223 5.61453
Si 12.8422 17.3031 5.43795
Si 11.2497 6.78261 9.25991
Si 13.8824 2.27114 9.21242
Si 11.505 1.9824 7.33646
Si 13.7492 6.40895 7.41789
O 11.0245 5.62773 10.3765
O 13.5606 1.22395 10.3556
O 12.5347 2.56446 8.37718
O 14.8499 6.80833 8.53136
O 12.1077 0.726002 6.55157
O 14.2038 5.05561 6.67314
O 11.0536 3.03327 6.17663
O 13.5057 7.43113 6.24655
O 12.4088 6.16594 8.25278
O 0.00218276 1.71073 8.32838
O 11.8075 8.1825 9.83099
O 14.3983 3.67884 9.91779
Si 0.108077 12.9292 5.4676
Si 2.67474 8.5802 5.58033
Si 1.42116 15.4058 9.24922
Si 3.86543 10.987 9.21166
Si 1.27855 10.8211 7.40407
Si 3.95709 15.1215 7.30521
O 1.16369 14.2769 10.3458
O 3.60824 9.78745 10.2507
O 2.43618 11.3246 8.44114
O 5.05126 15.5852 8.34756
O 1.86856 9.41669 6.75226
O 4.54674 13.8156 6.57912
O 1.0828 11.8306 6.11917
O 3.54052 16.1893 6.15938
O 2.60247 14.9751 8.17147
O 4.99046 10.5537 8.14825
O 1.89994 16.7739 9.88685
O 4.26588 12.2698 10.0162
Si 5.40636 13.0046 5.49602
Si 7.51871 8.42469 5.51271
Si 6.33579 15.5697 9.29974
Si 8.92879 11.0441 9.05679
Si 6.36183 10.6621 7.32724
Si 8.84685 15.1929 7.41396
O 5.96577 14.4245 10.3847
O 8.73442 9.91169 10.2501
O 7.56137 11.1475 8.2827
O 10.1397 15.5585 8.28042
O 6.82878 9.22203 6.68042
O 9.1364 13.8082 6.62322
O 6.16734 11.7851 6.23818
O 8.46451 16.4441 6.45259
O 7.55676 15.1402 8.359
O 10.0922 10.6237 8.01421
O 6.7873 17.0017 9.99169
O 9.39751 12.343 9.70952
Si 10.1102 13.0955 5.51795
Si 12.8379 8.63648 5.48737
Si 11.4708 15.313 9.14339
Si 13.9263 11.0024 9.30339
Si 11.4171 10.9076 7.32109
Si 14.0634 15.0955 7.37439
O 11.1002 14.1817 10.2272
O 13.6394 9.86966 10.3694
O 12.6075 11.2578 8.37208
O 0.150268 15.5467 8.38446
O 12.0887 9.68703 6.49146
O 14.4804 13.7575 6.67496
O 11.1285 12.1541 6.3222
O 13.7429 16.2335 6.20393
O 12.6625 14.9363 8.21297
O 15.0479 10.6901 8.2044
O 11.8731 16.6167 9.94318
O 14.4246 12.3632 9.99617
Si 0.130649 4.43168 11.0365
Si 2.71589 0.116791 11.0452
Si 0.979775 6.73497 14.6582
Si 3.61395 2.19082 14.6565
Si 1.09314 2.14463 12.8985
Si 3.53083 6.44728 12.8375
O 0.646346 5.62191 15.7884
O 3.68552 0.948051 15.6132
O 2.1443 2.2162 14.0491
O 4.66467 6.87837 13.9634
O 1.73719 0.824119 11.9661
O 4.0934 5.11643 12.179
O 0.988003 3.30918 11.8362
O 3.40325 7.63564 11.809
O 2.10615 6.20999 13.6287
O 4.67462 1.99769 13.3737
O 1.63145 7.98242 15.362
O 3.95417 3.47617 15.3996
Si 5.15569 4.51223 11.1192
Si 7.73894 0.153361 11.1163
Si 6.00631 6.63412 14.7196
Si 8.56439 2.37821 14.7671
Si 6.1382 2.21971 12.8174
Si 8.50957 6.53849 12.8862
O 5.68354 5.39626 15.715
O 8.48351 1.24308 15.8439
O 7.15491 2.58718 14.0666
O 9.63477 6.8441 14.046
O 6.7915 0.894535 12.1731
O 9.08545 5.33017 11.9899
O 6.18027 3.45294 11.8188
O 8.30465 7.86744 12.0001
O 7.1425 6.24238 13.6243
O 9.72886 2.04298 13.7269
O 6.62399 7.92502 15.4336
O 9.29703 3.75441 15.4702
Si 10.0797 4.49439 10.9783
Si 12.551 0.145226 11.0551
Si 11.0999 6.6895 14.6505
Si 13.5873 2.35173 14.7332
Si 11.1047 2.26632 12.9348
Si 13.5847 6.38182 12.8261
O 10.9867 5.56067 15.774
O 13.4829 1.0631 15.7601
O 12.2804 2.60649 13.8883
O 14.6788 6.91854 13.8878
O 11.6379 1.00862 12.132
O 14.221 5.0778 12.1279
O 10.9285 3.45744 11.8531
O 13.4045 7.52176 11.7346
O 12.1227 6.26396 13.5016
O 14.7519 1.97274 13.6211
O 11.8747 7.99469 15.2708
O 14.0005 3.61423 15.6326
Si 0.315377 13.1647 11.062
Si 2.58713 8.81338 11.0709
Si 1.12712 15.3469 14.7852
Si 3.76567 10.9638 14.6996
Si 1.24863 10.7664 12.8976
Si 3.58735 15.0775 12.9088
O 1.03773 14.1147 15.878
O 3.56503 9.69304 15.7367
O 2.33419 11.1351 14.0219
O 4.89651 15.3268 13.8805
O 1.79622 9.53005 12.1811
O 3.95924 13.9298 11.9492
O 1.07167 12.0076 11.8773
O 3.50427 16.4046 11.8829
O 2.22613 14.9391 13.7174
O 4.85645 10.5697 13.5377
O 1.82735 16.6094 15.5193
O 4.36558 12.2185 15.3934
Si 5.07076 13.2389 10.9896
Si 7.65738 8.89116 10.9233
Si 6.27392 15.3012 14.6155
Si 8.77545 11.0806 14.5835
Si 6.23753 10.9401 12.7819
Si 8.7851 15.1134 12.7678
O 6.18911 14.1345 15.7463
O 8.50127 9.84669 15.7098
O 7.43209 11.2635 13.7903
O 9.88251 15.3883 13.8712
O 6.62975 9.80777 11.7537
O 9.2345 13.7433 11.9783
O 5.95418 12.2789 11.9141
O 8.61298 16.3587 11.7969
O 7.36803 14.9956 13.4469
O 9.89436 10.4933 13.7009
O 6.82083 16.6292 15.3751
O 9.40821 12.2933 15.471
Si 10.1839 13.0594 10.9225
Si 12.6928 8.78416 11.0554
Si 11.2489 15.2094 14.7242
Si 13.7317 10.9195 14.7139
Si 11.2093 10.7116 12.8491
Si 13.7736 15.2178 12.9433
O 11.1266 14.0691 15.7915
O 13.628 9.79684 15.8197
O 12.3101 11.098 13.9385
O 14.8234 15.5752 14.1106
O 11.7038 9.33782 12.138
O 14.5098 14.0606 12.0858
O 10.9985 11.8694 11.8025
O 13.4033 16.5022 12.0568
O 12.3665 14.848 13.6361
O 14.8379 10.613 13.5595
O 11.6116 16.505 15.5793
O 14.2908 12.2476 15.5295
324
 Atoms. Timestep: 2000
Si 15.1052 4.395 16.3704
Si 2.46096 0.142655 16.5618
Si 1.07742 6.5981 3.63129
Si 3.52273 2.17923 3.64542
Si 1.07896 2.09285 1.80363
Si 3.59637 6.57808 1.88312
O 0.871548 5.45418 4.7658
O 3.26052 0.917577 4.52055
O 2.1128 2.6128 2.90122
O 4.69896 7.0571 2.91201
O 1.61635 0.790489 1.22494
O 4.26748 5.23557 1.26006
O 0.792734 3.12654 0.623193
O 3.37136 7.67088 0.746988
O 2.23031 6.25281 2.57108
O 4.60856 1.76044 2.53642
O 1.49725 7.90327 4.50876
O 4.12185 3.46478 4.37993
Si 5.16554 4.46053 0.162821
Si 7.55023 17.4159 0.123624
Si 6.09342 6.69199 3.60678
Si 8.74584 2.11032 3.60828
Si 6.02579 2.14389 1.93109
Si 8.68541 6.30554 1.93047
O 5.89765 5.45003 4.62591
O 8.74174 0.979241 4.71615
O 7.22835 2.35292 3.0922
O 9.77093 6.53487 3.08636
O 6.64641 0.941516 1.03075
O 9.27507 5.06707 1.17497
O 5.99328 3.40267 0.997202
O 8.47426 7.51224 0.970336
O 7.20482 6.20502 2.5832
O 9.74188 1.81083 2.30762
O 6.69462 8.02389 4.34983
O 9.4171 3.42763 4.30907
Si 10.1993 4.29525 0.09753
Si 12.6062 17.3046 16.4752
Si 11.2312 6.49712 3.63718
Si 13.7048 2.14195 3.71304
Si 11.2309 1.95885 1.77759
Si 13.7337 6.47523 1.72669
O 11.329 5.28963 4.69423
O 13.6468 0.899204 4.78911
O 12.2274 2.13844 2.98376
O 14.84 6.81179 2.80861
O 11.7354 0.701633 0.949126
O 14.3465 5.20422 0.933854
O 11.2233 3.22602 0.844267
O 13.6664 7.6066 0.587995
O 12.3618 6.29876 2.48515
O 14.7018 1.93988 2.53057
O 11.6976 7.80004 4.45258
O 14.2278 3.44793 4.51513
Si -0.0173941 13.0716 16.3678
Si 2.40472 8.72838 16.5539
Si 1.30278 15.0758 3.62169
Si 3.60442 11.055 3.60607
Si 0.983112 10.8425 1.78865
Si 3.91493 15.3478 1.7862
O 1.06437 13.8458 4.51492
O 3.34335 9.7522 4.55597
O 2.17254 11.2284 2.80864
O 5.28201 15.6074 2.65096
O 1.39625 9.48664 1.01176
O 4.28998 14.0479 0.868177
O 0.789912 11.9039 0.597383
O 3.36432 16.4883 0.850793
O 2.63895 14.9768 2.72594
O 4.88815 10.6444 2.63012
O 1.55184 16.3283 4.53363
O 4.08731 12.2672 4.41269
Si 5.19729 13.0785 16.5565
Si 7.78399 8.71031 0.11449
Si 6.41752 15.2613 3.78074
Si 8.78519 11.0804 3.79358
Si 6.28655 10.9681 1.93238
Si 8.83278 15.1008 1.89986
O 5.86874 14.1512 4.77206
O 8.62368 9.75823 4.79297
O 7.32566 11.2439 3.09393
O 10.1076 15.6292 2.76788
O 7.03813 9.74964 1.08283
O 9.34635 13.8863 0.979629
O 6.11492 12.1751 0.950358
O 8.23617 16.3234 1.03182
O 7.71735 14.6583 3.02739
O 9.84629 10.5877 2.64141
O 6.89433 16.5447 4.50786
O 9.21909 12.3239 4.6326
Si 10.0512 12.9953 16.471
Si 12.646 8.71453 0.0504715
Si 11.3712 15.1826 3.66075
Si 13.5788 11.0694 3.72167
Si 11.2186 10.835 1.85597
Si 13.8209 15.0898 1.72403
O 10.9607 14.1192 4.75316
O 13.351 9.85121 4.64298
O 12.2559 11.4756 2.95728
O 15.1674 15.215 2.5407
O 11.9377 9.49447 1.27117
O 14.0099 13.7974 0.836702
O 10.8608 11.8515 0.685787
O 13.5206 16.3334 0.767401
O 12.6125 14.8911 2.74209
O 14.771 10.6945 2.65056
O 11.7526 16.5209 4.53706
O 14.1854 12.3135 4.53141
Si 0.0703432 4.26015 5.52487
Si 2.43068 17.2178 5.47791
Si 1.44225 6.66254 9.17466
Si 3.75975 2.26046 9.22138
Si 1.23619 2.09884 7.34043
Si 3.90859 6.40531 7.23388
O 0.939684 5.55074 10.2514
O 3.40214 1.1718 10.3369
O 2.39275 2.36135 8.33674
O 5.12496 6.77028 8.19787
O 1.7162 0.719433 6.54859
O 4.18889 5.01014 6.54003
O 0.963667 3.21647 6.26479
O 3.64363 7.57584 6.13781
O 2.62756 6.25582 8.16944
O 4.94603 1.86383 8.25365
O 1.75733 7.8622 10.0713
O 4.26119 3.52475 10.0472
Si 5.11938 4.22209 5.39028
Si 7.85639 17.3827 5.55961
Si 6.39338 6.6625 9.22078
Si 8.7429 2.36694 9.19143
Si 6.26158 2.03933 7.33254
Si 8.88318 6.32467 7.29138
O 6.0114 5.49458 10.2811
O 8.40087 1.27106 10.2945
O 7.367 2.56141 8.28204
O 10.1446 6.70929 8.2198
O 6.9295 0.770833 6.59477
O 9.3574 5.02832 6.41455
O 5.86668 3.08077 6.16793
O 8.42165 7.45503 6.1664
O 7.69133 6.27328 8.37533
O 9.786 1.8465 8.09999
O 6.81915 7.90238 10.0763
O 9.28317 3.69274 9.8604
Si 10.3114 4.23791 5.37949
Si 12.7539 17.2913 5.56249
Si 11.4559 6.57999 9.18307
Si 13.8036 2.39597 9.25666
Si 11.2922 2.00991 7.39076
Si 13.9267 6.40948 7.23842
O 11.1953 5.37984 10.2452
O 13.6454 1.22379 10.3044
O 12.3757 2.58056 8.47265
O 0.192238 6.79522 8.13062
O 11.9219 0.698427 6.74537
O 14.1799 5.01164 6.53127
O 10.9574 3.09088 6.29589
O 13.5704 7.5528 6.16184
O 12.6864 6.35599 8.24537
O 14.9451 1.98749 8.17386
O 11.6657 8.01923 9.88619
O 14.1429 3.77716 9.90873
Si 0.29812 12.8533 5.47024
Si 2.63285 8.63345 5.41812
Si 1.42763 15.2549 9.38698
Si 3.75102 11.0346 9.33345
Si 1.42273 10.7111 7.36037
Si 3.75575 15.1432 7.35461
O 1.1583 14.0031 10.3612
O 3.47211 9.84802 10.4061
O 2.46144 11.274 8.43597
O 4.94859 15.4896 8.46099
O 2.02465 9.3256 6.74476
O 3.97463 13.8209 6.48543
O 1.14466 11.6666 6.15001
O 3.46089 16.2777 6.30694
O 2.51052 14.9557 8.29167
O 4.91078 10.6168 8.31509
O 1.83943 16.5912 10.1454
O 4.13347 12.3282 10.1337
Si 5.02451 13.0024 5.50576
Si 7.70438 8.71906 5.42948
Si 6.32925 15.2993 9.36167
Si 8.78422 11.0687 9.11574
Si 6.20872 10.7993 7.41137
Si 8.91319 15.1775 7.44344
O 6.09682 14.1005 10.3019
O 8.55718 9.97601 10.2613
O 7.36162 11.3021 8.40366
O 10.0978 15.6499 8.4067
O 6.84752 9.54341 6.65682
O 9.49202 13.6781 6.83382
O 5.88869 11.9805 6.31222
O 8.63281 16.2462 6.30603
O 7.50887 14.9418 8.2162
O 9.8733 10.5577 8.03818
O 6.80054 16.6238 10.023
O 9.42404 12.4163 9.84074
Si 10.2996 12.956 5.62473
Si 12.6174 8.61975 5.474
Si 11.4912 15.3431 9.19855
Si 13.8445 10.9281 9.08336
Si 11.3505 10.6228 7.32703
Si 14.038 15.0504 7.3926
O 11.1082 14.3021 10.3142
O 13.5157 9.80153 10.2119
O 12.4112 11.0715 8.3889
O -0.0162733 15.4126 8.51181
O 11.8524 9.3266 6.62557
O 14.6429 13.706 6.69548
O 11.1933 11.739 6.15411
O 13.6575 16.1102 6.26194
O 12.6671 14.809 8.1734
O -0.0987447 10.4387 8.07644
O 11.9876 16.7933 9.79052
O 14.3539 12.2483 9.83073
Si 0.0429243 4.5309 10.9815
Si 2.52941 0.175206 11.2212
Si 1.18996 6.71381 14.5542
Si 3.689 2.42097 14.717
Si 1.16949 2.32859 12.8723
Si 3.80327 6.53941 12.8266
O 0.85792 5.42339 15.5027
O 3.36639 1.29106 15.8202
O 2.33938 2.66581 13.8676
O 4.88543 6.76829 14.0002
O 1.52541 0.972501 12.2519
O 4.17591 5.2373 11.9884
O 0.9558 3.2907 11.6524
O 3.67693 7.80261 11.919
O 2.36231 6.31595 13.4784
O 4.73118 2.03446 13.6414
O 1.66835 7.85871 15.4672
O 4.30658 3.6553 15.6648
Si 5.11324 4.42527 11.0784
Si 7.63493 0.0407535 11.0681
Si 6.32073 6.72843 14.8322
Si 8.67883 2.22576 14.7393
Si 6.14818 2.20107 12.9425
Si 8.73249 6.51214 12.8886
O 6.04737 5.52405 15.9222
O 8.43871 0.974964 15.7548
O 7.22294 2.61865 14.0938
O 9.82036 6.78841 13.9619
O 6.818 0.88984 12.209
O 9.18788 5.21047 12.0075
O 6.06643 3.40162 11.8918
O 8.67841 7.79511 11.9165
O 7.41146 6.2411 13.7226
O 9.68466 1.74928 13.5731
O 6.7314 8.02796 15.6675
O 9.33193 3.33044 15.6222
Si 10.1538 4.34442 11.0437
Si 12.7647 0.115294 10.9602
Si 11.2109 6.57617 14.8006
Si 13.678 2.28153 14.7381
Si 11.113 2.03328 12.8872
Si 13.6424 6.59461 12.8753
O 11.0112 5.39405 15.8263
O 13.5747 1.05438 15.7351
O 12.1844 2.29057 14.1008
O 14.9458 7.07128 13.7328
O 11.6997 0.83835 11.9019
O 14.287 5.29152 12.0973
O 10.9045 3.28214 11.929
O 13.4345 7.69033 11.7326
O 12.4455 6.30554 13.8502
O 14.8967 2.15168 13.709
O 11.6527 7.96571 15.667
O 14.0715 3.67948 15.4143
Si 0.0363155 13.0066 11.0335
Si 2.63145 8.70186 11.1493
Si 1.10073 15.4652 14.7481
Si 3.62048 10.9476 14.8169
Si 1.09203 10.7593 12.9377
Si 3.59814 15.2837 12.9769
O 0.931297 14.3143 15.7903
O 3.33944 9.84159 15.8819
O 2.22115 11.1803 13.9984
O 4.64209 15.5837 14.1241
O 1.70496 9.40116 12.2446
O 4.27231 14.1762 12.0152
O 0.7963 11.8539 11.8472
O 3.39295 16.6272 12.1535
O 2.18274 15.011 13.64
O 4.8493 10.4342 13.8429
O 1.52533 16.7852 15.4695
O 4.30757 12.1983 15.5687
Si 5.10016 13.1657 11.083
Si 7.75199 8.83309 11.0719
Si 6.18542 15.3594 14.6565
Si 8.73062 10.9139 14.7157
Si 6.15952 10.8207 12.9664
Si 8.64087 15.1299 12.774
O 6.1101 14.0669 15.6985
O 8.68066 9.63347 15.6666
O 7.38875 11.0891 13.912
O 9.7137 15.4488 13.964
O 6.71208 9.58094 12.0737
O 9.19398 13.8021 12.0455
O 5.78739 12.1202 12.1411
O 8.57281 16.3641 11.7194
O 7.17325 14.9902 13.4457
O 9.87027 10.7523 13.6016
O 6.7093 16.598 15.5386
O 8.98758 12.1864 15.5409
Si 10.2553 13.1291 10.9511
Si 12.5769 8.795 11.0058
Si 11.1358 15.1993 14.5699
Si 13.6522 11.0131 14.7784
Si 11.2633 10.8895 12.8569
Si 13.6905 15.1323 12.8444
O 10.9833 13.9439 15.5694
O 13.398 9.9681 15.9166
O 12.374 11.2304 13.9407
O 14.7285 15.5422 13.98
O 11.7001 9.58418 12.1233
O 14.2168 13.9319 12.0185
O 11.134 12.1457 11.7854
O 13.553 16.3666 11.7371
O 12.2461 14.9139 13.4609
O 14.8015 10.3887 13.7035
O 11.6969 16.4002 15.5469
O 14.3273 12.4893 15.0918
324
 Atoms. Timestep: 2500
Si 0.127823 4.26508 16.5558
Si 2.50166 -0.0411873 16.5176
Si 1.21917 6.58932 3.57487
Si 3.53818 2.25836 3.70201
Si 1.03264 1.94742 1.91967
Si 3.87532 6.63633 2.10077
O 0.845213 5.2861 4.45474
O 3.3576 1.19743 4.87063
O 2.10507 2.34342 2.98977
O 4.97689 6.85114 3.26404
O 1.58845 0.540267 1.10133
O 4.31206 5.43169 1.06538
O 0.86291 3.03662 0.733652
O 3.51853 7.90923 1.15468
O 2.42995 6.23734 2.58619
O 4.67788 1.99494 2.61177
O 1.67245 7.77457 4.53705
O 4.00568 3.66256 4.33626
Si 5.18474 4.45499 0.0577756
Si 7.78309 17.4031 0.133068
Si 6.40776 6.43408 3.85586
Si 8.56132 2.00169 3.62262
Si 6.11399 2.04758 1.85436
Si 8.76714 6.3729 1.75266
O 6.18698 5.17545 4.81743
O 8.31855 0.853098 4.71597
O 7.13572 2.40801 3.06789
O 10.1589 6.61526 2.54007
O 6.84117 0.864668 1.10131
O 9.01148 5.00478 0.891602
O 5.90227 3.23086 0.836373
O 8.58118 7.63833 0.670639
O 7.54384 6.17169 2.7289
O 9.58972 1.47989 2.48282
O 6.94029 7.75289 4.68159
O 9.1797 3.37067 4.30923
Si 10.0027 4.24885 16.5015
Si 12.7181 17.4886 0.0966074
Si 11.4198 6.39818 3.45563
Si 13.5514 2.30454 3.71764
Si 11.0133 1.90928 1.84524
Si 13.948 6.59277 1.71665
O 11.062 5.00244 4.23883
O 13.4317 1.08985 4.787
O 12.086 2.27964 2.99538
O 15.0343 7.16513 2.80224
O 11.6771 0.700763 1.13343
O 14.5565 5.29725 0.967341
O 10.8375 3.24874 0.804181
O 13.4819 7.77079 0.79682
O 12.7185 6.12664 2.61102
O 14.6393 1.77213 2.71522
O 11.8187 7.69886 4.37131
O 14.0118 3.5897 4.47778
Si 0.0665056 13.0125 16.4007
Si 2.4615 8.67551 0.128579
Si 1.52234 15.3326 3.65151
Si 3.53061 10.8535 3.73271
Si 0.986993 10.7787 1.92407
Si 4.01792 15.3128 1.73013
O 1.09463 14.0993 4.63894
O 3.53982 9.59619 4.71878
O 2.13205 11.0744 3.04066
O 5.24856 15.9373 2.55786
O 1.47986 9.46646 1.12793
O 4.48478 13.9188 1.11438
O 0.870077 11.947 0.781699
O 3.46414 16.3115 0.504463
O 2.85005 15.1864 2.80601
O 4.60054 10.4234 2.57425
O 1.76777 16.5997 4.57816
O 4.00821 12.0597 4.58549
Si 5.15123 12.9184 0.0222639
Si 7.52607 8.72989 -0.00562261
Si 6.29791 15.4381 3.66366
Si 8.5972 11.0381 3.67879
Si 6.04193 10.5825 1.85817
Si 9.00246 15.2024 2.00675
O 5.63363 14.1591 4.4518
O 8.42626 9.9884 4.89237
O 7.2451 11.1313 2.91996
O 10.3759 15.3764 2.82279
O 6.55481 9.21618 1.14727
O 9.19888 13.869 1.09947
O 5.86612 11.7086 0.770502
O 8.61525 16.3631 1.00334
O 7.74562 15.052 3.00913
O 9.73303 10.6364 2.63585
O 6.62532 16.5751 4.69883
O 9.15615 12.335 4.39079
Si 10.145 13.0975 16.5596
Si 12.4931 8.78525 0.105994
Si 11.6012 15.2218 3.79161
Si 13.6855 11.0482 3.78303
Si 11.1532 10.9122 1.95338
Si 14.0885 15.1432 1.81269
O 11.2055 13.9629 4.74599
O 13.3646 9.84938 4.78948
O 12.2035 11.3612 3.07915
O 0.327013 15.4945 2.65152
O 11.6683 9.56856 1.27509
O 14.3197 13.8503 0.921468
O 11.0181 12.0292 0.805836
O 13.6813 16.3545 0.740239
O 12.8525 15.0193 2.80978
O 14.6258 10.6873 2.58416
O 11.7481 16.4959 4.70407
O 14.1143 12.4012 4.59428
Si 15.0542 4.34099 5.35473
Si 2.56256 0.0889716 5.60514
Si 1.48803 6.82587 9.22333
Si 3.62535 2.36028 9.05963
Si 1.07366 2.16484 7.29677
Si 3.92184 6.36668 7.35843
O 0.984689 5.68498 10.3218
O 3.42609 0.954719 9.96595
O 2.25285 2.6655 8.30094
O 5.24281 6.73939 8.29466
O 1.5869 0.725247 6.72261
O 4.32246 5.04717 6.48445
O 0.786321 3.09316 6.00101
O 3.38602 7.51229 6.4155
O 2.69791 6.22929 8.39897
O 4.70466 1.87261 7.95491
O 2.08008 8.05684 10.0265
O 4.3059 3.47602 9.99826
Si 5.14697 4.19074 5.39585
Si 7.63676 17.2803 5.69294
Si 6.60712 6.40143 9.10613
Si 8.54157 2.46418 9.22863
Si 6.1538 2.02042 7.32796
Si 8.97256 6.41363 7.18439
O 6.22819 5.26671 10.1631
O 8.24084 1.26876 10.2732
O 7.12961 2.69242 8.47245
O 10.22 6.67038 8.15852
O 6.87423 0.728279 6.83236
O 9.29459 5.41564 6.02634
O 6.02533 2.9781 6.05142
O 8.52732 7.86986 6.60792
O 7.69609 5.87917 8.09164
O 9.67228 2.00885 8.18986
O 7.01405 7.74989 9.88714
O 9.10417 3.70752 9.95412
Si 10.107 4.31413 5.23965
Si 12.6552 0.0411595 5.68499
Si 11.5057 6.4379 9.11315
Si 13.699 2.46241 9.18742
Si 11.1271 2.25533 7.40761
Si 14.079 6.48547 7.32756
O 11.0424 5.31128 10.1495
O 13.6661 1.07782 10.1166
O 12.2083 2.52836 8.59585
O 0.241157 7.01711 8.20417
O 11.6974 0.988595 6.57988
O 14.457 5.16927 6.52635
O 10.8732 3.42836 6.33137
O 13.5459 7.65957 6.27787
O 12.8268 6.15268 8.29133
O 14.7603 2.10974 8.01308
O 11.8133 7.80964 9.98014
O 14.3522 3.71002 9.93311
Si 0.0974788 13.1446 5.55521
Si 2.60835 8.61103 5.56861
Si 1.15923 15.3523 9.41973
Si 3.71339 11.1073 9.26471
Si 1.23176 10.7753 7.40118
Si 3.55742 15.2234 7.29883
O 0.94526 14.0413 10.3161
O 3.79976 9.9346 10.3175
O 2.2983 11.2084 8.52401
O 4.93639 15.3164 8.18717
O 1.72383 9.56818 6.49601
O 3.76733 13.9144 6.33012
O 0.909221 12.03 6.42691
O 3.54917 16.4272 6.28876
O 2.27111 15.2004 8.29693
O 4.76509 10.865 8.0919
O 1.57018 16.596 10.3314
O 4.05656 12.4596 10.0808
Si 4.87565 13.1627 5.42981
Si 7.62399 8.82124 5.65575
Si 6.24017 15.1904 9.09704
Si 8.69152 11.106 9.25976
Si 6.18083 11.0185 7.24806
Si 8.80641 15.0167 7.46123
O 5.9649 14.0724 10.235
O 8.4031 9.92884 10.3691
O 7.40377 11.3735 8.311
O 9.95381 15.5721 8.373
O 6.50821 9.68336 6.51592
O 9.42793 13.7985 6.64622
O 5.79996 12.2465 6.27363
O 8.50748 16.1208 6.35035
O 7.51664 14.7149 8.24524
O 9.81863 10.611 8.24075
O 6.64307 16.4998 9.88335
O 9.13638 12.3886 10.0676
Si 10.1523 12.9478 5.4711
Si 12.5389 8.67496 5.40871
Si 11.3268 15.3225 9.13345
Si 13.746 10.8274 9.21577
Si 11.2003 10.63 7.35957
Si 13.8074 15.2107 7.53984
O 10.9341 14.1854 10.2581
O 13.5442 9.72305 10.3447
O 12.4329 10.8673 8.36935
O 14.9257 15.6245 8.60151
O 11.6307 9.27958 6.55183
O 14.4176 14.0379 6.49142
O 10.8605 11.7103 6.23352
O 13.4943 16.4925 6.65596
O 12.4252 14.7506 8.0966
O 14.9194 10.4311 8.14943
O 11.9919 16.5389 9.8389
O 14.1444 12.2741 9.90846
Si 0.106065 4.56928 11.0035
Si 2.74842 -0.00330823 11.0187
Si 1.49152 6.36369 14.6613
Si 3.71655 2.43252 14.8131
Si 1.4316 2.26335 12.9091
Si 3.92815 6.43428 12.8362
O 1.15463 5.10792 15.5725
O 3.30452 1.21051 15.8684
O 2.5111 2.71159 13.9588
O 5.17336 6.75917 13.6919
O 2.12844 1.0646 12.1211
O 4.23196 5.12517 11.9638
O 0.935735 3.49296 11.8416
O 3.61879 7.69425 11.8749
O 2.7485 6.12281 13.7798
O 4.92813 2.02353 13.8742
O 1.72972 7.55064 15.7762
O 4.27816 3.77524 15.5594
Si 5.26659 4.25254 11.027
Si 7.44184 0.0295724 10.9299
Si 6.4602 6.62622 14.6842
Si 8.92874 2.15394 14.5491
Si 6.29569 2.0178 12.9204
Si 8.96079 6.572 12.7901
O 6.20181 5.53774 15.8299
O 8.6452 1.02743 15.7546
O 7.56653 2.20571 13.7566
O 10.1991 6.97426 13.7815
O 6.44482 0.800072 11.9298
O 9.42536 5.28293 12.0232
O 6.11806 3.28121 11.9402
O 8.47448 7.66922 11.8116
O 7.69742 6.16811 13.7525
O 10.0973 1.68665 13.5978
O 6.79871 8.04663 15.3697
O 9.36568 3.45264 15.3007
Si 10.0752 4.30787 11.0457
Si 12.9133 -0.0928298 10.9254
Si 11.3931 6.6414 14.7777
Si 13.9079 2.23991 14.655
Si 11.3758 1.96386 12.7006
Si 13.8783 6.63957 12.9003
O 10.9462 5.37138 15.732
O 13.5315 1.18054 15.8205
O 12.5887 2.35293 13.7219
O 0.146878 6.72497 13.7371
O 11.9527 0.71571 11.8975
O 14.1777 5.43138 12.0186
O 10.9527 3.21689 11.793
O 13.2593 7.81405 12.0839
O 12.5992 6.26525 13.8269
O 15.1618 1.95053 13.736
O 11.6612 7.90143 15.6216
O 14.1678 3.64434 15.5031
Si 15.0221 13.0113 11.0458
Si 2.90559 8.85465 11.0954
Si 1.18867 15.2769 14.6437
Si 3.5399 10.8826 14.7192
Si 1.10457 10.8036 12.9271
Si 3.73879 15.1803 12.9146
O 0.960731 14.0428 15.6677
O 3.19502 9.77501 15.7717
O 2.07036 11.3443 14.1247
O 4.83839 15.6454 13.9908
O 1.88219 9.64674 12.0944
O 4.27606 13.8251 12.2062
O 0.704978 11.8299 11.7842
O 3.64891 16.2891 11.7407
O 2.30824 14.8623 13.5371
O 4.54397 10.494 13.602
O 1.81059 16.6607 15.2774
O 4.09719 12.2127 15.541
Si 5.11834 13.0727 11.1143
Si 7.58163 8.67622 10.9797
Si 6.20002 15.3315 14.8379
Si 8.5808 11.0645 14.7294
Si 5.96429 10.5692 12.7753
Si 8.67419 15.5118 12.9555
O 6.06371 14.0084 15.6951
O 8.33993 9.93133 15.8355
O 7.15378 10.9494 13.8685
O 9.83486 15.762 14.0114
O 6.52186 9.25665 12.0011
O 9.02166 14.2854 12.0009
O 5.93137 11.8363 11.7651
O 8.41784 16.7559 11.9853
O 7.31494 15.1452 13.7224
O 9.72764 10.4939 13.6974
O 6.84674 16.5401 15.7341
O 9.18384 12.3814 15.4071
Si 9.96951 13.2211 11.0877
Si 12.4602 8.73086 11.0651
Si 11.1953 15.4834 14.7532
Si 13.6432 10.936 14.6919
Si 10.9783 10.849 12.8725
Si 13.7627 15.1704 12.9238
O 10.95 14.1317 15.6767
O 13.3693 9.88122 15.9138
O 12.2128 11.0521 13.9858
O 14.8759 15.5132 14.0137
O 11.5201 9.74308 11.8335
O 14.2169 13.8041 12.1349
O 10.7422 12.1923 11.9916
O 13.7161 16.2696 11.7437
O 12.2991 15.0995 13.6307
O 14.7472 10.4858 13.6338
O 11.8869 16.6229 15.5794
O 14.1458 12.2818 15.3687
324
 Atoms. Timestep: 3000
Si 0.240419 4.34905 16.5553
Si 2.4009 17.3229 -0.082159
Si 1.45207 6.656 3.68942
Si 3.75857 2.19327 3.59533
Si 1.12466 2.07844 1.91227
Si 4.09869 6.71652 1.90174
O 1.14494 5.28868 4.43688
O 3.6709 1.10965 4.7913
O 2.2528 2.27244 3.04562
O 5.32269 7.17606 2.79464
O 1.65675 0.756561 1.13775
O 4.55191 5.39654 1.06982
O 1.00842 3.33637 0.899223
O 3.72333 7.85612 0.851135
O 2.79872 6.53772 2.84241
O 4.73077 1.82738 2.40787
O 1.66839 7.84037 4.77587
O 4.13466 3.60887 4.22819
Si 5.32511 4.35869 0.0545212
Si 7.64144 17.3088 0.168428
Si 6.58154 6.73752 3.81503
Si 8.75461 2.31757 3.88664
Si 6.27091 2.10392 1.89872
Si 8.84415 6.49349 1.77065
O 5.91406 5.45964 4.52262
O 8.50583 1.06182 4.84881
O 7.35016 2.47948 3.04273
O 10.233 6.8979 2.44648
O 6.84452 0.831049 1.22586
O 8.89769 5.17369 0.952882
O 6.23866 3.3475 0.86927
O 8.4286 7.60062 0.696858
O 7.85087 6.40838 2.97141
O 9.97122 2.01024 2.89415
O 6.98515 7.84475 4.8789
O 9.05569 3.63 4.70855
Si 9.80878 4.32553 16.481
Si 12.573 0.00672647 0.026295
Si 11.4363 6.60218 3.51399
Si 13.7035 2.30287 3.62141
Si 11.2326 2.19626 1.8526
Si 14.1099 6.60784 1.77498
O 10.9783 5.36882 4.40726
O 13.1863 1.10296 4.54378
O 12.4655 2.71392 2.70471
O 0.207271 6.8835 2.74233
O 11.6901 0.848874 1.04109
O 14.5263 5.40296 0.887269
O 10.6541 3.25202 0.786637
O 13.6768 7.87777 0.968409
O 12.8123 6.29027 2.71939
O 14.8309 1.89834 2.53214
O 11.6535 7.86036 4.50579
O 14.3293 3.39266 4.574
Si 0.0786728 13.0856 16.6847
Si 2.7342 8.8508 0.0803433
Si 1.40834 15.3541 3.77971
Si 3.53658 10.8503 3.75
Si 1.02121 10.6506 1.93665
Si 3.79014 15.081 1.75178
O 0.999427 14.0597 4.69668
O 3.56685 9.53842 4.71423
O 2.08705 10.9868 3.09553
O 5.1933 15.4974 2.45166
O 1.70074 9.51634 1.08655
O 4.17198 13.6919 1.01627
O 0.849008 11.8674 0.866614
O 3.43483 16.1096 0.579132
O 2.60942 14.9448 2.78072
O 4.68507 10.6266 2.68631
O 2.00982 16.5641 4.64743
O 3.9212 12.1712 4.58885
Si 5.03284 12.9777 16.4051
Si 7.51664 8.7007 0.0219877
Si 6.31711 15.3104 3.57826
Si 8.56841 10.9607 3.47649
Si 6.05826 10.7567 1.88134
Si 8.94765 15.2301 1.95784
O 5.73588 14.0718 4.46439
O 8.44714 9.91548 4.70233
O 7.08514 11.26 2.93819
O 10.3441 15.4288 2.63973
O 6.68064 9.49416 1.19167
O 9.02422 14.0073 0.919767
O 5.80411 11.9013 0.706983
O 8.63577 16.5312 1.12434
O 7.76108 14.9621 2.95703
O 9.72385 10.5942 2.41304
O 6.52698 16.627 4.55896
O 9.24682 12.3276 4.15849
Si 10.0383 13.1365 16.4674
Si 12.6614 8.83337 0.13052
Si 11.4527 15.2147 3.82195
Si 13.5904 10.9556 3.60245
Si 11.1511 11.0425 1.7756
Si 13.9928 15.3054 2.02125
O 11.129 13.9138 4.65645
O 13.3131 9.89986 4.79373
O 12.249 11.3697 2.86858
O 0.13808 15.8161 2.93565
O 11.7081 9.70637 1.02953
O 14.3356 13.9275 1.15277
O 10.841 12.1146 0.661623
O 13.5257 16.4203 0.904574
O 12.8188 15.0466 3.07058
O 14.6609 10.4449 2.56952
O 11.4805 16.5533 4.70251
O 14.406 12.1658 4.26734
Si 0.231871 4.38962 5.43412
Si 2.80814 0.115889 5.65747
Si 1.42318 6.37627 9.09304
Si 3.65763 2.20678 9.09381
Si 1.14079 2.14467 7.35267
Si 3.90635 6.31266 7.36092
O 0.755455 5.29124 10.0774
O 3.5956 0.963272 10.0974
O 2.15746 2.32557 8.5977
O 5.26116 6.51886 8.21241
O 1.65202 1.00091 6.47603
O 4.15028 5.21324 6.28354
O 1.07546 3.45453 6.44609
O 3.50601 7.67393 6.54416
O 2.80072 5.96807 8.42357
O 4.60559 1.89921 7.83639
O 1.88634 7.69555 9.83902
O 4.21956 3.42679 9.82339
Si 5.02702 4.42576 5.31007
Si 7.55815 17.4067 5.56154
Si 6.38672 6.48766 9.3845
Si 8.41224 2.42359 9.23895
Si 6.06098 2.16388 7.17983
Si 8.91867 6.81059 7.56911
O 6.05321 5.2656 10.3108
O 8.18572 1.2063 10.3284
O 7.11156 2.65628 8.4313
O 10.301 7.00354 8.38028
O 6.61472 0.839427 6.5405
O 9.26454 5.68115 6.46965
O 5.9035 3.39615 6.16295
O 8.68832 8.17908 6.79767
O 7.81348 6.48344 8.61418
O 9.58625 2.05228 8.10326
O 6.57762 7.73407 10.3892
O 9.18772 3.64502 9.97253
Si 10.1019 4.59673 5.51295
Si 12.31 0.147358 5.597
Si 11.4894 6.5424 9.19941
Si 13.5974 2.2662 9.17237
Si 10.9061 2.30961 7.45127
Si 14.0747 6.47039 7.19253
O 11.162 5.14628 9.96736
O 13.5338 0.972631 10.1532
O 12.1006 2.46998 8.51134
O 0.35665 6.65277 8.00183
O 11.4048 1.18378 6.37333
O 14.2781 5.2684 6.23374
O 10.8547 3.62625 6.49799
O 13.6086 7.66446 6.28091
O 12.896 6.29008 8.31513
O 14.7021 2.18039 8.02303
O 11.707 7.64815 10.296
O 14.0941 3.46104 10.2221
Si -0.0108408 13.0915 5.43063
Si 2.5707 8.69691 5.70519
Si 1.03864 15.1656 9.16686
Si 3.50212 11.3611 9.2792
Si 1.0565 10.9556 7.42021
Si 3.62429 15.079 7.48163
O 0.793677 13.9509 10.1769
O 3.17905 10.0327 10.1726
O 2.10385 11.5226 8.4934
O 4.71824 15.3419 8.60322
O 1.7632 9.79431 6.55753
O 4.22606 13.9925 6.4994
O 0.779947 12.1966 6.39371
O 3.57023 16.5708 6.73727
O 2.20129 14.7258 8.04765
O 4.69685 10.9066 8.20738
O 1.66879 16.4273 10.0285
O 4.24919 12.4562 10.1318
Si 4.96745 13.0368 5.39452
Si 7.71528 8.9403 5.84046
Si 6.20523 15.1243 9.14682
Si 8.57528 11.0312 9.21309
Si 6.1093 11.0191 7.49194
Si 8.61687 15.012 7.28341
O 6.25158 14.0596 10.3353
O 8.14938 9.82057 10.1683
O 7.17975 11.3522 8.50001
O 9.84195 15.3688 8.37993
O 6.679 9.63782 6.7278
O 9.2355 13.7794 6.50928
O 5.87923 11.9842 6.28274
O 8.29858 16.2437 6.33474
O 7.16193 14.7657 7.98478
O 9.66438 10.5611 8.09486
O 6.82138 16.4935 9.84885
O 9.16665 12.2868 9.88714
Si 10.0625 12.9606 5.37564
Si 12.6139 8.73186 5.55544
Si 11.1968 15.1494 9.15376
Si 13.5206 10.8208 9.13134
Si 11.0275 10.7127 7.37893
Si 13.675 15.1332 7.29242
O 11.1012 13.9599 10.2565
O 13.2956 9.65594 10.1628
O 12.0836 11.1463 8.49436
O 14.8264 15.4528 8.39106
O 11.7259 9.44107 6.70299
O 14.0845 14.0055 6.3271
O 10.8813 11.7969 6.15911
O 13.2494 16.6056 6.47521
O 12.3599 14.8061 8.14883
O 14.7297 10.5408 8.01153
O 11.7508 16.4535 9.90561
O 14.1391 12.0551 9.97331
Si -0.0156044 4.30187 11.1627
Si 2.61017 17.4178 10.9067
Si 1.50776 6.51738 14.67
Si 3.85319 2.23503 14.8857
Si 1.30679 2.04433 12.892
Si 3.93357 6.56117 12.5789
O 1.18988 5.23783 15.6827
O 3.35351 1.07969 15.8415
O 2.57257 2.4546 13.8289
O 5.3418 6.6191 13.5087
O 1.83715 0.793867 11.9403
O 4.06065 5.23078 11.71
O 0.982868 3.2584 11.8489
O 3.66506 7.81004 11.6613
O 2.70547 6.36176 13.6318
O 5.19019 1.6815 13.9784
O 2.0425 7.94133 15.4699
O 4.33615 3.42247 15.7034
Si 5.09132 4.23064 10.9323
Si 7.38053 17.4591 11.0099
Si 6.45451 6.4381 14.5602
Si 8.75046 2.05796 14.5581
Si 6.18893 1.86775 12.8218
Si 9.04319 6.54989 12.8569
O 6.03852 5.23807 15.5305
O 8.36226 0.871436 15.6084
O 7.63444 2.26559 13.4806
O 10.2781 7.02951 13.7859
O 6.31512 0.604881 11.9591
O 9.57493 5.17194 12.1184
O 5.78031 3.09894 11.8468
O 8.80884 7.5826 11.6387
O 7.75011 6.3449 13.7205
O 10.1243 1.73673 13.7688
O 6.72112 7.74899 15.4942
O 9.01422 3.38175 15.4212
Si 10.2621 4.26197 10.9652
Si 12.6768 17.268 10.9468
Si 11.3608 6.64412 14.9271
Si 13.8296 2.11813 14.7002
Si 11.416 1.96415 12.8368
Si 14.0168 6.47046 13.1347
O 10.6293 5.41011 15.6684
O 13.4981 1.01955 15.8089
O 12.6428 2.31395 13.7412
O 0.18058 6.98701 13.9716
O 11.7911 0.696123 12.0086
O 14.3332 5.11189 12.2789
O 11.0477 3.06143 11.7235
O 13.675 7.60261 11.9943
O 12.7567 6.25738 14.1699
O -0.046422 1.71868 13.7069
O 11.752 7.79736 15.8825
O 14.34 3.39086 15.6053
Si 15.0853 12.854 10.9934
Si 2.53634 8.69012 10.8723
Si 1.16136 15.2186 14.6543
Si 3.68991 10.93 14.5615
Si 1.08827 10.6629 12.7465
Si 3.82986 15.1864 12.898
O 1.02923 14.0189 15.8211
O 3.56569 9.92449 15.8712
O 2.32912 10.9715 13.7904
O 4.92284 15.7284 14.0186
O 1.58303 9.33217 12.0286
O 4.50305 14.0159 12.2146
O 1.00178 11.8477 11.6829
O 3.50419 16.3576 11.7893
O 2.41695 14.7804 13.694
O 4.80277 10.408 13.5341
O 1.41306 16.5762 15.4243
O 4.21336 12.2896 15.2315
Si 5.25386 13.111 11.1465
Si 7.67301 8.58616 11.1199
Si 6.25693 15.2914 14.773
Si 8.59953 11.0863 14.7058
Si 6.23263 10.7025 12.9219
Si 8.76198 15.2976 12.7517
O 5.90811 14.0622 15.7142
O 8.17865 9.90352 15.7587
O 7.29974 11.314 13.9094
O 9.87372 15.5542 13.7723
O 6.97824 9.45122 12.3272
O 9.20643 13.9698 11.9601
O 6.04031 11.9513 11.9088
O 8.43332 16.5057 11.8479
O 7.42034 15.035 13.6482
O 9.83857 10.6095 13.9118
O 6.74167 16.36 15.7362
O 9.14397 12.3832 15.439
Si 10.0794 12.9817 11.12
Si 12.6447 8.52818 11.2605
Si 11.1633 15.3522 14.6215
Si 13.7794 11.0874 14.6838
Si 11.2389 10.7764 13.054
Si 13.7796 15.101 12.8073
O 10.9358 14.2271 15.6812
O 13.3975 9.8146 15.6329
O 12.3334 11.3791 13.9889
O 14.9184 15.5162 13.8116
O 11.9163 9.47652 12.3526
O 14.2461 13.7051 12.1308
O 10.76 11.7591 11.9557
O 13.6361 16.2331 11.7496
O 12.4394 14.9881 13.6189
O 14.7913 10.6503 13.5619
O 11.6575 16.612 15.4664
O 14.3031 12.2381 15.5805
324
 Atoms. Timestep: 3500
Si 0.218611 4.36982 0.0586989
Si 2.53734 17.373 16.4673
Si 1.65666 6.57989 3.83877
Si 3.75386 2.2872 3.67239
Si 1.25287 2.04575 1.77496
Si 4.07961 6.57483 1.87524
O 1.05635 5.34138 4.6897
O 3.41871 1.20198 4.77304
O 2.44159 2.27015 2.83794
O 5.47057 6.97895 2.54358
O 1.43613 0.779258 0.843803
O 4.31488 5.29112 0.946827
O 0.962966 3.3304 0.99576
O 3.34594 7.72091 0.982833
O 3.02866 6.18767 3.08591
O 4.93023 1.88165 2.66409
O 2.11308 7.82086 4.77204
O 4.27489 3.6587 4.33499
Si 5.11608 4.41303 16.4102
Si 7.70983 0.106916 16.4904
Si 6.60041 6.64775 3.68667
Si 8.79966 2.45853 3.67416
Si 6.23257 2.22217 1.86143
Si 9.14714 6.64747 1.9009
O 6.12063 5.38152 4.50639
O 8.5178 1.15803 4.64548
O 7.48207 2.71996 2.77106
O 10.5944 6.69457 2.53726
O 6.82219 0.911393 1.03353
O 9.21637 5.26052 0.968171
O 5.85356 3.34616 0.764301
O 8.53997 7.79202 1.05545
O 8.04976 6.47546 3.0814
O 10.0871 2.29014 2.71947
O 6.68686 7.85446 4.779
O 9.27513 3.54771 4.73988
Si 10.1047 4.50769 16.468
Si 12.6561 0.121697 0.0396585
Si 11.7186 6.53236 3.65833
Si 13.8147 2.31069 3.50559
Si 11.2402 2.39685 1.76059
Si 14.193 6.45212 2.11529
O 11.0198 5.53095 4.66102
O 13.1934 1.27889 4.51163
O 12.5473 2.8762 2.63132
O 0.470026 6.86439 2.86685
O 11.7013 1.02263 0.960667
O 14.3464 5.26586 1.04543
O 11.0058 3.35076 0.606093
O 13.6252 7.6768 1.17211
O 13.1273 6.09682 3.17114
O 15.021 1.83237 2.61154
O 11.9881 7.93069 4.47145
O 14.3995 3.53197 4.36823
Si 0.107779 13.0805 0.161083
Si 2.59012 8.78948 0.0644594
Si 1.35433 15.3315 3.65936
Si 3.71444 10.9805 3.81673
Si 1.17793 10.9715 1.97827
Si 3.81483 15.2291 1.86653
O 0.792816 14.2431 4.65375
O 3.5705 9.90636 4.92944
O 2.2063 11.1557 3.17598
O 5.10437 15.6597 2.69826
O 1.67971 9.62114 1.12677
O 4.23413 14.0451 0.901121
O 1.04304 12.1551 0.990516
O 3.26959 16.3491 0.929709
O 2.63559 14.7412 2.81049
O 4.75113 10.4841 2.70035
O 1.80253 16.5196 4.58502
O 4.3406 12.3508 4.32074
Si 5.04448 13.1522 16.39
Si 7.71015 8.67359 0.0507177
Si 6.40437 15.3502 3.60268
Si 8.56553 10.9249 3.57108
Si 6.05081 10.7639 1.78317
Si 8.92751 15.1357 1.69903
O 6.13716 14.1174 4.61778
O 8.22288 9.86113 4.70211
O 7.23138 11.2767 2.72832
O 10.2137 15.4153 2.48016
O 6.68945 9.57599 0.912793
O 9.09497 13.8469 0.778131
O 5.74875 11.9131 0.714709
O 8.63883 16.4331 0.762356
O 7.70016 14.929 2.76085
O 9.65017 10.4884 2.5086
O 6.75927 16.6379 4.44126
O 9.24205 12.1845 4.34519
Si 10.1846 13.0808 16.4517
Si 12.8195 8.65398 0.2422
Si 11.2936 15.4116 3.66078
Si 13.6753 11.0076 3.61386
Si 11.075 10.6475 1.86377
Si 13.8998 15.3699 1.86236
O 10.8505 14.1511 4.64234
O 13.7279 9.83094 4.74301
O 12.246 10.9423 2.98016
O 0.110915 15.6976 2.68801
O 11.6626 9.41998 1.04692
O 14.1969 13.9283 1.18106
O 10.886 11.9876 1.00962
O 13.5545 16.4371 0.816419
O 12.7458 15.3264 2.91935
O 14.8211 10.6714 2.54557
O 11.3535 16.7951 4.53314
O 14.2169 12.3 4.40398
Si 0.0808838 4.32949 5.52085
Si 2.49522 0.0888489 5.57909
Si 1.34234 6.32552 9.12025
Si 3.57873 2.05591 9.2647
Si 1.05328 2.11689 7.43763
Si 3.90599 6.52311 7.37431
O 0.771358 5.17827 10.0536
O 3.33388 0.870917 10.1977
O 2.23304 2.32573 8.47338
O 5.16655 6.70223 8.29413
O 1.51335 0.979725 6.39159
O 4.16999 5.44687 6.23534
O 0.79624 3.48117 6.60658
O 3.27604 7.92576 6.88663
O 2.76331 6.0167 8.3515
O 4.78615 1.84135 8.15973
O 1.43595 7.61286 10.1372
O 4.18021 3.36519 9.99246
Si 5.11055 4.47163 5.34986
Si 7.63164 0.0735349 5.50005
Si 6.32018 6.54635 9.34749
Si 8.67203 2.19528 9.18206
Si 6.1212 2.13874 7.37914
Si 8.98351 6.72595 7.52736
O 6.11801 5.16016 10.1694
O 8.53123 0.908018 10.0863
O 7.25723 2.38267 8.49978
O 10.3554 6.94233 8.26965
O 6.65687 0.986636 6.40429
O 9.2253 5.40643 6.60731
O 5.86581 3.4853 6.45939
O 8.48521 7.9487 6.60915
O 7.80031 6.48301 8.64258
O 9.72921 2.167 8.02121
O 6.46173 7.67493 10.4077
O 9.21171 3.28349 10.2024
Si 10.2057 4.50642 5.63016
Si 12.4539 0.287206 5.38708
Si 11.5935 6.4893 9.26156
Si 13.6492 1.96458 9.17247
Si 11.1705 2.34608 7.40499
Si 13.885 6.52054 7.22719
O 11.0404 5.22374 10.105
O 13.3983 0.757742 10.2447
O 12.3456 2.38046 8.44955
O 0.234188 6.76777 7.94905
O 11.5703 1.13519 6.46374
O 14.0802 5.31116 6.22435
O 11.1342 3.65281 6.51972
O 13.3251 7.84089 6.50743
O 12.8656 6.10626 8.41226
O 14.7291 1.60736 8.03547
O 12.0104 7.65316 10.2764
O 14.2396 3.18517 9.98765
Si 14.9752 13.1869 5.46375
Si 2.70152 8.94352 5.80793
Si 0.916757 15.271 9.18263
Si 3.34454 11.0557 9.12774
Si 0.86521 10.9375 7.20929
Si 3.43324 15.1609 7.36983
O 0.628684 14.1338 10.1883
O 2.89029 9.75009 10.0472
O 1.98988 11.3517 8.34337
O 4.51784 15.3066 8.56596
O 1.51689 9.72512 6.43323
O 4.13701 14.0844 6.40704
O 0.716759 12.1928 6.33349
O 3.34106 16.5622 6.56556
O 2.11775 14.7478 8.17322
O 4.55648 10.6938 8.217
O 1.47694 16.474 10.0297
O 4.06539 12.0578 10.1133
Si 5.10856 13.2275 5.43873
Si 7.41417 8.81988 5.75611
Si 5.97703 15.1316 9.23312
Si 8.51307 10.9236 9.2201
Si 5.93796 11.0097 7.43023
Si 8.53368 15.0917 7.43391
O 5.74107 13.9791 10.3172
O 8.33322 9.61494 10.0604
O 7.13411 11.3313 8.51451
O 9.61961 15.5232 8.45891
O 6.54818 9.81103 6.66656
O 8.95497 13.8116 6.4533
O 5.78188 12.2102 6.46695
O 8.27121 16.3678 6.40403
O 7.14293 14.7247 8.12281
O 9.54876 10.7477 8.06727
O 6.60748 16.4637 9.94252
O 9.07122 12.1194 10.1915
Si 9.98627 13.085 5.47568
Si 12.637 8.90195 5.53182
Si 11.0064 15.2653 9.15729
Si 13.5121 10.9081 9.21445
Si 10.963 10.8486 7.37467
Si 13.5101 15.3618 7.24641
O 10.937 13.9405 10.0873
O 13.5242 9.70909 10.3374
O 12.0248 10.988 8.58615
O 14.7307 15.6215 8.23235
O 11.4644 9.83427 6.30251
O 14.0177 14.0991 6.44658
O 10.9872 12.2636 6.45026
O 13.2928 16.559 6.19885
O 12.1949 15.2097 8.08782
O 14.4764 10.5441 7.95961
O 11.4027 16.4974 10.1194
O 13.9446 12.2311 9.92679
Si 0.0386359 4.14664 10.9715
Si 2.53363 17.1463 11.084
Si 1.46289 6.45782 14.9283
Si 3.84648 2.17779 14.6286
Si 1.2511 1.8429 12.9017
Si 3.82622 6.54161 12.7495
O 1.34959 5.44016 16.0585
O 3.56599 1.00351 15.7076
O 2.44442 2.36155 13.885
O 5.09037 6.84571 13.629
O 1.80587 0.543472 12.1333
O 4.24418 5.21148 11.8909
O 0.936695 3.04779 11.9458
O 3.27397 7.76549 11.871
O 2.55311 6.24509 13.8023
O 4.96366 1.84151 13.5931
O 1.64846 7.88237 15.5729
O 4.13302 3.53614 15.388
Si 5.17045 4.18515 10.954
Si 7.60524 17.2578 10.9061
Si 6.41312 6.53271 14.5047
Si 8.89654 2.30501 14.6849
Si 6.35951 2.06303 12.8099
Si 9.05262 6.38575 12.7696
O 6.04196 5.39423 15.6351
O 8.69534 1.12399 15.7284
O 7.62339 2.30535 13.6884
O 10.215 6.977 13.7212
O 6.87488 0.779855 11.9794
O 9.60765 4.95536 12.2652
O 5.99889 3.25002 11.8971
O 8.63044 7.50908 11.6616
O 7.69446 6.18289 13.6084
O 10.1306 1.90827 13.7802
O 6.83559 7.71359 15.4834
O 9.10464 3.72621 15.4355
Si 10.3359 4.10219 11.055
Si 12.4591 17.1839 11.0805
Si 11.4271 6.59939 14.5884
Si 13.8983 2.35625 14.6933
Si 11.4588 2.01267 12.8843
Si 14.0047 6.25996 12.9972
O 10.9815 5.53575 15.6141
O 13.4827 1.20576 15.7827
O 12.6104 2.52444 13.7615
O 0.130766 6.42598 14.0527
O 11.8047 0.5573 12.3061
O 14.3458 5.04541 12.0339
O 11.2262 3.01017 11.665
O 13.7668 7.66326 12.2379
O 12.6482 6.03089 13.73
O 14.989 1.54987 13.7071
O 12.0358 7.78217 15.6406
O 14.6098 3.53264 15.4058
Si 14.9914 13.0048 10.9376
Si 2.2663 8.7046 11.0422
Si 1.14059 15.2356 14.6086
Si 3.65094 10.9243 14.6364
Si 1.08654 10.928 12.7725
Si 3.70843 14.9112 12.8985
O 0.806735 14.2493 15.7297
O 3.44069 9.83443 15.7737
O 2.33 11.099 13.6939
O 4.85405 15.4666 13.8308
O 1.33582 9.49892 12.0529
O 4.08427 13.488 12.2338
O 0.867178 11.9573 11.569
O 3.41806 15.956 11.7571
O 2.28303 14.7035 13.6237
O 4.96462 10.4745 13.7343
O 2.06174 16.3966 15.2726
O 4.16803 12.2624 15.2786
Si 5.01976 12.7855 11.1558
Si 7.62103 8.64632 11.0854
Si 6.25576 15.3637 14.5762
Si 8.82122 10.8582 14.6377
Si 6.29932 10.7311 12.9469
Si 8.80004 15.1639 12.8202
O 5.90729 14.2226 15.6593
O 8.53441 9.62323 15.6596
O 7.37803 11.2675 13.963
O 9.8405 15.6387 13.9612
O 6.95273 9.46643 12.2567
O 9.31792 13.7601 12.1406
O 6.02066 11.8466 11.8483
O 8.66383 16.2906 11.6545
O 7.3888 14.9715 13.5581
O 9.83454 10.3502 13.5221
O 6.80342 16.6677 15.4889
O 9.61604 12.1248 15.2692
Si 10.1376 12.944 11.026
Si 12.7846 8.6279 11.2752
Si 11.2355 15.4482 14.7459
Si 13.7704 10.9775 14.8317
Si 11.3479 10.7837 12.9407
Si 13.6897 14.9824 12.8534
O 11.0001 14.2573 15.8349
O 13.6858 9.74654 15.9303
O 12.2749 11.2116 14.1445
O 14.9007 15.5494 13.7695
O 11.867 9.44544 12.28
O 14.0495 13.6008 12.1051
O 11.1318 11.97 11.8881
O 13.4192 16.0276 11.6485
O 12.3865 14.9269 13.7397
O 14.8384 10.8196 13.6212
O 11.7795 16.8116 15.462
O 14.299 12.1927 15.7535
324
 Atoms. Timestep: 4000
Si 0.18388 4.33057 0.143334
Si 2.777 17.3053 16.604
Si 1.58041 6.57912 3.61954
Si 3.86851 2.14072 3.70285
Si 1.28356 2.05285 1.90255
Si 4.0694 6.42777 1.6957
O 1.11122 5.35262 4.66099
O 3.6376 0.855845 4.67411
O 2.37683 2.31397 2.96991
O 5.48347 6.83362 2.50407
O 1.86646 0.743074 1.07801
O 4.27844 5.13417 0.73756
O 1.04257 3.28014 0.896868
O 3.60035 7.68652 0.882468
O 2.99545 6.14492 2.88044
O 5.06846 1.93152 2.60435
O 1.87 7.81088 4.52663
O 4.16791 3.46437 4.43692
Si 5.30738 4.33971 16.2994
Si 7.65433 17.3139 16.3439
Si 6.48389 6.52208 3.66402
Si 8.79667 2.35387 3.62993
Si 6.42098 2.10435 1.7116
Si 9.08795 6.55825 1.94656
O 6.02599 5.30103 4.48906
O 8.51382 1.32062 4.82558
O 7.54864 2.29034 2.74167
O 10.4259 7.06231 2.76708
O 6.84133 0.836232 0.791115
O 9.47808 5.24085 1.09982
O 6.1824 3.3273 0.731774
O 8.68051 7.7113 0.890116
O 7.92138 6.30057 2.99159
O 10.0978 1.93366 2.84282
O 6.46337 7.78641 4.61362
O 9.12722 3.7716 4.43256
Si 10.284 4.37495 16.4565
Si 12.7101 0.105895 -0.0373174
Si 11.6418 6.66316 3.73959
Si 13.9021 2.24204 3.65687
Si 11.3762 2.18313 1.91095
Si 14.1107 6.56374 1.82205
O 11.1503 5.4493 4.69387
O 13.4163 1.14835 4.74245
O 12.6924 2.6677 2.75152
O 0.320573 6.82492 2.66622
O 11.8409 0.91941 1.11604
O 14.2834 5.15743 1.05128
O 11.075 3.39272 0.817499
O 13.7298 7.7452 0.863317
O 12.8542 6.44611 2.85884
O 14.8645 1.59321 2.55659
O 11.8658 7.96542 4.74069
O 14.4871 3.52677 4.43599
Si 15.0812 13.1275 16.4962
Si 2.62697 8.7367 0.176383
Si 1.14241 15.4797 3.65288
Si 3.82092 11.2354 3.44209
Si 1.1943 10.9182 1.93353
Si 3.77178 15.0001 1.93789
O 0.787142 14.3383 4.72214
O 3.42628 10.0729 4.59374
O 2.48578 11.4805 2.65177
O 4.89756 15.4846 2.92352
O 1.68145 9.47306 1.29626
O 4.11645 13.5393 1.16492
O 0.758086 11.8842 0.66858
O 3.5519 16.1436 0.701508
O 2.36007 15.0123 2.66024
O 4.95178 10.6785 2.50414
O 1.67371 16.7379 4.46335
O 4.37232 12.4644 4.38293
Si 5.1747 13.08 16.5377
Si 7.87951 8.76659 -0.00106488
Si 6.28724 15.5085 3.7319
Si 8.80771 10.873 3.74242
Si 6.29543 10.8901 1.81244
Si 8.60202 15.0157 1.67723
O 5.92858 14.4133 4.87579
O 8.29917 9.60445 4.66714
O 7.47462 11.3093 2.88316
O 9.87336 15.6162 2.53799
O 6.94005 9.51999 1.05641
O 9.1535 13.6765 1.10089
O 6.1223 11.956 0.59374
O 8.22063 16.0232 0.476336
O 7.40113 15.0231 2.71742
O 9.92308 10.5256 2.64354
O 6.81856 16.8058 4.44753
O 9.08148 12.155 4.65873
Si 10.1777 13.05 0.0799684
Si 12.7876 8.74647 0.0319967
Si 11.0685 15.4419 3.52482
Si 13.7765 11.1422 3.91629
Si 11.3424 10.6319 1.82292
Si 13.7084 15.1709 1.73142
O 10.726 14.2303 4.47503
O 13.4432 10.1358 5.09653
O 12.4787 11.1067 2.91135
O 15.0072 15.6335 2.66123
O 11.6904 9.253 1.10523
O 14.1653 13.8353 1.06813
O 11.0214 11.874 0.803
O 13.4762 16.3356 0.693958
O 12.3858 15.0605 2.64101
O 15.0397 10.7372 2.98432
O 11.4655 16.778 4.35014
O 14.013 12.5759 4.55946
Si 0.0661678 4.51389 5.49763
Si 2.47486 0.113024 5.5938
Si 1.44812 6.40031 9.21931
Si 3.60527 2.17713 9.31092
Si 1.10268 2.30143 7.45683
Si 3.89954 6.82369 7.21427
O 1.10254 5.03444 10.0043
O 3.4011 0.83217 10.3044
O 2.22456 2.40025 8.53644
O 5.30524 6.96688 8.02563
O 1.74252 1.2963 6.30063
O 4.18909 5.62427 6.21807
O 0.785138 3.66289 6.66906
O 3.52135 8.12797 6.39137
O 2.77231 6.37732 8.36384
O 4.7434 1.82393 8.24424
O 1.59822 7.47487 10.3522
O 4.01205 3.48492 10.1493
Si 4.9787 4.50709 5.37476
Si 7.5935 0.289743 5.50715
Si 6.37517 6.54188 9.15397
Si 8.57114 2.1332 9.20657
Si 6.05077 2.3462 7.3849
Si 8.86854 6.51308 7.33367
O 5.7233 5.42588 10.0283
O 8.2967 0.725876 9.90129
O 7.1769 2.59077 8.44477
O 10.2373 7.01889 8.11247
O 6.57856 1.23714 6.34174
O 9.38888 5.25803 6.50749
O 5.63636 3.63697 6.52548
O 8.22703 7.7196 6.50737
O 7.77378 6.13991 8.42719
O 9.69391 2.03991 8.12652
O 6.70956 7.84837 10.0359
O 9.06757 3.16182 10.3186
Si 10.1883 4.43681 5.44798
Si 12.435 0.149158 5.36171
Si 11.3207 6.47733 9.16718
Si 13.5917 2.06018 9.20915
Si 11.0709 2.12558 7.29205
Si 13.8385 6.57107 7.35653
O 10.6938 5.29988 10.0133
O 13.2055 0.787955 10.0864
O 12.2191 2.40217 8.4253
O 0.162534 6.61597 8.22699
O 11.5444 0.877059 6.43898
O 14.0839 5.5044 6.1925
O 11.0258 3.32739 6.22811
O 13.3785 7.97693 6.66754
O 12.6015 6.14672 8.28591
O 14.7643 1.77372 8.04024
O 11.8046 7.61091 10.2335
O 14.28 3.25991 10.0791
Si 14.9499 13.3176 5.57159
Si 2.54512 8.98496 5.40569
Si 0.894947 15.2458 9.16882
Si 3.39365 10.7406 9.19531
Si 1.0316 11.0497 7.21131
Si 3.42151 15.169 7.45638
O 0.660823 14.0964 10.2273
O 3.20488 9.40278 10.0384
O 2.09836 11.1475 8.35933
O 4.54854 15.4979 8.60006
O 1.46673 9.79887 6.32468
O 3.96346 13.9383 6.54602
O 0.893116 12.3029 6.34692
O 3.04836 16.4262 6.53647
O 1.96212 14.8156 8.10764
O 4.59451 10.4976 8.13307
O 1.61289 16.3707 10.0169
O 3.81366 11.8523 10.2719
Si 5.11493 13.2926 5.61854
Si 7.35812 8.63718 5.54193
Si 6.00154 15.0636 9.16393
Si 8.53781 10.9142 9.3636
Si 5.97338 10.8515 7.40779
Si 8.49445 15.389 7.41255
O 5.64443 13.7189 9.89583
O 8.41683 9.5901 10.2566
O 7.15023 11.0247 8.54948
O 9.4914 15.4801 8.5837
O 6.4428 9.7188 6.43743
O 9.05965 14.256 6.41873
O 5.82687 12.2542 6.53893
O 8.2954 16.7055 6.55944
O 7.04988 15.0167 7.9425
O 9.66204 10.7231 8.22493
O 6.63784 16.0282 10.251
O 9.09979 12.1263 10.3098
Si 9.88787 13.2791 5.44108
Si 12.5172 8.98666 5.78387
Si 10.9545 15.2583 9.29554
Si 13.6283 10.9153 9.14728
Si 10.9445 11.0845 7.37703
Si 13.3996 15.3836 7.35251
O 10.9001 13.9938 10.1828
O 13.392 9.56595 10.0677
O 12.1767 11.1494 8.51568
O 14.6007 15.6779 8.45497
O 11.4682 9.87668 6.42825
O 13.9792 13.9849 6.60266
O 10.763 12.4365 6.57706
O 13.331 16.3634 6.09443
O 12.083 15.1974 8.1283
O 14.6813 10.943 7.97781
O 11.3061 16.5543 10.2348
O 14.0456 12.1744 10.1548
Si 0.324933 4.08028 11.0186
Si 2.52472 17.1667 10.9942
Si 1.43541 6.61154 14.8939
Si 3.89249 2.05324 14.6039
Si 1.27419 1.83808 12.8711
Si 4.02964 6.50208 12.9875
O 1.1289 5.30036 15.8641
O 3.6542 0.988884 15.7714
O 2.4259 2.37107 13.914
O 5.12274 7.02214 13.9753
O 1.65053 0.471995 12.1731
O 4.3843 5.10075 12.2077
O 1.19743 2.97642 11.7083
O 3.79323 7.65532 11.8313
O 2.71544 6.33922 13.8897
O 4.89805 1.62909 13.4904
O 1.81479 7.8547 15.7415
O 4.61079 3.47047 15.1304
Si 5.05647 4.34205 11.0001
Si 7.62009 17.1341 10.9666
Si 6.5158 6.74912 14.7701
Si 8.63001 2.322 14.6609
Si 6.31219 2.09012 12.7093
Si 9.06662 6.47824 12.9059
O 6.17677 5.60003 15.7655
O 8.54785 1.03314 15.6175
O 7.26117 2.68002 13.876
O 10.242 6.8258 13.8439
O 6.86038 0.69492 12.0344
O 9.34773 5.06279 12.1839
O 6.0638 3.19555 11.5659
O 8.63254 7.57276 11.8369
O 7.73469 6.28709 13.7693
O 9.79783 2.04576 13.57
O 6.99219 8.07436 15.5392
O 9.1933 3.49457 15.5906
Si 10.0386 4.24385 10.986
Si 12.3655 17.2573 11.202
Si 11.5985 6.58471 14.6398
Si 13.81 2.34213 14.6566
Si 11.2167 2.14114 12.9322
Si 14.1261 6.38557 12.8783
O 11.1406 5.36182 15.5945
O 13.5845 1.15212 15.6363
O 12.3638 2.5705 13.9958
O 0.056621 6.70444 14.0506
O 11.7971 0.774385 12.2794
O 14.6722 5.06483 12.0821
O 11.1571 3.3475 11.7581
O 13.6845 7.47504 11.7901
O 12.7118 6.25965 13.617
O 14.8616 1.89791 13.5624
O 12.0712 7.83051 15.5121
O 14.4192 3.47903 15.6512
Si 15.0137 13.0302 11.1144
Si 2.63966 8.37525 11.1472
Si 1.24175 15.3081 14.7167
Si 3.74132 10.9349 14.6959
Si 1.25966 10.7237 12.8195
Si 3.72725 14.8956 12.7493
O 0.901464 14.2625 15.9109
O 3.32446 9.89254 15.8262
O 2.28905 11.1741 13.9763
O 4.80975 15.3928 13.8225
O 1.84651 9.35252 12.2005
O 4.30394 13.6007 12.0553
O 0.922713 11.8926 11.7852
O 3.34052 16.016 11.6918
O 2.33728 14.7336 13.6063
O 4.81418 10.3815 13.6206
O 1.83057 16.6013 15.5266
O 4.43129 12.2689 15.299
Si 5.008 12.6922 10.9667
Si 7.644 8.5681 11.1191
Si 6.15997 15.2908 14.6134
Si 8.86401 10.9955 14.5584
Si 6.2936 10.6689 12.8243
Si 8.73799 14.988 12.9417
O 5.97737 14.2956 15.809
O 8.65757 9.9166 15.7427
O 7.54243 11.1757 13.7301
O 9.8372 15.3666 14.0649
O 6.73669 9.26818 12.154
O 9.25484 13.7395 12.2574
O 6.05999 11.7681 11.7087
O 8.54998 16.0984 11.827
O 7.3229 14.8164 13.6606
O 9.9971 10.4042 13.5698
O 6.68416 16.768 15.1992
O 9.46264 12.2828 15.3651
Si 10.1729 12.9362 11.1285
Si 12.7777 8.48637 11.0954
Si 11.2019 15.3732 14.8568
Si 13.8877 10.9219 14.7827
Si 11.4601 10.7718 12.912
Si 13.6648 15.0527 13.0349
O 10.9666 14.3891 16.1269
O 13.5381 9.98158 16.0126
O 12.4864 11.1154 14.1102
O 14.8724 15.5974 14.0278
O 11.9812 9.45969 12.1133
O 14.2673 13.7063 12.355
O 11.1143 11.8987 11.8322
O 13.3012 16.2598 11.9684
O 12.3068 14.7655 13.9372
O 14.95 10.3917 13.7083
O 11.6742 16.7045 15.5082
O 14.3641 12.3871 15.2887
324
 Atoms. Timestep: 4500
Si 0.0817548 4.38301 -0.0562421
Si 2.64294 17.4214 16.5608
Si 1.40858 6.57526 3.54555
Si 3.79967 2.2868 3.67617
Si 1.27907 2.11736 1.81729
Si 3.93283 6.22994 1.74103
O 1.0114 5.39335 4.5093
O 3.40722 1.16928 4.7217
O 2.49967 2.4641 2.77278
O 5.20974 6.61476 2.61889
O 1.62319 0.695493 1.03242
O 4.33512 4.88607 1.07049
O 0.935588 3.3182 0.815141
O 3.53835 7.32086 0.507274
O 2.63273 6.16702 2.61807
O 5.02852 1.84022 2.80088
O 1.82585 7.91309 4.3832
O 4.25427 3.66701 4.45993
Si 5.16529 4.22367 16.463
Si 7.59781 0.0047653 16.4493
Si 6.54147 6.62945 3.54789
Si 8.9406 2.20933 3.57689
Si 6.30308 2.00111 1.82263
Si 9.13639 6.506 1.93992
O 6.22759 5.34477 4.58371
O 8.67071 1.18726 4.80287
O 7.63519 2.43539 2.65568
O 10.2944 6.91754 2.87256
O 6.56375 0.714908 0.950321
O 9.5878 5.25348 0.975685
O 5.90979 3.10073 0.724811
O 8.80503 7.75639 0.899246
O 7.82561 6.28165 2.79191
O 10.0382 1.60938 2.59482
O 6.81294 7.95117 4.36175
O 9.50036 3.50077 4.20288
Si 10.2706 4.23014 16.4835
Si 12.7336 17.3007 16.5552
Si 11.6003 6.68275 3.7534
Si 13.8432 2.23357 3.80501
Si 11.4623 1.98756 1.92676
Si 14.0366 6.52565 1.68979
O 11.2271 5.37775 4.70013
O 13.6029 1.03824 4.78291
O 12.3976 2.46369 3.04916
O 0.248033 6.94399 2.54538
O 11.9157 0.588457 1.25219
O 14.1982 5.1802 0.903314
O 11.089 3.07738 0.766062
O 13.6401 7.71129 0.626578
O 12.8711 6.43206 2.72539
O -0.0755177 2.02442 2.73488
O 11.8987 7.95286 4.59704
O 14.3061 3.59345 4.54961
Si -0.00788114 12.9037 16.4883
Si 2.78875 8.65965 -0.00363383
Si 0.992753 15.4974 3.58813
Si 3.72159 11.2687 3.74169
Si 1.36474 10.8031 1.74969
Si 3.65567 15.3181 2.03041
O 0.762552 14.4427 4.80137
O 3.30369 10.0062 4.66802
O 2.48475 11.422 2.76125
O 4.61983 15.8352 3.27041
O 2.0338 9.45542 1.20786
O 4.37317 13.9732 1.48547
O 0.955448 11.8237 0.623223
O 3.61286 16.4522 0.914365
O 2.18572 14.9976 2.59261
O 4.92717 10.7965 2.75044
O 1.46015 16.8359 4.29703
O 4.22131 12.4952 4.55362
Si 5.12513 13.155 0.178156
Si 7.78795 8.71105 0.239355
Si 6.07963 15.5485 3.79851
Si 8.93284 10.9408 3.72504
Si 6.40744 10.9491 2.00428
Si 8.64165 15.2228 1.87672
O 5.93649 14.4228 4.86676
O 8.68251 9.78692 4.73561
O 7.64438 11.2755 2.93069
O 9.78142 15.5413 3.04308
O 6.8061 9.62066 1.25866
O 9.16581 13.8964 1.17351
O 6.21336 12.2548 0.960655
O 8.50582 16.4258 0.799461
O 7.18203 15.1969 2.59507
O 10.179 10.6642 2.817
O 6.67706 16.9404 4.358
O 9.25686 12.2719 4.60836
Si 10.0941 13.1359 0.0863014
Si 12.5626 8.74366 -0.102275
Si 11.2762 15.2406 3.68796
Si 14.0186 11.0088 3.60805
Si 11.4158 10.9295 1.84353
Si 13.7112 14.9468 1.77836
O 11.0736 14.0679 4.6811
O 13.6253 9.97109 4.75468
O 12.6198 11.3546 2.71658
O 14.6985 15.5099 2.8589
O 11.764 9.67414 0.905004
O 14.2408 13.6316 1.09897
O 10.9863 12.0963 0.806501
O 13.6427 16.1421 0.58277
O 12.2675 14.8901 2.47873
O -0.000573857 10.5211 2.47964
O 11.8886 16.5122 4.44508
O 14.4198 12.3222 4.33538
Si 0.105339 4.52372 5.50722
Si 2.40286 0.176872 5.37176
Si 1.26952 6.44998 9.17511
Si 3.59386 2.20459 9.28101
Si 1.07117 2.25702 7.29756
Si 3.74381 6.70104 7.24124
O 1.04417 5.03208 9.83917
O 3.38283 0.90172 10.2129
O 2.22097 2.28938 8.4555
O 4.98968 6.81429 8.33097
O 1.49996 1.13441 6.3327
O 4.27366 5.67797 6.18668
O 0.948266 3.59424 6.51023
O 3.55489 8.02396 6.38
O 2.35625 6.37298 7.98541
O 4.71061 1.79764 8.17308
O 1.85712 7.51319 10.2057
O 4.07693 3.49317 10.1263
Si 5.12833 4.61267 5.42623
Si 7.45783 0.289683 5.45457
Si 6.30915 6.50922 9.1968
Si 8.62609 1.93387 9.26683
Si 6.02196 2.35712 7.45996
Si 8.73801 6.44902 7.14105
O 5.8607 5.3164 10.219
O 8.30172 0.728187 10.2801
O 7.27835 2.33136 8.46884
O 9.98281 6.76108 8.06296
O 6.44645 1.30473 6.28331
O 9.21831 5.17674 6.298
O 5.74751 3.74008 6.69743
O 8.43186 7.68911 6.22053
O 7.46883 6.11635 8.10247
O 9.63854 1.66413 8.00405
O 6.90501 7.72571 10.0274
O 9.14494 3.17499 10.1094
Si 10.2288 4.33548 5.35311
Si 12.6415 17.3675 5.61145
Si 11.1489 6.37592 8.98875
Si 13.6168 2.17133 9.14421
Si 11.0325 2.02868 7.34003
Si 13.8114 6.67599 7.40724
O 10.8079 4.99573 9.87116
O 13.6012 0.832253 10.0528
O 12.155 2.3974 8.46705
O -0.173358 6.95149 8.61894
O 11.6008 0.732402 6.54351
O 14.4422 5.54534 6.45082
O 10.9678 3.25186 6.30542
O 13.4292 8.03655 6.63773
O 12.4852 6.16249 8.08431
O 14.7045 2.03386 7.95783
O 11.6238 7.47748 10.0201
O 14.1432 3.42237 10.1037
Si 0.0652523 13.1885 5.48464
Si 2.5417 8.80714 5.41524
Si 0.987817 15.2242 9.34425
Si 3.64143 10.6824 9.25344
Si 1.04927 10.8967 7.33047
Si 3.34228 15.2875 7.39747
O 0.960077 14.006 10.392
O 3.49447 9.37381 10.0062
O 2.24396 10.8959 8.42783
O 4.5191 15.6796 8.47979
O 1.48941 9.64479 6.33922
O 4.12173 14.007 6.66627
O 0.922832 12.1949 6.36534
O 3.06841 16.3293 6.22739
O 2.02493 14.9207 8.13025
O 4.73898 10.6587 8.03545
O 1.50765 16.6142 10.0349
O 4.20467 11.8829 10.1516
Si 5.15878 13.2635 5.61653
Si 7.64426 8.83368 5.49952
Si 5.91805 15.2531 9.23445
Si 8.57679 11.0984 9.18597
Si 6.10695 10.841 7.26918
Si 8.48482 15.4002 7.46777
O 5.68423 14.0224 10.3559
O 8.28834 9.86013 10.1575
O 7.23864 11.1593 8.31697
O 9.65878 15.587 8.57274
O 6.6598 9.61695 6.33033
O 9.05201 14.2997 6.37973
O 6.0148 12.1379 6.34921
O 8.03188 16.6878 6.5853
O 7.11608 14.9461 8.27509
O 9.8069 10.8774 8.24741
O 6.34992 16.5152 10.1689
O 8.94372 12.403 9.93922
Si 10.0493 13.2889 5.59869
Si 12.6125 9.05091 5.5961
Si 11.0595 15.2611 9.253
Si 13.6955 10.928 9.28384
Si 11.2412 11.1617 7.58603
Si 13.5275 14.9586 7.41183
O 10.8313 14.1636 10.382
O 13.3111 9.63479 10.0542
O 12.2891 11.3952 8.68545
O 14.553 15.2159 8.68737
O 11.7145 9.98095 6.56312
O 14.061 13.742 6.5789
O 10.9195 12.4173 6.64942
O 13.3767 16.3453 6.58379
O 12.0392 14.8104 8.11755
O 14.7192 10.7152 8.01724
O 11.7574 16.4869 9.98517
O 14.3942 11.9571 10.3225
Si 0.171133 4.21347 10.9081
Si 2.52634 17.2622 11.1084
Si 1.43198 6.75276 14.766
Si 3.66058 2.19669 14.5945
Si 1.18725 2.11802 12.9573
Si 4.04881 6.4261 13.0606
O 1.01397 5.44921 15.6003
O 3.4354 1.15057 15.77
O 2.29597 2.66156 13.9578
O 5.43197 6.83891 13.8002
O 1.76283 0.805991 12.2567
O 4.37783 5.12921 12.2828
O 1.10994 3.22093 11.6725
O 3.64233 7.5492 12.0422
O 2.78694 6.33553 13.9618
O 4.75602 1.71201 13.4668
O 1.68689 8.08676 15.603
O 4.32013 3.45164 15.364
Si 5.06604 4.26039 11.1079
Si 7.41598 17.1824 11.14
Si 6.58861 6.58455 14.8454
Si 8.75974 2.24661 14.7287
Si 6.20155 2.01686 12.9168
Si 8.94393 6.43708 12.718
O 6.07035 5.29321 15.7361
O 8.48442 1.10435 15.7875
O 7.30012 2.41424 14.018
O 10.2601 6.62257 13.5481
O 6.77807 0.624557 12.3428
O 9.09639 5.12449 11.876
O 6.03693 3.135 11.7306
O 8.58105 7.68806 11.8148
O 7.80384 6.21334 13.9132
O 9.942 1.83652 13.7484
O 6.89935 7.74931 15.8549
O 9.25823 3.51102 15.5423
Si 9.95359 4.18267 10.9688
Si 12.7047 17.3422 10.9847
Si 11.5368 6.41395 14.596
Si 13.7824 2.18414 14.6758
Si 11.2724 2.05739 12.8527
Si 14.1484 6.53786 12.775
O 11.1794 5.21998 15.6236
O 13.4448 1.01912 15.7365
O 12.4323 2.52422 13.9081
O 0.234912 7.02898 13.6903
O 11.8399 0.822723 12.0434
O 14.6206 5.26616 11.9006
O 10.9342 3.29614 11.946
O 13.6478 7.62121 11.7174
O 12.8303 6.16422 13.6676
O 14.8726 1.82678 13.6281
O 11.6289 7.75568 15.5154
O 14.3295 3.50788 15.4251
Si 0.0789489 13.018 11.2548
Si 2.69481 8.54953 11.0864
Si 1.18002 15.2116 14.7806
Si 3.83602 11.0112 14.8941
Si 1.36521 10.7772 12.9175
Si 3.70737 15.0494 12.8639
O 0.870647 14.0025 15.828
O 3.69493 9.71914 15.8797
O 2.56294 11.0616 14.0311
O 4.76438 15.4787 13.93
O 1.87361 9.56141 12.0017
O 4.12541 13.603 12.2582
O 0.973989 12.0477 12.0875
O 3.44649 16.1659 11.7387
O 2.23358 14.9046 13.5949
O 5.10929 10.7574 13.9775
O 1.81838 16.4364 15.5442
O 4.18208 12.3105 15.8502
Si 4.99308 12.8267 11.1335
Si 7.58863 8.66694 11.0214
Si 6.19888 15.3475 14.6324
Si 8.82885 10.9771 14.8156
Si 6.3222 10.6617 12.9345
Si 8.64568 14.9691 12.9099
O 5.7607 14.3359 15.9076
O 8.43907 9.85567 15.8325
O 7.65485 11.0987 13.7414
O 9.73152 15.4742 13.9685
O 6.57837 9.34188 12.1086
O 9.15112 13.614 12.2153
O 6.04386 11.8353 11.8717
O 8.3436 16.0609 11.7122
O 7.2656 14.754 13.6535
O 10.2361 10.675 13.8657
O 6.80493 16.6083 15.307
O 9.20448 12.3968 15.5057
Si 10.0021 12.9463 11.0224
Si 12.595 8.49179 10.9185
Si 11.0761 15.4104 14.8034
Si 13.7628 10.9727 14.4593
Si 11.3115 10.7202 12.7273
Si 13.7135 15.166 12.9018
O 10.9134 14.2101 15.8077
O 13.3014 9.74927 15.4542
O 12.6453 11.2087 13.3833
O 14.8514 15.5412 13.9917
O 11.6405 9.31476 11.9619
O 14.1838 13.8346 12.2259
O 10.8108 11.8042 11.6619
O 13.503 16.2755 11.8403
O 12.323 15.1278 13.6597
O 14.9827 10.5032 13.564
O 11.6846 16.6743 15.6019
O 14.2376 12.2023 15.3221
324
 Atoms. Timestep: 5000
Si 14.9347 4.54877 16.4418
Si 2.21164 0.152452 0.0316695
Si 1.40291 6.699 3.56661
Si 3.71558 2.40245 3.69772
Si 1.15263 2.45803 1.87385
Si 4.01904 6.36731 1.8436
O 0.92343 5.57686 4.59289
O 3.32435 1.21019 4.62214
O 2.46011 2.85799 2.83275
O 5.19562 6.82719 2.77419
O 1.55393 1.16936 1.10221
O 4.47176 4.9447 1.16755
O 0.928678 3.63946 0.816273
O 3.80061 7.42798 0.614841
O 2.58506 6.27456 2.58442
O 4.92929 1.83214 2.83862
O 1.91003 7.96604 4.40572
O 4.35098 3.73431 4.44624
Si 5.26087 4.03913 0.0325768
Si 7.5997 17.3141 0.164703
Si 6.51063 6.53925 3.65942
Si 8.83922 2.20125 3.56044
Si 6.26828 1.91205 2.06099
Si 8.94398 6.31664 1.82677
O 6.1551 5.5511 4.84353
O 8.56577 1.15282 4.75257
O 7.4055 2.57446 2.94018
O 10.1362 6.5757 2.8856
O 6.88386 0.573498 1.40059
O 9.56995 5.23944 0.875508
O 6.06743 2.97264 0.831119
O 8.5609 7.65862 1.01383
O 7.64299 5.89946 2.60949
O 9.90137 1.79245 2.46827
O 7.27188 7.85117 4.19115
O 9.42914 3.56765 4.22438
Si 10.3534 4.20213 16.483
Si 12.8419 17.289 16.4658
Si 11.3836 6.64092 3.87723
Si 13.7086 2.36126 3.79582
Si 11.3233 1.92279 1.74726
Si 13.7942 6.64647 1.90858
O 11.1592 5.50634 4.9447
O 13.693 1.20224 4.86934
O 12.4437 2.27042 2.91089
O 0.0500552 7.0459 2.69197
O 11.9219 0.644839 0.89444
O 14.1424 5.43129 0.974633
O 11.1879 3.22967 0.861866
O 13.183 7.83397 1.02154
O 12.6939 6.32898 3.01836
O 15.0282 2.22337 2.78635
O 11.5662 8.11003 4.64347
O 14.0891 3.69206 4.59041
Si 15.033 12.8346 16.4995
Si 2.9467 8.59759 16.4747
Si 1.10324 15.3704 3.73449
Si 3.75598 11.1043 3.7187
Si 1.4883 10.6767 1.68743
Si 3.61274 15.3859 1.88964
O 0.846627 14.2059 4.84267
O 3.31454 10.0466 4.8068
O 2.53494 11.3211 2.66475
O 4.95885 15.6785 2.69048
O 2.05159 9.4174 0.931067
O 4.00027 14.1361 0.960888
O 0.996151 11.8016 0.597737
O 3.18561 16.5342 0.889813
O 2.36512 15.0943 2.8785
O 4.94718 10.4081 2.8586
O 1.42895 16.8893 4.39109
O 4.22651 12.4747 4.3524
Si 5.03062 13.1453 0.221162
Si 7.69133 8.70303 0.0999283
Si 6.26081 15.4195 3.56104
Si 8.87341 11.138 3.74619
Si 6.30988 10.7764 2.04169
Si 8.76991 15.0546 1.91517
O 5.84117 14.4209 4.77368
O 8.67963 9.97204 4.81348
O 7.42405 11.2379 3.0334
O 9.8968 15.5024 2.9322
O 6.87651 9.60512 1.11255
O 9.33285 13.7007 1.25128
O 5.72412 12.0673 1.24403
O 8.53342 16.1614 0.772101
O 7.40721 14.8636 2.61934
O 10.1118 10.837 2.6996
O 6.8034 16.681 4.40533
O 9.27734 12.561 4.42711
Si 10.2115 13.1712 0.0253265
Si 12.3069 8.62116 16.4576
Si 11.3046 15.3157 3.72822
Si 13.9558 10.9002 3.67208
Si 11.4108 10.9877 1.81046
Si 13.7649 14.9531 1.87967
O 11.0435 14.2801 4.91031
O 13.5436 9.76061 4.68721
O 12.766 11.1377 2.72874
O 14.8299 15.4436 2.86881
O 11.6817 9.69811 0.872614
O 14.21 13.615 1.0936
O 11.1806 12.0801 0.669013
O 13.5612 16.0895 0.766015
O 12.4731 14.7819 2.77123
O 0.155196 10.5049 2.74588
O 11.8902 16.6534 4.34035
O 14.233 12.2668 4.47608
Si 0.0488928 4.50497 5.50677
Si 2.46742 0.217672 5.39027
Si 1.12942 6.70674 9.39014
Si 3.41772 2.28114 9.20169
Si 1.01355 2.19426 7.30193
Si 3.646 6.63175 7.38743
O 0.939729 5.4414 10.3145
O 3.32688 1.04253 10.171
O 1.98647 2.64989 8.51136
O 4.7985 6.73533 8.48649
O 1.73542 0.93813 6.62326
O 4.04064 5.35463 6.45813
O 0.98011 3.3363 6.15162
O 3.58304 7.9689 6.48077
O 2.22994 6.45788 8.15491
O 4.58899 1.97228 8.04845
O 1.63961 8.01026 10.1801
O 4.08417 3.35824 10.0746
Si 5.1559 4.56212 5.58627
Si 7.57571 0.143502 5.53249
Si 6.16153 6.38209 9.23001
Si 8.6091 2.06919 9.07686
Si 6.04366 2.19467 7.40697
Si 8.69718 6.36584 7.19351
O 6.11366 5.00847 10.0324
O 8.45444 1.02474 10.2218
O 7.20789 2.34986 8.4858
O 9.83057 6.59044 8.28624
O 6.56976 1.0498 6.35898
O 9.09223 5.10531 6.34604
O 5.85471 3.52325 6.51697
O 8.54696 7.71734 6.35044
O 7.27279 6.20059 8.05001
O 9.67835 1.65294 7.90681
O 6.63887 7.55193 10.1706
O 9.33626 3.32323 9.81705
Si 10.1295 4.26559 5.45978
Si 12.7672 -0.0174285 5.36744
Si 11.2331 6.5053 9.05072
Si 13.5798 2.35706 9.11659
Si 11.0968 1.9284 7.28006
Si 13.7893 6.54562 7.50264
O 11.1132 5.30928 10.1276
O 13.4715 1.21848 10.2997
O 12.093 2.36864 8.45517
O 14.758 6.94071 8.68863
O 11.8325 0.686149 6.53301
O 14.5333 5.35168 6.7514
O 10.9947 3.16316 6.2479
O 13.5702 7.72219 6.32884
O 12.3354 6.21778 7.9535
O 14.6127 1.90329 7.97722
O 11.6158 7.80153 9.89939
O 14.0745 3.70965 9.77168
Si 0.0453736 13.0874 5.58318
Si 2.60681 8.87978 5.60881
Si 1.10534 15.2883 9.12487
Si 3.80115 10.8949 9.16161
Si 1.07613 10.7529 7.46622
Si 3.60934 15.3288 7.18699
O 1.02671 14.1219 10.2289
O 3.72279 9.55366 10.0862
O 2.33001 11.1205 8.49281
O 4.69058 15.7496 8.19048
O 1.49061 9.47335 6.63822
O 4.09539 13.8986 6.59253
O 0.831248 11.9217 6.26408
O 3.27387 16.4025 6.05212
O 2.21313 15.0847 7.98678
O 4.97529 10.7068 8.13568
O 1.60605 16.4459 10.0543
O 4.08023 12.0388 10.2391
Si 5.0266 13.2429 5.4625
Si 7.81141 8.8019 5.44449
Si 5.98444 15.4174 9.10491
Si 8.71269 10.8201 9.20034
Si 6.23243 10.8421 7.11507
Si 8.54196 15.2992 7.39405
O 5.54987 14.2444 10.1726
O 8.32817 9.61118 10.22
O 7.59262 11.1835 7.98476
O 9.80572 15.4326 8.44264
O 6.60876 9.58069 6.19408
O 9.02428 14.0017 6.56751
O 5.96491 12.081 6.21979
O 8.42506 16.5587 6.44056
O 7.22782 15.0895 8.17339
O 10.0335 10.4335 8.3317
O 6.56134 16.7502 9.93434
O 9.13142 12.133 10.0105
Si 10.0881 13.2485 5.63843
Si 12.6932 8.82235 5.58693
Si 11.1554 15.3652 9.20818
Si 13.6968 11.0194 9.39819
Si 11.3096 10.952 7.49975
Si 13.6528 15.1146 7.33867
O 10.9436 14.086 10.2804
O 13.4137 9.74123 10.3769
O 12.3711 11.3893 8.59612
O 14.802 15.4951 8.38025
O 11.9398 9.75917 6.71051
O 14.0885 13.7904 6.65967
O 10.9214 12.1799 6.45974
O 13.5567 16.2409 6.15906
O 12.3036 14.9514 8.11643
O 14.7641 10.6756 8.24992
O 11.8152 16.6783 9.77117
O 14.2805 12.2217 10.2307
Si 14.977 4.31928 10.9136
Si 2.54504 17.3362 10.995
Si 1.46512 6.54479 14.5164
Si 3.57976 2.19516 14.6185
Si 1.13225 2.10055 12.6977
Si 4.01753 6.34875 12.8942
O 0.642991 5.62154 15.5458
O 3.00037 1.07362 15.5486
O 2.417 2.51252 13.5649
O 5.38309 6.66022 13.7562
O 1.55144 0.658442 12.0024
O 4.24302 5.17831 11.8545
O 0.869306 3.13899 11.563
O 3.60788 7.64957 11.9011
O 2.71914 5.96104 13.8469
O 4.83819 1.73386 13.7088
O 2.18649 7.82558 15.2093
O 4.23323 3.35223 15.453
Si 5.14052 4.17088 11.0045
Si 7.54725 17.4305 11.0351
Si 6.54445 6.39008 14.8637
Si 8.7597 2.15754 14.8287
Si 6.2059 2.04016 12.9912
Si 8.96096 6.36774 12.8311
O 6.09378 5.09765 15.7049
O 8.51562 0.907149 15.8931
O 7.39738 2.35573 14.0476
O 10.4282 6.39375 13.5723
O 6.8118 0.823186 12.1574
O 9.08432 5.15332 11.7183
O 5.96109 3.27397 11.9895
O 8.43014 7.64391 12.0787
O 7.83967 6.07819 13.939
O 9.78406 1.62876 13.7111
O 6.83476 7.68827 15.7402
O 9.41171 3.37947 15.5331
Si 10.1468 4.24959 10.8896
Si 12.6273 0.0062217 10.9229
Si 11.5817 6.31217 14.6056
Si 13.7735 2.20419 14.6612
Si 11.1641 2.03942 12.9337
Si 14.0899 6.52197 12.8099
O 11.3576 5.00631 15.5061
O 13.6907 0.998767 15.6905
O 12.3514 2.43888 13.9594
O 0.369095 7.00182 13.4869
O 11.66 0.825991 12.0461
O 14.3868 5.05401 12.206
O 10.8868 3.29992 11.9518
O 13.477 7.51142 11.7916
O 13.0056 6.40358 13.8825
O 15.0155 1.93312 13.6307
O 11.4506 7.63434 15.5722
O 14.2221 3.4921 15.5727
Si 0.165792 13.0779 11.1713
Si 2.7872 8.70187 11.0172
Si 0.919119 15.2851 14.8503
Si 3.982 10.9941 14.9802
Si 1.47545 10.7813 13
Si 3.62844 15.1686 12.9701
O 0.742087 13.9699 15.6453
O 3.87381 9.74894 15.8171
O 2.66355 11.2375 13.9491
O 4.83504 15.3787 14.0082
O 1.98299 9.66897 12.0119
O 4.00494 13.8399 12.2463
O 1.02551 12.0047 12.0221
O 3.42059 16.3681 11.9097
O 2.13887 15.0688 13.7162
O 5.22078 10.8485 13.8437
O 1.26943 16.5211 15.8076
O 4.12734 12.3062 15.7676
Si 4.86103 13.1038 11.1454
Si 7.51734 8.57824 11.1829
Si 6.10728 15.2904 14.916
Si 8.94636 11.0753 14.7784
Si 6.44581 10.95 12.8218
Si 8.5452 15.153 12.8614
O 6.05938 14.1089 16.0082
O 8.47691 9.84797 15.7693
O 7.85828 11.1701 13.5537
O 9.80307 15.5846 13.8304
O 6.56796 9.5967 12.0295
O 9.0927 13.8823 11.9922
O 6.04739 12.2433 11.8585
O 8.44797 16.3251 11.7902
O 7.22431 14.9975 13.7407
O 10.2324 10.8406 13.9408
O 6.49566 16.5864 15.7097
O 9.15392 12.3652 15.6768
Si 10.0083 13.0517 11.0467
Si 12.47 8.54507 11.0665
Si 11.2047 15.3757 14.6752
Si 13.8641 10.7134 14.5954
Si 11.3298 10.7735 12.7279
Si 13.6111 15.1365 12.836
O 10.9334 14.2868 15.824
O 13.3176 9.49803 15.5246
O 12.7828 10.9285 13.3969
O 14.6663 15.5719 14.0595
O 11.5106 9.33107 11.9952
O 14.3451 13.8572 12.1997
O 11.0137 11.9415 11.7133
O 13.41 16.2769 11.7724
O 12.233 14.8364 13.5645
O 0.199367 10.4142 13.7855
O 11.8867 16.5717 15.3903
O 14.097 11.9022 15.6135
324
 Atoms. Timestep: 5500
Si 14.9995 4.47554 16.4681
Si 2.36925 0.125953 0.0748873
Si 1.30942 6.48606 3.74258
Si 3.64142 2.29866 3.76128
Si 1.11581 2.32057 1.85537
Si 3.78895 6.48521 1.80172
O 1.17213 5.29876 4.85358
O 3.32806 1.08685 4.74641
O 2.25905 2.65941 2.91592
O 5.03608 6.94674 2.84761
O 1.45448 1.00641 1.02726
O 4.38868 5.20079 1.08429
O 0.846871 3.58104 0.817808
O 3.53982 7.57008 0.699698
O 2.55433 6.17861 2.74114
O 4.83875 1.7333 2.74684
O 1.66263 7.78742 4.59858
O 4.20022 3.51881 4.53533
Si 5.08679 4.28213 0.014176
Si 7.66399 17.2028 -0.0210802
Si 6.31618 6.65527 3.76251
Si 8.68167 2.40407 3.78019
Si 6.12596 1.97088 1.95632
Si 8.80979 6.62651 1.90219
O 5.98754 5.46062 4.72235
O 8.64953 1.17907 4.83801
O 7.33386 2.36526 2.96788
O 9.94217 7.09531 2.93509
O 6.72763 0.722835 1.03415
O 9.41384 5.42456 0.970925
O 5.86263 3.1598 0.912676
O 8.41162 7.8299 0.967794
O 7.52537 6.13948 2.77887
O 9.87804 2.16653 2.78276
O 6.91748 7.98322 4.53102
O 9.00655 3.76613 4.49695
Si 9.96769 4.33872 0.0128859
Si 12.4912 17.4152 0.0071343
Si 11.2702 6.75559 3.68047
Si 13.7663 2.43512 3.69422
Si 11.1762 2.12713 1.88052
Si 13.8195 6.58728 1.92626
O 10.9619 5.54649 4.81121
O 13.6628 1.16066 4.77518
O 12.3685 2.42353 2.87873
O 0.0100389 6.62465 2.94167
O 11.5614 0.817492 0.996986
O 14.0164 5.28949 0.868684
O 10.9046 3.28032 0.850681
O 13.5916 7.83207 0.969626
O 12.4659 6.30207 2.78041
O 14.7905 2.20576 2.60199
O 11.7924 8.16164 4.33107
O 14.0592 3.76041 4.56735
Si 15.2368 12.9466 0.0943572
Si 2.6549 8.65217 16.4692
Si 1.20388 15.3083 3.65024
Si 3.83057 10.8492 3.71915
Si 1.35806 10.753 1.87933
Si 3.7292 15.3422 1.91268
O 0.990275 14.0669 4.61417
O 3.42727 9.68824 4.74226
O 2.50707 11.0434 2.9364
O 4.95904 15.6328 2.87962
O 1.79591 9.49185 0.897992
O 4.21767 14.1991 0.884202
O 1.123 12.0404 0.935846
O 3.24612 16.6778 1.14366
O 2.41608 14.9551 2.69822
O 4.91173 10.3297 2.64699
O 1.65979 16.4822 4.61795
O 4.48974 12.1954 4.39438
Si 5.0896 13.1698 0.122507
Si 7.54983 8.63855 16.498
Si 6.3812 15.406 3.63779
Si 8.79968 11.0794 3.67793
Si 6.2352 10.7775 1.92731
Si 8.86843 15.062 1.91853
O 6.09321 14.3096 4.85371
O 8.62102 9.86203 4.72788
O 7.43763 11.1187 2.88616
O 10.035 15.6057 2.90878
O 6.76653 9.67212 0.870568
O 9.33774 13.8083 1.02243
O 5.83662 12.1898 1.23186
O 8.49685 16.2156 0.887528
O 7.41676 14.8109 2.68027
O 10.0596 10.8047 2.68365
O 6.93319 16.7136 4.35414
O 9.19069 12.396 4.51086
Si 10.2272 12.9964 -0.0263175
Si 12.6183 8.58796 -0.00220312
Si 11.3317 15.3745 3.75292
Si 13.924 10.791 3.65156
Si 11.491 10.8494 1.81557
Si 13.7743 15.1051 1.81814
O 11.0169 14.3605 4.9596
O 13.7262 9.67679 4.75519
O 12.5805 11.0143 2.86763
O 15.0088 15.5487 2.79727
O 11.7352 9.50404 0.972432
O 14.2922 13.8212 1.01054
O 11.2553 12.0122 0.750992
O 13.3643 16.3213 0.88406
O 12.4306 14.8232 2.73788
O 0.0136655 10.459 2.62195
O 11.8665 16.7262 4.42611
O 14.4736 12.1286 4.44006
Si 0.141259 4.3306 5.57435
Si 2.5263 -0.0483761 5.57698
Si 1.14832 6.74774 9.16541
Si 3.69787 2.14572 9.13774
Si 1.17968 2.06102 7.41754
Si 3.64428 6.39776 7.43937
O 0.788056 5.51625 10.2032
O 3.23072 0.962637 10.0685
O 2.36483 2.5788 8.36557
O 4.65556 6.84715 8.59142
O 1.7233 0.640439 6.80306
O 4.24425 5.27778 6.50669
O 0.904199 3.06644 6.15689
O 3.51649 7.69006 6.42524
O 2.23537 6.23198 8.10341
O 4.76773 1.70658 8.02295
O 1.81834 7.97616 9.87631
O 4.39088 3.35024 9.90277
Si 5.10716 4.35352 5.51649
Si 7.72758 0.045818 5.53455
Si 6.17839 6.71359 9.20169
Si 8.68152 2.32064 9.25116
Si 6.228 2.02174 7.31087
Si 8.64329 6.4781 7.43779
O 6.18668 5.35349 10.1089
O 8.41488 1.18746 10.3912
O 7.26125 2.49441 8.39964
O 9.79329 6.54876 8.54849
O 6.81056 0.713675 6.6156
O 9.09015 5.08515 6.74294
O 5.94065 3.19177 6.22372
O 8.77481 7.59239 6.26768
O 7.20904 6.56087 8.00061
O 9.74864 1.92053 8.14845
O 6.63908 7.94328 10.0825
O 9.22296 3.55669 9.97876
Si 9.97856 4.53006 5.5485
Si 12.7319 0.168498 5.48906
Si 11.2307 6.48371 9.21134
Si 13.6124 2.26178 9.14921
Si 11.1568 2.11379 7.3085
Si 13.776 6.4319 7.37539
O 11.109 5.30807 10.2893
O 13.2865 1.0729 10.1552
O 12.3135 2.51205 8.40718
O 14.8941 7.05579 8.38814
O 11.7378 0.884128 6.52295
O 14.4864 5.10396 6.75829
O 10.8478 3.35318 6.26878
O 13.4695 7.41588 6.22587
O 12.4002 6.22844 8.21327
O 14.9348 2.06829 8.22286
O 11.6161 7.90113 9.91725
O 13.9608 3.52836 10.0142
Si 0.126429 13.045 5.46889
Si 2.55373 8.65505 5.61008
Si 1.18576 15.1111 9.13236
Si 3.93231 11.0377 9.17977
Si 1.24876 10.8642 7.40482
Si 3.74352 15.1724 7.24983
O 0.985185 13.7477 9.98433
O 3.79738 9.88763 10.3336
O 2.50483 11.0309 8.43722
O 4.83054 15.5963 8.44261
O 1.72752 9.55217 6.62042
O 4.15454 13.8047 6.40066
O 1.05669 11.9711 6.33511
O 3.58592 16.3241 6.16384
O 2.35054 14.9749 8.05048
O 5.12441 10.7302 8.20943
O 1.60501 16.2579 10.1521
O 4.34364 12.4087 9.85331
Si 5.21796 13.1097 5.44444
Si 7.94893 8.7221 5.49789
Si 6.19633 15.3958 9.22018
Si 8.9004 10.8159 9.17501
Si 6.44792 10.7961 7.37543
Si 8.69179 15.1851 7.33539
O 5.89423 14.3621 10.3331
O 8.76359 9.44665 10.0644
O 7.57862 11.0361 8.45574
O 9.681 15.6291 8.47206
O 7.03156 9.50942 6.65049
O 9.1886 13.8672 6.66204
O 6.14406 12.0078 6.23827
O 8.6134 16.407 6.32413
O 7.26392 14.894 8.05658
O 9.99175 10.6909 8.07806
O 6.66061 16.7825 9.83599
O 9.12971 11.9411 10.3181
Si 10.1552 13.1632 5.61037
Si 12.7674 8.62511 5.49872
Si 11.0888 15.3613 9.13768
Si 13.7154 11.0491 9.2738
Si 11.3093 10.8568 7.26893
Si 13.7195 15.1349 7.25197
O 10.8368 14.0397 10.0845
O 13.5729 9.67326 10.0831
O 12.4082 11.2617 8.43142
O 14.8393 15.2137 8.43924
O 11.8588 9.46213 6.55879
O 14.1448 13.8999 6.329
O 11.1083 11.9469 6.13219
O 13.5866 16.52 6.36247
O 12.2916 14.9569 8.10328
O 14.9656 10.8681 8.26964
O 11.5822 16.4628 10.2192
O 14.0998 12.2062 10.2051
Si 14.9369 4.4422 11.0021
Si 2.34698 17.3615 10.9731
Si 1.35792 6.59054 14.4747
Si 3.63118 2.21019 14.6882
Si 1.06752 2.19106 12.8167
Si 3.89277 6.45029 12.6764
O 0.774337 5.43776 15.4774
O 3.26407 1.02763 15.7127
O 2.28448 2.4429 13.8227
O 5.12464 6.73174 13.6618
O 1.55527 0.898971 11.9456
O 4.43263 5.22112 11.7323
O 0.656837 3.35325 11.8757
O 3.55472 7.73917 11.7707
O 2.6145 6.20969 13.5462
O 4.84712 1.97391 13.7154
O 1.79905 7.78734 15.4036
O 4.18969 3.48525 15.5925
Si 5.33218 4.23005 10.8582
Si 7.56608 17.3883 11.0505
Si 6.27092 6.40135 14.7306
Si 8.62605 2.21549 14.8471
Si 6.23247 1.95444 12.8799
Si 8.80559 6.50272 12.9602
O 6.11685 5.17083 15.6376
O 8.49215 0.930075 15.7507
O 7.35162 2.34733 13.9312
O 10.1148 6.89369 13.7767
O 6.61953 0.575275 12.192
O 9.1251 5.17463 12.0896
O 6.14896 3.08892 11.7107
O 8.36658 7.72655 11.9897
O 7.6886 6.15705 13.9818
O 9.81456 1.87282 13.7899
O 6.60978 7.7096 15.5943
O 8.9442 3.34186 15.8768
Si 10.0976 4.3009 11.0637
Si 12.4552 0.0517793 11.102
Si 11.3351 6.33947 14.6844
Si 13.6645 2.23281 14.7219
Si 11.084 2.06448 12.9732
Si 13.8675 6.5218 12.8644
O 10.722 5.07307 15.3818
O 13.4585 1.02783 15.7898
O 12.3087 2.42933 13.8559
O 0.146903 6.94314 13.581
O 11.5395 0.772414 12.057
O 14.1084 5.15797 12.1402
O 10.9106 3.26866 11.9167
O 13.5066 7.59672 11.7191
O 12.5797 6.1672 13.7985
O 14.8067 1.90694 13.6826
O 11.8479 7.43721 15.7407
O 14.0879 3.5307 15.5363
Si 0.0765121 13.1017 11.0795
Si 2.75279 8.85667 10.9875
Si 1.18571 15.2512 14.8074
Si 3.97258 10.9933 14.7485
Si 1.38859 10.8678 12.9422
Si 3.58061 15.1876 12.8932
O 1.01152 13.8914 15.6775
O 3.56091 9.68671 15.6289
O 2.63423 11.2122 13.8507
O 4.81364 15.3854 14.0175
O 1.86439 9.69747 11.969
O 3.95636 13.887 12.0627
O 0.872462 12.0487 12.037
O 3.33544 16.3513 11.8664
O 2.35778 15.1756 13.8023
O 5.20147 10.7679 13.7645
O 1.49403 16.4926 15.7945
O 4.30042 12.1549 15.7585
Si 4.96363 13.162 11.0747
Si 7.66207 8.73641 10.9588
Si 6.17888 15.191 14.7275
Si 8.84484 10.8944 14.6837
Si 6.38666 11.0018 12.7088
Si 8.61355 15.0881 12.7896
O 6.09144 13.9204 15.6619
O 8.40469 9.52398 15.4588
O 7.57919 11.1501 13.6844
O 9.76856 15.706 13.7747
O 6.83879 9.78157 11.7684
O 9.15431 13.7118 12.2114
O 5.99074 12.3281 11.8406
O 8.45178 16.1967 11.6457
O 7.33206 14.9516 13.6312
O 10.0821 10.5186 13.6492
O 6.80983 16.4074 15.5826
O 9.27573 12.1182 15.5948
Si 10.0564 12.9641 11.0546
Si 12.6694 8.63509 10.8831
Si 11.093 15.3852 14.5754
Si 13.9045 10.8643 14.7101
Si 11.4205 10.771 12.7756
Si 13.7977 15.3427 12.8772
O 10.9432 14.1366 15.5947
O 13.39 9.52002 15.4674
O 12.6401 11.0279 13.8076
O 14.895 15.576 14.0147
O 11.7467 9.55463 11.8626
O 14.4512 14.2667 11.8655
O 11.1607 12.0672 11.8403
O 13.5341 16.6437 11.8681
O 12.3305 15.0744 13.613
O 0.159409 10.5654 13.9247
O 11.6175 16.6056 15.47
O 14.2486 12.0202 15.7982
324
 Atoms. Timestep: 6000
Si 0.145603 4.15034 0.0190506
Si 2.78347 0.00647057 16.5268
Si 1.15414 6.52453 3.9734
Si 3.5701 2.23681 3.84124
Si 1.10907 1.9466 1.89693
Si 3.59199 6.36284 2.01944
O 1.07898 5.36074 5.06154
O 3.67919 1.06402 4.99273
O 2.09277 2.18848 3.15119
O 4.744 6.64952 3.09724
O 1.84017 0.761043 1.03582
O 4.04839 5.09533 1.20416
O 1.03689 3.21546 0.900969
O 3.21775 7.5736 1.02383
O 2.22775 6.13792 2.85606
O 4.51999 1.89025 2.65376
O 1.49083 7.89213 4.70236
O 4.19697 3.53045 4.41807
Si 4.89549 4.33558 0.0679818
Si 7.49446 17.413 16.5671
Si 6.13623 6.68607 3.83284
Si 8.57577 2.16741 3.55697
Si 5.96007 2.02398 1.8241
Si 8.65765 6.63876 1.80219
O 6.01431 5.50892 4.9793
O 8.3652 0.933313 4.59167
O 7.16851 2.38947 2.81232
O 9.92769 7.07154 2.70007
O 6.47196 0.685908 1.09263
O 8.96786 5.37181 0.934655
O 5.73644 3.12709 0.663073
O 8.2255 7.78567 0.732353
O 7.31053 6.43425 2.72189
O 9.7832 1.82803 2.56696
O 6.62983 8.00095 4.52123
O 9.0095 3.53427 4.42639
Si 9.92523 4.49089 16.5326
Si 12.5996 -0.0338143 0.0286389
Si 11.236 6.6085 3.49737
Si 13.661 2.31423 3.61219
Si 11.0991 2.21271 1.84834
Si 13.8627 6.29793 1.99001
O 10.8597 5.39249 4.48489
O 13.4186 1.15335 4.74693
O 12.2352 2.62723 2.99945
O 14.8289 6.55343 3.17795
O 11.7196 0.953556 1.11886
O 14.374 5.11133 1.07701
O 10.8126 3.49344 0.871868
O 13.6417 7.61115 1.12604
O 12.3861 6.03947 2.56849
O 14.679 1.86295 2.44738
O 11.8754 7.8371 4.30775
O 14.5186 3.46253 4.29745
Si 0.216448 13.0489 0.169076
Si 2.55036 8.62627 0.0642241
Si 1.23693 15.5899 3.47557
Si 3.90993 10.7609 3.79785
Si 1.29206 10.8721 2.01632
Si 3.82035 15.2083 1.74259
O 0.993632 14.3665 4.56137
O 3.73088 9.47704 4.74825
O 2.39514 10.8849 3.17649
O 4.98356 15.2072 2.86077
O 1.63076 9.61824 1.01721
O 4.12254 14.1303 0.631179
O 1.23626 12.1406 1.08998
O 3.70856 16.5713 0.862468
O 2.47249 15.0444 2.56815
O 4.97743 10.5751 2.63067
O 1.71718 16.7697 4.35295
O 4.36357 12.0351 4.59227
Si 5.08145 13.097 16.4405
Si 7.39797 8.82405 16.3638
Si 6.30375 15.2205 3.71187
Si 8.72239 11.003 3.63415
Si 6.28353 10.9845 1.78552
Si 8.80406 15.1194 1.80158
O 6.15348 14.082 4.85292
O 8.45882 9.78147 4.55663
O 7.42735 11.3929 2.84864
O 10.0285 15.6125 2.70114
O 6.71102 9.87825 0.811633
O 9.30695 13.8068 1.05223
O 5.96294 12.2672 0.807599
O 8.37151 16.2383 0.735516
O 7.61551 14.9134 2.76907
O 9.85075 10.5819 2.53968
O 6.61975 16.5525 4.53455
O 9.26006 12.1785 4.50407
Si 10.2907 12.9767 0.133718
Si 12.7327 8.69016 0.261814
Si 11.2438 15.3188 3.7089
Si 13.8385 10.9344 3.75292
Si 11.3029 10.9084 1.98088
Si 13.7449 15.2531 1.80712
O 10.9714 14.2376 4.81202
O 13.7352 9.71098 4.8405
O 12.3161 11.1038 3.18371
O 14.9938 15.7618 2.67567
O 11.8173 9.62963 1.17479
O 14.2017 13.9005 0.971933
O 11.3758 12.2276 1.03573
O 13.4804 16.475 0.812628
O 12.545 14.9779 2.83435
O 14.8851 10.5502 2.59468
O 11.6052 16.6525 4.51553
O 14.3078 12.3287 4.34508
Si 0.156304 4.20716 5.51994
Si 2.64674 17.2552 5.59205
Si 1.1974 6.45732 9.24676
Si 3.74319 2.20505 9.0749
Si 1.15511 1.71976 7.36082
Si 3.55801 6.17632 7.37986
O 1.18742 5.40755 10.5196
O 3.69571 1.15531 10.3509
O 2.31929 2.19464 8.40088
O 4.75669 6.5458 8.38847
O 1.67422 0.388322 6.66038
O 4.25359 4.92215 6.60662
O 0.818464 2.90633 6.29126
O 3.29917 7.28124 6.27542
O 2.20059 5.91448 8.15208
O 4.91479 1.75412 8.06307
O 1.7221 7.84877 9.78362
O 4.12697 3.65598 9.83541
Si 5.14933 4.24033 5.46411
Si 7.68576 17.2307 5.48565
Si 6.09001 6.59737 9.20192
Si 8.81418 2.55736 9.30657
Si 6.3217 1.91062 7.26558
Si 8.73055 6.46611 7.42279
O 5.851 5.48231 10.3325
O 8.62398 1.29901 10.296
O 7.4131 2.41981 8.42467
O 9.91561 6.72271 8.43962
O 6.91419 0.607624 6.67843
O 9.13944 5.26466 6.37681
O 6.12219 3.12443 6.17475
O 8.51042 7.65868 6.35815
O 7.39593 6.29482 8.32181
O 10.0486 2.24497 8.29064
O 6.51257 7.8971 10.1064
O 9.11019 3.92293 10.1042
Si 9.98575 4.33082 5.33559
Si 12.4867 0.0754342 5.49863
Si 11.2688 6.6924 9.26284
Si 13.8063 2.27991 9.13675
Si 11.3146 2.32459 7.26845
Si 13.7679 6.30964 7.37284
O 11.0057 5.52241 10.3545
O 13.3143 1.37467 10.3769
O 12.5436 2.58415 8.1776
O 14.8017 6.52615 8.59621
O 11.5998 0.864381 6.60006
O 14.2175 5.00801 6.55066
O 11.0326 3.35403 6.111
O 13.6734 7.42146 6.17148
O 12.3644 6.32441 8.08274
O 14.953 1.5682 8.20856
O 11.7705 7.97481 9.99686
O 14.4913 3.63908 9.84925
Si 0.178055 13.1692 5.37893
Si 2.67436 8.61347 5.56619
Si 1.177 15.406 9.27884
Si 3.81421 11.0365 9.10427
Si 1.35867 10.9865 7.28774
Si 3.68156 14.9836 7.48898
O 0.914751 14.3784 10.5184
O 3.33853 9.90278 10.1142
O 2.47337 11.3628 8.37674
O 4.74007 15.4696 8.55219
O 1.99144 9.59282 6.63062
O 4.27375 13.7793 6.70426
O 1.12206 12.0268 6.09086
O 3.3786 16.1034 6.39616
O 2.2182 14.7239 8.2324
O 4.95714 10.5243 8.08994
O 1.92206 16.7509 9.78368
O 4.51694 12.2876 9.88041
Si 5.2405 12.9997 5.65146
Si 7.69408 8.71472 5.48558
Si 6.32208 15.4497 9.08499
Si 8.93816 10.8498 9.17711
Si 6.34488 10.7568 7.41856
Si 8.91201 15.0934 7.31016
O 6.23005 14.2547 10.1935
O 8.60933 9.63761 10.126
O 7.47227 11.1345 8.52748
O 9.93009 15.5504 8.52971
O 6.90289 9.48646 6.64374
O 9.39777 13.7061 6.60947
O 6.12403 11.996 6.44344
O 8.79386 16.2627 6.15138
O 7.43717 15.061 8.06055
O 10.0101 10.7015 7.98104
O 6.7732 16.8234 9.79077
O 9.5805 12.0121 10.1384
Si 10.2267 12.9412 5.49724
Si 12.746 8.55597 5.48271
Si 11.4382 15.3232 9.17702
Si 13.9687 11.0586 9.14588
Si 11.4282 10.6411 7.21438
Si 13.8871 15.3152 7.26533
O 11.3078 14.1655 10.2702
O 13.773 9.81326 10.2085
O 12.5455 11.097 8.28247
O 14.8982 15.6366 8.46714
O 11.9083 9.2045 6.60051
O 14.5055 14.0799 6.4394
O 11.2247 11.8104 6.15415
O 13.5458 16.4747 6.26487
O 12.4617 14.967 7.98267
O 15.0849 10.7554 8.06374
O 11.8843 16.6528 9.98357
O 14.3617 12.4112 9.98351
Si 0.111378 4.35774 11.0395
Si 2.77449 0.119414 10.9183
Si 1.05606 6.56607 14.8276
Si 3.59661 2.32619 14.6707
Si 1.07508 1.93894 12.8676
Si 3.58184 6.49394 12.695
O 1.03431 5.32277 15.8406
O 3.57512 1.0812 15.675
O 2.04645 2.29573 14.0949
O 4.65646 6.64647 13.9094
O 1.69203 0.82372 11.9331
O 3.9863 5.08529 12.0103
O 0.848264 3.2543 11.8805
O 3.44949 7.70953 11.6631
O 2.2636 6.39164 13.5836
O 4.6286 2.0226 13.4656
O 1.59563 7.7931 15.7124
O 3.96618 3.63943 15.5359
Si 5.01181 4.37848 10.9632
Si 7.68063 0.139276 10.8729
Si 6.03109 6.62248 14.7421
Si 8.53199 2.30371 14.6747
Si 6.09924 2.17302 12.7746
Si 8.65198 6.62487 12.987
O 5.80279 5.47772 15.9293
O 8.36389 1.05259 15.7388
O 7.10503 2.43611 13.9559
O 9.8025 7.18582 13.9351
O 6.74738 0.907176 11.9974
O 9.38774 5.36913 12.2938
O 5.95129 3.35968 11.7038
O 8.37855 7.64911 11.8195
O 7.27939 6.37188 13.8154
O 9.62353 1.91166 13.5743
O 6.31316 8.00273 15.5945
O 9.01284 3.58591 15.5368
Si 10.1143 4.51752 11.2009
Si 12.5426 0.145259 11.1529
Si 11.2147 6.75462 14.6865
Si 13.6137 2.25172 14.611
Si 11.0585 2.08485 12.8724
Si 13.6741 6.39086 12.8676
O 10.7806 5.49733 15.6284
O 13.331 1.03489 15.6267
O 12.1965 2.54325 13.97
O 14.7479 6.74435 13.9694
O 11.5385 0.813983 12.1233
O 14.1679 5.19611 12.0037
O 10.8802 3.29173 11.8899
O 13.6084 7.637 11.7059
O 12.3117 6.29322 13.6219
O 14.6854 1.70071 13.5493
O 11.806 7.92934 15.6363
O 14.3504 3.43499 15.43
Si 0.120358 13.1264 11.1411
Si 2.55138 8.69185 10.8367
Si 1.32468 15.2307 14.713
Si 3.77851 10.7692 14.6643
Si 1.21876 10.6997 12.9075
Si 3.67897 15.0854 12.6453
O 0.890195 13.9729 15.6661
O 3.45125 9.58685 15.7669
O 2.49393 11.0791 13.7992
O 4.8218 15.4229 13.6837
O 1.55459 9.38078 11.9717
O 4.25069 13.9275 11.7881
O 0.836657 11.9539 11.928
O 3.55048 16.4455 11.7434
O 2.39644 14.7015 13.5393
O 5.06343 10.6386 13.7362
O 1.93561 16.3533 15.6808
O 4.19836 12.0557 15.6054
Si 5.36069 13.1763 10.9286
Si 7.56532 8.71403 11.0004
Si 6.29692 15.3326 14.5326
Si 8.84696 10.9991 14.6822
Si 6.41835 10.9604 12.7895
Si 8.84332 15.2319 12.6637
O 5.96591 14.0706 15.5183
O 8.39759 9.66439 15.446
O 7.60558 11.4657 13.8978
O 9.96998 15.5525 13.7689
O 6.86644 9.73667 11.9368
O 9.41088 14.0796 11.7496
O 6.23899 12.18 11.8347
O 8.5401 16.4476 11.6023
O 7.42293 15.0461 13.4333
O 10.1086 10.7152 13.6818
O 6.59461 16.5763 15.5368
O 9.42996 11.9244 15.8476
Si 10.3998 13.1062 11.0479
Si 12.7586 8.79999 10.9844
Si 11.2132 15.4461 14.7175
Si 13.959 10.7247 14.9701
Si 11.4711 10.9067 12.9595
Si 13.8817 15.391 12.9499
O 10.9659 14.0373 15.6194
O 13.8087 9.54462 16.0371
O 12.566 11.1361 14.1262
O 15.0616 15.7487 13.9494
O 11.9735 9.64438 12.1176
O 14.3001 14.0103 12.2236
O 11.1846 12.1675 12.0614
O 13.5975 16.5349 11.9376
O 12.6457 15.4072 13.9219
O 15.0482 10.4437 13.8923
O 11.493 16.5423 15.8523
O 14.577 11.9405 15.787
324
 Atoms. Timestep: 6500
Si 0.056099 4.13827 0.134535
Si 2.74522 0.00567028 -0.00176612
Si 0.99701 6.55184 3.72094
Si 3.62809 2.22828 3.61308
Si 1.17171 1.77597 1.67717
Si 3.48559 6.32331 1.79291
O 0.730035 5.3987 4.76468
O 3.45353 1.03732 4.71875
O 2.29628 2.28427 2.77913
O 4.7932 6.57118 2.71944
O 1.60413 0.392325 1.05397
O 3.77019 5.02667 0.90301
O 0.929565 2.83672 0.53639
O 3.35253 7.61991 0.887644
O 2.12789 6.21585 2.67283
O 4.95043 1.82939 2.69931
O 1.41785 7.85805 4.44837
O 4.06571 3.64939 4.34232
Si 4.93211 4.47315 16.5002
Si 7.75722 0.0205136 16.5618
Si 6.1889 6.52315 3.6218
Si 8.63449 2.26322 3.63781
Si 6.2273 2.13989 1.74279
Si 8.70491 6.35602 1.75332
O 5.96204 5.27067 4.67819
O 8.25201 0.871316 4.34375
O 7.36961 2.63739 2.73434
O 9.82617 6.8467 2.82036
O 6.73849 0.933923 0.80581
O 9.19689 5.08771 0.976264
O 5.81311 3.30584 0.696251
O 8.28155 7.50186 0.734377
O 7.37405 6.19768 2.61976
O 9.86234 2.14397 2.67412
O 6.53509 7.80265 4.55873
O 8.95807 3.36048 4.70063
Si 10.0953 4.34893 16.4428
Si 12.5474 0.0580683 16.6759
Si 11.1509 6.57276 3.78768
Si 13.706 2.22531 3.60227
Si 11.1636 2.16337 1.76884
Si 13.6445 6.18305 1.84261
O 10.7389 5.35707 4.7526
O 13.412 1.094 4.65641
O 12.4262 2.47364 2.65371
O 14.7752 6.75635 2.80769
O 11.5474 0.783595 1.137
O 14.2395 4.75313 1.28612
O 10.8945 3.13345 0.517034
O 13.2604 7.3761 0.714575
O 12.3381 5.97205 2.75628
O 14.9344 1.76597 2.55583
O 11.5872 7.95745 4.42905
O 14.1356 3.53268 4.48402
Si 0.223807 13.1844 0.0040129
Si 2.50214 8.64353 0.10736
Si 1.27863 15.2824 3.51976
Si 3.66747 10.8613 3.72068
Si 1.18013 10.8763 1.8526
Si 3.83724 15.1261 1.68149
O 0.892433 14.0351 4.47659
O 3.43312 9.3869 4.41857
O 2.32809 11.2111 2.9087
O 4.90342 15.3341 2.84142
O 1.57885 9.54042 1.17872
O 4.35091 13.8184 0.798609
O 1.03945 12.1125 0.779066
O 3.64151 16.1905 0.593853
O 2.37922 14.9518 2.42515
O 4.86194 10.7867 2.70755
O 1.84929 16.5565 4.37539
O 4.09009 11.8978 4.9219
Si 5.19963 12.9414 16.2692
Si 7.50815 8.73059 16.5358
Si 6.14676 15.1369 3.78913
Si 8.74537 10.7772 3.50981
Si 6.1648 10.8496 1.82932
Si 8.79222 15.1646 1.92059
O 5.94055 13.8049 4.61145
O 8.4457 9.53807 4.56323
O 7.36754 11.2531 2.81145
O 9.95949 15.4647 2.93049
O 6.55657 9.4243 1.1134
O 9.26759 13.8701 1.10823
O 6.10131 11.9477 0.62544
O 8.53197 16.4854 0.928507
O 7.37237 14.9822 2.72497
O 9.8693 10.3312 2.52495
O 6.46852 16.3943 4.8143
O 9.35026 12.0287 4.46316
Si 10.1802 12.9915 0.0665381
Si 12.7067 8.71648 0.0503078
Si 11.3286 15.2389 3.75095
Si 13.8304 10.8273 3.67032
Si 11.248 10.6758 1.90687
Si 13.7063 15.3049 1.85455
O 10.9445 13.9434 4.53909
O 13.5851 9.62108 4.72238
O 12.3361 11.1813 3.04326
O 14.9673 15.5811 2.76953
O 11.85 9.41436 1.15503
O 14.251 13.9694 1.01055
O 10.9692 11.8665 0.849119
O 13.4184 16.4933 0.94931
O 12.511 15.0199 2.77594
O 14.778 10.7066 2.43062
O 11.6941 16.45 4.73972
O 14.315 12.0413 4.61623
Si 15.0074 4.2979 5.59664
Si 2.6344 17.3484 5.45591
Si 1.21265 6.5759 9.12646
Si 3.87432 2.31348 9.23765
Si 1.28051 2.0698 7.30777
Si 3.78974 6.34985 7.38404
O 0.913426 5.70622 10.4036
O 3.4825 1.35533 10.4654
O 2.54638 2.36494 8.24648
O 4.94432 6.95371 8.39521
O 1.64376 0.779 6.48219
O 4.37132 5.07996 6.66852
O 0.983504 3.24242 6.3169
O 3.27524 7.40712 6.24446
O 2.46757 6.04368 8.26639
O 5.09303 1.76246 8.33643
O 1.81194 8.06563 9.63442
O 4.36084 3.59228 9.94453
Si 5.0298 4.2452 5.44764
Si 7.62595 17.3629 5.49371
Si 6.32229 6.80369 9.21578
Si 8.7322 2.49729 9.10181
Si 6.24308 2.0441 7.29202
Si 8.83566 6.4678 7.42661
O 6.00622 5.66033 10.4149
O 8.47614 1.31118 10.1483
O 7.44347 2.75195 8.23068
O 9.94443 7.06292 8.43409
O 6.92791 0.779127 6.58068
O 9.25429 5.0721 6.79174
O 5.75548 2.93365 6.07579
O 8.60474 7.37951 6.13035
O 7.50903 6.38454 8.29885
O 9.90542 1.99019 8.15898
O 6.88019 8.14192 9.95379
O 9.19624 3.8155 10.0017
Si 10.0019 4.21992 5.64617
Si 12.5776 -0.0295295 5.71544
Si 11.2292 6.76675 9.37957
Si 13.828 2.34485 9.31447
Si 11.2552 2.1574 7.46092
Si 13.6676 6.20991 7.45355
O 10.8969 5.69095 10.4869
O 13.6089 1.15159 10.4241
O 12.4266 2.53048 8.45636
O 14.9089 6.56659 8.35168
O 11.7355 0.752474 6.77117
O 14.0081 4.9634 6.58641
O 11.0347 3.23664 6.31906
O 13.3727 7.46798 6.39543
O 12.3569 6.05258 8.3826
O 14.9927 2.12661 8.2901
O 11.8152 8.12071 9.91134
O 14.1986 3.66126 10.1769
Si 0.112727 13.0426 5.49133
Si 2.46251 8.53724 5.40336
Si 1.36123 15.4838 9.28375
Si 4.0086 10.8239 9.27875
Si 1.40845 10.8182 7.41776
Si 4.01519 15.2676 7.42676
O 0.968478 14.2931 10.2391
O 3.66592 9.7779 10.427
O 2.68701 11.0301 8.28133
O 5.29904 15.6053 8.29405
O 1.72847 9.56721 6.46583
O 4.5025 13.8998 6.66802
O 1.07273 12.1637 6.43724
O 3.50468 16.3213 6.33593
O 2.74565 15.0257 8.35677
O 5.1683 10.4201 8.25736
O 1.70566 16.9025 9.89201
O 4.32134 12.197 9.99478
Si 5.18368 12.8435 5.70834
Si 7.65331 8.48764 5.52332
Si 6.55685 15.3143 9.22867
Si 9.07451 10.9137 9.39849
Si 6.60077 10.7553 7.56436
Si 8.99832 15.2019 7.26222
O 6.08889 14.1315 10.2478
O 8.97237 9.7152 10.5332
O 7.58533 11.1135 8.74654
O 10.1269 15.786 8.21781
O 7.03187 9.3664 6.74881
O 9.3647 13.8263 6.50609
O 6.23206 11.892 6.51953
O 8.60322 16.2544 6.14567
O 7.79574 14.9856 8.20587
O 10.0743 10.4861 8.19824
O 6.9762 16.6332 9.93363
O 9.61388 12.1955 10.0499
Si 10.1672 12.9215 5.41424
Si 12.5281 8.64005 5.5296
Si 11.3817 15.45 9.13611
Si 13.9753 10.914 9.15605
Si 11.4339 10.7857 7.36307
Si 13.9511 15.3603 7.33088
O 11.2712 14.2246 10.151
O 13.7861 9.73135 10.1827
O 12.5897 11.1416 8.36813
O 0.00501461 15.6041 8.37816
O 11.7197 9.46113 6.6684
O 14.3813 14.0145 6.53258
O 11.0577 11.9238 6.2539
O 13.6952 16.5554 6.35696
O 12.5552 15.1925 8.16853
O 0.0302225 10.4253 8.17027
O 11.7653 16.7587 10.0818
O 14.3304 12.3824 9.84164
Si 15.1441 4.56717 11.1817
Si 2.50358 0.191597 11.119
Si 1.05248 6.55385 14.8571
Si 3.66488 2.36113 14.7016
Si 1.11166 2.24407 12.8502
Si 3.39314 6.61585 12.873
O 0.855862 5.36886 15.9624
O 3.52223 1.29012 15.9349
O 2.29588 2.6091 13.9564
O 4.5758 6.91914 14.0557
O 1.48997 0.841929 12.0947
O 3.96897 5.4545 11.9597
O 0.998741 3.40644 11.7672
O 3.01031 7.78411 11.9121
O 2.04543 6.18369 13.7439
O 4.7138 1.9129 13.5527
O 1.51431 7.81981 15.6515
O 4.18462 3.74206 15.2344
Si 5.05412 4.50874 11.1286
Si 7.64012 0.211833 10.9484
Si 6.03179 6.71999 14.7944
Si 8.51928 2.32525 14.6253
Si 6.03393 2.14492 12.8173
Si 8.56681 6.43081 13.0641
O 5.81435 5.63803 16.0016
O 8.48049 1.11914 15.6888
O 7.13034 2.52752 13.9281
O 9.54386 7.03874 14.1414
O 6.5762 0.834879 11.9855
O 9.09315 5.09274 12.2831
O 5.81295 3.49105 12.0095
O 8.65297 7.41661 11.8235
O 7.08039 6.17221 13.634
O 9.68713 2.09536 13.5014
O 6.58631 8.06237 15.3745
O 9.03203 3.71722 15.3374
Si 10.0767 4.50846 11.1607
Si 12.7195 0.0900386 11.1483
Si 11.0314 6.87585 14.7602
Si 13.6478 2.29043 14.6671
Si 11.197 2.19729 12.7978
Si 13.6287 6.51045 13.0472
O 10.7874 5.64163 15.7345
O 13.4293 1.0336 15.7636
O 12.2866 2.60177 13.9294
O 14.6665 6.79147 14.249
O 11.7519 0.852805 12.2703
O 14.2689 5.1266 12.4385
O 11.1262 3.38639 11.7663
O 13.5018 7.57648 11.874
O 12.1366 6.45145 13.6227
O 14.8223 2.04493 13.6216
O 11.7269 8.11189 15.4726
O 14.0982 3.54623 15.5689
Si 0.135621 13.1707 11.0295
Si 2.46594 8.77469 10.8403
Si 1.3646 15.4683 14.6933
Si 3.67392 10.811 14.5546
Si 1.20585 10.8278 12.6497
Si 3.86394 15.2858 12.8058
O 1.15215 14.3523 15.8162
O 3.37197 9.67404 15.6696
O 2.45433 10.9356 13.5976
O 5.05706 15.7092 13.7448
O 1.41642 9.66806 11.6649
O 4.31843 13.8871 12.1009
O 1.10246 12.1626 11.772
O 3.36445 16.3874 11.7768
O 2.53084 15.0576 13.667
O 4.9765 10.3979 13.6136
O 1.88398 16.88 15.2955
O 4.29575 12.1054 15.2568
Si 5.20872 13.0616 11.0651
Si 7.92523 8.60984 11.0991
Si 6.34282 15.3453 14.4802
Si 8.91647 10.9391 14.6876
Si 6.31943 10.6674 12.8675
Si 8.78144 15.2625 12.7168
O 6.00331 14.009 15.3903
O 8.50482 9.82437 15.9018
O 7.52088 11.0026 13.8405
O 9.91896 15.3907 13.838
O 6.7236 9.26389 12.1245
O 9.29702 14.0969 11.7059
O 6.06361 11.8992 11.8206
O 8.47212 16.5791 11.8772
O 7.46345 14.9542 13.4252
O 10.0714 10.5148 13.6879
O 6.94194 16.47 15.4206
O 9.36728 12.3189 15.4056
Si 10.3792 13.1964 11.0335
Si 12.8106 8.76389 11.031
Si 11.2282 15.3013 14.8512
Si 13.8488 10.9537 14.7698
Si 11.4605 10.8582 12.9448
Si 13.845 15.1118 12.9189
O 11.0648 14.0974 15.8823
O 13.6115 9.8268 15.8813
O 12.412 11.2022 14.153
O 0.0458639 15.5071 13.829
O 12.0591 9.65002 12.0281
O 14.2066 13.8351 12.0756
O 11.2272 12.1787 11.9812
O 13.4911 16.3654 11.9317
O 12.5096 15.0217 13.8353
O 14.9535 10.6781 13.5393
O 11.606 16.6479 15.6874
O 14.35 12.3762 15.4488
324
 Atoms. Timestep: 7000
Si 14.9034 4.52285 0.0894203
Si 2.54365 17.3876 16.4911
Si 1.06126 6.65324 3.59577
Si 3.72599 2.14972 3.56216
Si 1.1766 2.18433 1.73545
Si 3.58007 6.4619 1.85031
O 0.704724 5.48786 4.58215
O 3.41717 0.780919 4.36044
O 2.43371 2.54886 2.75187
O 4.57658 6.77557 3.07203
O 1.73066 0.980587 0.834638
O 4.32165 5.30535 1.08258
O 0.67208 3.42549 0.855325
O 3.52311 7.634 0.820096
O 2.16803 6.19596 2.44731
O 4.84074 2.02341 2.40367
O 1.74098 7.93055 4.36087
O 4.24138 3.23486 4.6632
Si 5.1366 4.48686 16.5393
Si 7.73983 0.0704502 16.6268
Si 6.01099 6.40872 3.638
Si 8.77358 2.15808 3.78967
Si 6.29539 2.23268 1.8409
Si 8.44061 6.20082 1.7925
O 5.95468 5.16611 4.54096
O 8.42444 0.986084 4.76599
O 7.42554 2.35151 2.92626
O 9.60694 6.52178 2.94588
O 6.87725 0.920826 1.12381
O 9.11041 4.90741 1.05945
O 6.09738 3.49037 0.811073
O 8.42396 7.44089 0.764699
O 7.02984 6.09217 2.42069
O 10.0396 1.69902 2.86665
O 6.67393 7.60212 4.54729
O 9.29774 3.36131 4.71376
Si 10.139 4.29388 16.5479
Si 12.796 17.4749 16.611
Si 11.0315 6.52865 3.62411
Si 13.7577 2.12011 3.71001
Si 11.2456 2.01552 1.80981
Si 13.5783 6.79278 1.79484
O 11.1284 5.19449 4.4799
O 13.2366 0.854947 4.667
O 12.5324 2.42427 2.7331
O 14.7299 6.98709 2.88963
O 11.7084 0.646168 0.95462
O 13.8464 5.28173 1.11838
O 10.8509 3.13942 0.809709
O 13.4789 7.83764 0.63065
O 12.0646 6.63703 2.41194
O 15.0579 1.7862 2.77571
O 11.4398 7.69653 4.61042
O 14.1749 3.40808 4.55713
Si 0.180603 13.0134 16.5424
Si 2.66319 8.8082 0.0772043
Si 1.17641 15.1872 3.7718
Si 3.78587 10.8113 3.57863
Si 1.22804 10.8853 1.90842
Si 3.64023 15.0817 1.76177
O 0.812869 13.7856 4.44614
O 3.71707 9.61213 4.56437
O 2.34638 11.1971 2.95431
O 4.78703 15.5134 2.7536
O 1.78317 9.56049 1.11957
O 4.18023 13.6604 1.05922
O 1.09875 12.1269 0.938024
O 3.43341 16.2295 0.689688
O 2.3276 14.9189 2.65505
O 4.84665 10.5471 2.41919
O 1.62328 16.3498 4.88541
O 4.35001 12.2028 4.30164
Si 5.15569 13.0188 16.5338
Si 7.71903 8.63574 16.559
Si 6.25367 15.291 3.601
Si 8.72946 10.7532 3.67203
Si 6.24398 10.7406 1.69063
Si 8.72187 15.2272 1.85186
O 5.9338 13.9847 4.44345
O 8.35559 9.541 4.67012
O 7.41772 11.0682 2.77523
O 9.74192 15.4292 3.13085
O 6.80716 9.39631 0.962349
O 9.41419 13.9863 1.06063
O 6.08023 11.8642 0.645491
O 8.61361 16.4532 0.906931
O 7.29092 14.9519 2.49696
O 10.0353 10.4783 2.74227
O 6.71889 16.5114 4.4748
O 9.21761 11.9571 4.50239
Si 10.2245 13.1736 -0.0237331
Si 12.5733 8.77082 16.2906
Si 11.1747 15.0754 3.69926
Si 13.7828 10.7071 3.63116
Si 11.3075 10.7907 1.76114
Si 13.7933 15.2357 1.79499
O 11.1292 13.7425 4.50691
O 13.2724 9.43775 4.40429
O 12.5776 11.2582 2.70201
O 14.9885 15.6562 2.89923
O 11.7555 9.59655 0.849408
O 14.3058 13.9621 0.968852
O 11.0055 11.9941 0.703527
O 13.8574 16.5038 0.822649
O 12.3363 15.0478 2.52804
O 15.0395 10.4439 2.69622
O 11.6434 16.2874 4.69718
O 14.3677 11.7824 4.737
Si 0.0234309 4.34156 5.49074
Si 2.74636 -0.0601437 5.54984
Si 1.15546 6.76728 9.2016
Si 3.66231 2.38123 9.35153
Si 1.37294 2.25313 7.27031
Si 3.77341 6.49533 7.31834
O 1.0387 5.55509 10.3198
O 3.24177 1.30749 10.4161
O 2.37205 2.7181 8.44949
O 4.94034 6.77616 8.28134
O 2.02329 0.980653 6.56129
O 4.16317 5.1882 6.43065
O 1.0776 3.41671 6.16433
O 3.47324 7.65353 6.24956
O 2.33679 6.35702 8.14125
O 4.83706 1.91786 8.32224
O 1.57499 8.04604 10.0334
O 4.34396 3.57725 10.1488
Si 5.14922 4.21469 5.54994
Si 7.62505 17.3367 5.63235
Si 6.27526 6.67279 9.21385
Si 8.83421 2.09618 9.13051
Si 6.18421 2.07697 7.43456
Si 8.8815 6.35871 7.38039
O 5.96549 5.64378 10.4242
O 8.58039 0.969798 10.2742
O 7.4368 2.21221 8.33576
O 9.89194 6.8452 8.52606
O 6.47101 0.772403 6.52585
O 9.60998 5.1628 6.53364
O 6.00794 3.36284 6.5058
O 8.50172 7.64105 6.44546
O 7.47332 6.10868 8.19046
O 10.0522 1.73839 8.21585
O 6.75236 8.01816 9.82215
O 9.12061 3.48958 9.80588
Si 10.4106 4.21717 5.52388
Si 12.5888 17.222 5.55446
Si 11.2518 6.78733 9.31769
Si 13.9332 2.17403 9.18014
Si 11.4176 1.9889 7.39194
Si 13.7545 6.35216 7.38052
O 10.9705 5.54011 10.2622
O 13.6763 1.05082 10.2522
O 12.5358 2.38675 8.44905
O 14.8822 6.87913 8.41484
O 11.8712 0.61604 6.71434
O 14.2722 4.98892 6.71195
O 11.2979 3.16863 6.25335
O 13.5945 7.41673 6.0896
O 12.3337 6.41095 8.1578
O 15.0385 1.85908 8.09704
O 11.9009 8.08454 10.087
O 14.3357 3.61809 9.91525
Si 0.144084 12.9266 5.51639
Si 2.66858 8.73749 5.37696
Si 1.52383 15.3087 9.15777
Si 3.80568 10.9158 9.28377
Si 1.2749 10.8657 7.3856
Si 4.09418 15.2835 7.39404
O 1.13496 14.2812 10.2406
O 3.56532 9.76534 10.3653
O 2.38064 11.1629 8.57437
O 5.25941 15.6657 8.52096
O 1.82806 9.73737 6.3346
O 4.49694 14.026 6.39176
O 1.01531 12.1505 6.59988
O 3.76833 16.48 6.39976
O 2.80591 15.0072 8.33751
O 4.96012 10.6093 8.27298
O 1.85028 16.6225 10.1039
O 4.29641 12.1594 10.1289
Si 5.19458 12.9913 5.37683
Si 7.49537 8.52506 5.54807
Si 6.55067 15.2345 9.31866
Si 8.81033 10.9338 9.20944
Si 6.26045 10.7553 7.30373
Si 8.9881 15.1021 7.29306
O 6.18279 13.9927 10.2331
O 8.48561 9.87941 10.3571
O 7.57235 10.9831 8.24987
O 10.3236 15.4044 8.14977
O 6.62163 9.43775 6.55834
O 9.36399 13.8674 6.35249
O 5.92539 11.9738 6.37449
O 8.5376 16.3721 6.48975
O 7.72282 14.8636 8.3005
O 10.1573 10.4857 8.41027
O 7.04619 16.4213 10.2784
O 9.28455 12.3548 9.88396
Si 10.1988 12.8275 5.41423
Si 12.5385 8.48169 5.48334
Si 11.5374 15.2316 9.10517
Si 13.9514 10.9476 9.198
Si 11.4978 10.7128 7.43761
Si 14.1568 15.2334 7.22614
O 11.1286 14.0861 10.1271
O 13.3989 10.0555 10.3728
O 12.7142 11.2343 8.34215
O 0.308829 15.6258 8.22572
O 12.0197 9.47838 6.53309
O 14.3492 13.9227 6.35308
O 10.9635 11.7725 6.35888
O 13.7897 16.3436 6.1547
O 12.8137 14.9451 8.09183
O 0.0299179 10.306 8.26215
O 11.8896 16.6228 9.87928
O 14.5644 12.2716 9.88925
Si 0.00661432 4.48526 11.107
Si 2.54918 0.0965495 11.2004
Si 1.11598 6.60651 14.8526
Si 3.58815 2.35069 14.8674
Si 1.07074 2.16389 13.0488
Si 3.56524 6.43267 12.9471
O 0.732132 5.62187 16.0918
O 3.58325 1.00718 15.7753
O 2.1273 2.4585 14.1875
O 4.75243 6.85129 13.9448
O 1.57516 0.821277 12.2682
O 4.17618 5.05783 12.2611
O 0.723524 3.38353 12.1016
O 3.31322 7.57709 11.8849
O 2.29827 6.14591 13.9268
O 4.73981 2.09837 13.7029
O 1.72274 8.04634 15.5169
O 4.07537 3.5622 15.6823
Si 5.17529 4.43648 11.1907
Si 7.65671 0.119542 11.2466
Si 6.17934 6.66516 14.5932
Si 8.68267 2.27819 14.628
Si 6.13235 2.20465 12.9919
Si 8.56335 6.36119 12.7383
O 6.01007 5.55412 15.67
O 8.59224 1.10582 15.6984
O 7.24513 2.33897 14.0639
O 9.68096 6.67734 13.9231
O 6.50911 1.00826 11.9964
O 9.04955 5.10384 11.9573
O 6.12303 3.4098 11.8922
O 8.45621 7.6462 11.7841
O 7.16468 6.21684 13.416
O 9.73969 1.89732 13.4315
O 6.73899 7.98445 15.3352
O 9.2122 3.66035 15.3342
Si 9.98077 4.32549 10.9011
Si 12.6773 0.0415951 11.014
Si 11.0478 6.51518 14.6329
Si 13.6062 2.3653 14.7143
Si 11.1762 2.12051 12.7088
Si 13.6577 6.58615 12.9104
O 10.9219 5.43135 15.8093
O 13.4229 1.26745 15.7653
O 12.289 2.41362 13.8107
O 14.8718 6.81723 14.0106
O 11.6208 0.847242 11.8217
O 14.107 5.41079 11.8452
O 10.867 3.29102 11.6279
O 13.4398 7.94076 12.0944
O 12.2754 6.15088 13.6456
O 14.7676 1.94352 13.6696
O 11.6412 7.92335 15.2787
O 14.1047 3.76731 15.4198
Si 0.255033 13.2287 10.9687
Si 2.59171 8.84636 11.1051
Si 1.16699 15.2584 14.6157
Si 3.69614 10.9839 14.6958
Si 1.1526 11.0146 12.971
Si 3.82747 15.2923 12.8632
O 0.973881 14.1005 15.6833
O 3.57122 9.889 15.9086
O 2.1174 11.1658 14.239
O 4.88897 15.5001 14.0247
O 1.74458 9.63719 12.2014
O 4.25697 14.0272 11.9198
O 1.13533 12.2489 11.9288
O 3.50993 16.5656 11.9677
O 2.38708 14.8639 13.6081
O 4.7043 10.4854 13.53
O 1.69617 16.6489 15.3794
O 4.40118 12.2946 15.275
Si 5.2255 13.0052 11.025
Si 7.6166 8.71037 10.9583
Si 6.18395 15.3577 14.9066
Si 8.51676 11.1237 14.9402
Si 6.18999 10.6437 12.922
Si 8.75362 15.3119 13.0791
O 6.01009 14.2562 15.9986
O 8.58929 9.92741 16.0191
O 7.17008 10.9569 14.1157
O 9.94972 15.577 14.1744
O 6.66872 9.45158 12
O 9.1345 14.2307 11.8897
O 6.13106 12.0021 11.9476
O 8.47506 16.7019 12.3361
O 7.35901 14.9345 13.7937
O 9.6531 10.7771 13.8452
O 6.8203 16.653 15.583
O 9.12019 12.4864 15.5871
Si 10.0722 13.2828 10.9013
Si 12.5848 8.99133 11.1779
Si 11.4416 15.2938 14.7477
Si 13.6221 11.0951 14.6183
Si 11.0079 11.047 12.9597
Si 13.7088 15.1248 12.7964
O 11.2157 14.1594 15.7821
O 13.4845 9.68841 15.3706
O 12.1842 11.4042 13.9796
O 14.8996 15.2963 13.8732
O 11.5172 9.74773 12.2066
O 14.2465 13.9873 11.7824
O 10.8072 12.2668 11.9711
O 13.5393 16.4912 11.8848
O 12.3786 14.8627 13.5817
O 14.6935 10.9536 13.3946
O 11.9593 16.5774 15.4695
O 14.3884 12.0886 15.6303
324
 Atoms. Timestep: 7500
Si 15.0338 4.52955 0.0855539
Si 2.57931 -0.0447377 16.6037
Si 1.05806 6.73457 3.61041
Si 3.56897 2.08774 3.6588
Si 1.17935 2.21174 1.70209
Si 3.5625 6.33564 1.74927
O 0.783393 5.5717 4.72898
O 3.08735 0.784296 4.35706
O 2.3224 2.63093 2.71576
O 4.73646 6.77788 2.80412
O 1.71217 0.959966 0.946914
O 4.15291 5.05307 0.960543
O 1.03737 3.48356 0.709327
O 3.43068 7.48744 0.62292
O 2.09423 6.25111 2.44126
O 4.80112 1.88483 2.69512
O 1.76121 7.91511 4.3845
O 4.11669 3.12639 4.69384
Si 5.10562 4.2265 0.0759493
Si 7.79674 0.0692189 -0.00998463
Si 6.00487 6.48234 3.66712
Si 8.77962 2.28471 3.81518
Si 6.2674 2.03967 1.87203
Si 8.55893 6.44358 2.0754
O 5.62502 5.35735 4.72153
O 8.56384 1.1322 4.93255
O 7.41307 2.39609 3.02479
O 9.70403 6.7797 3.14055
O 6.89155 0.877124 1.02385
O 9.09025 5.23303 1.07051
O 6.1108 3.26946 0.899196
O 8.2962 7.74343 1.17115
O 7.21431 6.01179 2.67583
O 9.94845 1.81316 2.79258
O 6.62606 7.77939 4.39033
O 9.32067 3.60507 4.49519
Si 9.99838 4.33852 -0.00499409
Si 12.7068 -0.0482918 -0.0806045
Si 11.1909 6.59589 3.75956
Si 13.9097 2.23022 3.65139
Si 11.1499 2.0155 1.88056
Si 13.6151 6.63708 1.84546
O 11.18 5.28699 4.73171
O 13.6508 0.931065 4.65931
O 12.4884 2.41881 2.76322
O 14.8123 7.17421 2.80611
O 11.7269 0.856777 0.873303
O 14.1504 5.24044 1.24496
O 10.7799 3.21857 0.8145
O 13.5642 7.72747 0.680668
O 12.2379 6.44811 2.53792
O 14.9175 1.99038 2.48735
O 11.5917 7.88221 4.65032
O 14.2355 3.50041 4.47915
Si -0.033057 12.9358 0.100475
Si 2.60091 8.64899 16.5212
Si 1.07732 15.037 3.87413
Si 3.57836 11.0526 3.71643
Si 1.13394 10.6305 1.86022
Si 3.66092 15.2614 2.04167
O 0.941947 13.6653 4.57267
O 3.2464 10.0184 4.87847
O 2.27794 11.2573 2.81028
O 4.85164 15.6346 2.98581
O 1.6927 9.28594 1.13185
O 4.08979 13.9432 1.24219
O 0.547588 11.6565 0.840237
O 3.44213 16.4749 0.974825
O 2.26568 15.0946 2.73422
O 4.76622 10.3922 2.76126
O 1.56261 16.1163 5.02342
O 4.17424 12.4089 4.23335
Si 4.93525 13.1927 0.188892
Si 7.64024 8.62167 16.6257
Si 6.26682 15.3965 3.64148
Si 8.79493 10.7944 3.64707
Si 6.10191 10.6797 1.83544
Si 8.80588 15.1804 1.79664
O 6.01175 14.2725 4.72824
O 8.36065 9.69775 4.6486
O 7.42576 10.9632 2.75243
O 9.98282 15.6056 2.75627
O 6.55662 9.48502 0.876177
O 9.29874 13.8608 1.04741
O 5.72184 11.9884 0.894462
O 8.58963 16.3084 0.715444
O 7.3882 14.9877 2.55109
O 9.98594 10.4252 2.70951
O 6.81899 16.7522 4.32824
O 9.24486 12.11 4.35402
Si 10.1457 13.0356 16.5352
Si 12.5325 8.68743 16.3436
Si 11.3301 15.3353 3.54339
Si 13.7715 10.8692 3.67136
Si 11.223 10.706 1.78454
Si 13.8531 15.1726 1.89225
O 10.9438 13.9626 4.35371
O 13.2424 9.7391 4.75757
O 12.5215 11.0825 2.64723
O 14.8514 15.4899 3.11763
O 11.6387 9.35528 0.9263
O 14.3747 13.8761 1.20353
O 10.8815 11.9111 0.851465
O 13.7455 16.414 0.782668
O 12.3993 14.9082 2.38232
O 15.0364 10.379 2.84658
O 11.9738 16.4514 4.44948
O 14.1051 12.0959 4.59626
Si 0.118332 4.33765 5.46845
Si 2.73127 17.2153 5.5265
Si 1.4265 6.7116 9.1709
Si 3.77081 2.32807 9.31261
Si 1.29999 2.05502 7.34381
Si 3.91521 6.48626 7.23494
O 1.01097 5.44418 10.1066
O 3.50243 1.26285 10.4723
O 2.35503 2.51298 8.47243
O 5.18692 6.83338 8.18256
O 1.9001 0.784266 6.54657
O 4.07313 4.97321 6.72006
O 1.05277 3.28147 6.24422
O 3.68368 7.48077 5.9832
O 2.67183 6.54771 8.18662
O 4.99202 1.93598 8.37216
O 1.78228 7.83427 10.2028
O 4.2426 3.74164 9.92667
Si 4.94982 4.25254 5.64087
Si 7.64085 17.4163 5.50546
Si 6.36076 6.67021 9.16262
Si 8.95247 2.13037 9.25671
Si 6.28332 2.0899 7.41125
Si 8.77197 6.40709 7.31001
O 6.00423 5.54611 10.2366
O 8.63301 1.03075 10.3757
O 7.59846 2.2412 8.34755
O 10.0284 6.73463 8.24569
O 6.62818 0.927603 6.39242
O 9.1655 5.17283 6.42189
O 5.98804 3.40208 6.51985
O 8.36692 7.60557 6.2991
O 7.57894 6.14591 8.26902
O 10.0435 1.61295 8.2361
O 6.67016 8.01794 9.95671
O 9.35054 3.52517 9.95919
Si 10.2165 4.34631 5.56448
Si 12.7516 17.3065 5.5443
Si 11.3348 6.66918 9.16666
Si 13.8711 2.27567 9.12088
Si 11.3893 1.99845 7.41547
Si 13.8962 6.47485 7.28887
O 11.1406 5.3527 10.1616
O 13.7568 1.01794 10.1427
O 12.4879 2.42654 8.49091
O 15.1691 6.83596 8.21701
O 11.7575 0.749761 6.45496
O 14.3057 5.12228 6.51259
O 10.907 3.27648 6.51771
O 13.5062 7.6117 6.24145
O 12.5731 6.49767 8.1967
O -0.111172 1.8885 7.89493
O 11.4823 7.95344 10.0451
O 14.3329 3.56597 9.84451
Si 0.0573265 12.7409 5.61155
Si 2.61762 8.59566 5.50896
Si 1.54328 15.4365 9.22689
Si 3.73296 10.9366 9.27008
Si 1.27589 10.4817 7.38937
Si 4.11553 15.258 7.32273
O 1.33179 14.0657 10.1465
O 3.36532 9.70576 10.1875
O 2.46303 11.1565 8.35142
O 5.51491 15.5655 8.01826
O 1.83082 9.09499 6.79172
O 4.3006 13.8684 6.63514
O 0.872772 11.4939 6.26139
O 3.79133 16.3799 6.25711
O 2.8393 15.1849 8.31478
O 4.91656 10.6787 8.17191
O 1.80407 16.7694 10.0408
O 4.18739 12.246 10.0797
Si 5.0527 13.1411 5.3664
Si 7.47541 8.64819 5.44803
Si 6.65251 15.2984 9.18725
Si 8.64964 11.1306 9.23045
Si 6.16995 10.8829 7.17594
Si 9.00513 15.1637 7.26791
O 6.01728 14.2047 10.1749
O 8.27519 9.96587 10.2738
O 7.45345 11.256 8.11725
O 10.2971 15.697 7.94524
O 6.46521 9.49585 6.34634
O 9.23046 13.906 6.35484
O 5.83667 11.9486 6.01383
O 8.40087 16.2362 6.1606
O 7.88352 14.9006 8.31433
O 10.0385 10.7497 8.43059
O 6.99449 16.5585 10.0109
O 8.92542 12.4218 10.0263
Si 10.1065 13.0575 5.33596
Si 12.5034 8.70003 5.62783
Si 11.3568 15.5287 9.13354
Si 13.8348 10.9256 9.21984
Si 11.2653 10.9852 7.45028
Si 14.0212 15.0073 7.44729
O 10.6783 14.439 10.1043
O 13.447 9.68676 10.1852
O 12.5162 11.4301 8.33165
O 0.308344 15.3398 8.2116
O 11.7877 9.50704 6.8306
O 14.3234 13.6399 6.6307
O 10.919 12.0035 6.28802
O 13.5419 16.1721 6.42339
O 12.7695 14.9099 8.54198
O 15.0015 10.3891 8.23457
O 11.8162 16.801 9.96031
O 14.5337 12.1652 9.96028
Si 0.143976 4.37357 10.8436
Si 2.60307 0.233464 11.2084
Si 1.24046 6.64254 14.7395
Si 3.65954 2.17829 14.6974
Si 1.15579 2.27268 13.0144
Si 3.82828 6.45372 12.9983
O 0.872645 5.63582 15.8696
O 3.44831 0.81565 15.5768
O 2.25593 2.75213 14.0581
O 4.94368 6.78861 13.9607
O 1.77613 0.957176 12.4189
O 4.25276 5.16113 12.1217
O 0.900672 3.33274 11.7901
O 3.49711 7.70456 12.0073
O 2.43523 6.0926 13.6918
O 4.81917 1.91818 13.641
O 1.70557 8.03291 15.3296
O 4.24071 3.35309 15.7291
Si 5.13188 4.48529 10.9547
Si 7.67158 0.0671695 11.1693
Si 6.31077 6.44605 14.7325
Si 8.78692 2.28804 14.4912
Si 6.18641 2.10692 12.7176
Si 8.70249 6.46138 12.8208
O 5.98369 5.23277 15.6687
O 8.60639 1.16074 15.6991
O 7.47586 2.34344 13.5848
O 9.99234 6.58152 13.798
O 6.49862 0.810684 11.8808
O 9.21595 5.30655 11.7731
O 5.94036 3.32792 11.7617
O 8.20867 7.76196 11.9646
O 7.45053 6.14921 13.6368
O 9.95324 1.71726 13.5486
O 6.96759 7.64314 15.5985
O 9.09906 3.64741 15.3559
Si 10.2059 4.38418 10.9625
Si 12.8012 17.503 11.042
Si 11.3598 6.42768 14.6205
Si 13.6879 2.37608 14.8337
Si 11.3016 2.21293 12.9138
Si 13.874 6.40143 12.8004
O 10.9924 5.40368 15.8465
O 13.5236 1.0966 15.7495
O 12.2166 2.65748 14.0868
O 15.0143 6.80439 13.7601
O 12.1129 0.982515 12.1549
O 14.3044 5.23244 11.9188
O 10.973 3.31595 11.8095
O 13.3093 7.53437 11.8492
O 12.594 6.02162 13.6939
O 14.7709 2.05836 13.7679
O 11.8315 7.81899 15.2318
O 14.119 3.69301 15.6607
Si 0.316272 13.0874 10.9102
Si 2.59141 8.76345 11.257
Si 1.14335 15.2483 14.7665
Si 3.71949 11.0801 14.8828
Si 1.16815 10.9192 13.0527
Si 3.68802 15.2867 13.0182
O 0.883198 13.9692 15.8364
O 3.55752 9.87802 15.9423
O 2.21891 11.1688 14.2654
O 4.88113 15.575 14.026
O 1.68331 9.57865 12.3037
O 4.20431 14.0481 12.1459
O 1.13548 11.9794 11.8292
O 3.40248 16.513 12.0503
O 2.38898 14.9988 13.8763
O 4.74221 10.9712 13.7299
O 1.55853 16.4106 15.744
O 4.07631 12.4306 15.6575
Si 5.08027 13.2417 11.0552
Si 7.44509 8.84334 11.0596
Si 6.24785 15.3753 14.931
Si 8.71413 10.9464 14.6952
Si 6.1757 11.0112 12.9291
Si 8.61399 15.1574 12.9895
O 5.89967 14.2755 15.9993
O 8.50729 9.73835 15.7232
O 7.35184 11.1294 13.9157
O 9.91779 15.4837 13.8894
O 6.52126 9.64156 12.1104
O 9.06942 13.9488 12.1315
O 6.04355 12.1965 11.8647
O 8.4157 16.4218 12.0154
O 7.29723 14.9079 13.9236
O 9.81408 10.7159 13.4942
O 6.77107 16.7144 15.5999
O 9.22006 12.2315 15.5058
Si 9.98091 13.2574 11.0144
Si 12.5402 8.6733 11.0327
Si 11.3225 15.1724 14.5462
Si 13.5468 11.145 14.6998
Si 11.1286 10.9558 12.638
Si 13.8466 15.1009 12.7972
O 11.0654 13.9629 15.6049
O 13.3364 9.88606 15.6672
O 12.186 11.3805 13.8933
O 14.9605 15.5731 13.7755
O 11.6996 9.66931 11.9374
O 14.4856 13.8524 12.015
O 10.8975 12.1665 11.6313
O 13.6228 16.3055 11.7326
O 12.4742 14.7168 13.4453
O 14.7769 10.8721 13.746
O 11.9632 16.4245 15.3901
O 14.0355 12.3331 15.6079
324
 Atoms. Timestep: 8000
Si 0.187805 4.47041 -0.0139391
Si 2.51547 0.00505461 16.5418
Si 1.33102 6.64712 3.61506
Si 3.63407 2.17641 3.78025
Si 1.15063 2.33143 1.7007
Si 3.73566 6.44107 1.61864
O 1.02968 5.24994 4.35335
O 3.30406 0.962326 4.663
O 2.39183 2.44088 2.79251
O 4.88784 6.87319 2.65255
O 1.51953 0.951339 0.871644
O 4.24529 5.08547 1.00156
O 1.21751 3.56901 0.767391
O 3.37728 7.53312 0.494467
O 2.40152 6.34981 2.50435
O 4.85637 1.79465 2.81856
O 1.7316 7.80416 4.60586
O 4.23703 3.41212 4.63921
Si 5.11747 4.16322 0.034515
Si 7.59266 17.3245 16.5295
Si 6.25275 6.5779 3.5888
Si 8.80733 2.2486 3.64255
Si 6.1631 1.92769 2.00152
Si 8.85856 6.56522 1.87631
O 6.06714 5.27416 4.61962
O 8.72516 1.068 4.72994
O 7.32625 2.38439 3.00143
O 9.87788 6.93998 3.02759
O 6.74125 0.652199 1.18696
O 9.48671 5.42053 1.02742
O 5.95009 3.16361 0.88167
O 8.61022 7.72669 0.767829
O 7.45167 6.23034 2.62127
O 9.77294 1.8539 2.42226
O 6.62906 7.82474 4.42218
O 9.32815 3.53831 4.37461
Si 10.2394 4.42293 16.5312
Si 12.8727 0.0653491 -0.0102127
Si 11.2985 6.64518 3.75292
Si 13.7285 2.29503 3.56716
Si 11.295 2.09657 1.78467
Si 13.8359 6.45416 1.96144
O 11.0772 5.47121 4.88079
O 13.6449 1.05787 4.57218
O 12.2766 2.46798 2.99928
O 14.9681 6.89104 2.99971
O 11.9194 0.967453 0.911682
O 14.363 5.15185 1.09529
O 11.1718 3.46455 0.788088
O 13.4893 7.60828 0.886861
O 12.5151 6.20473 2.83672
O 14.8546 2.14624 2.45474
O 11.758 7.92774 4.51215
O 14.1297 3.61163 4.37831
Si 15.1268 12.9776 16.4499
Si 2.4012 8.73305 16.5562
Si 1.03387 15.3888 3.82112
Si 3.79768 10.943 3.56001
Si 1.09395 10.7115 1.93639
Si 3.66519 15.3363 1.97065
O 0.86645 14.1216 4.86978
O 3.367 9.84873 4.68991
O 2.37667 11.1554 2.84748
O 4.89955 15.6392 3.09773
O 1.58916 9.40189 1.21911
O 4.0905 14.0523 1.2473
O 0.857743 11.8645 0.751136
O 3.42348 16.541 0.965369
O 2.25317 15.1288 2.85861
O 4.9396 10.506 2.59626
O 1.26241 16.7116 4.61337
O 4.38883 12.2239 4.3213
Si 4.92427 13.2532 0.135383
Si 7.68325 8.73176 0.0271942
Si 6.26416 15.2879 3.84646
Si 8.68582 10.8937 3.6819
Si 6.24676 11.0082 1.86472
Si 8.76169 15.0126 1.83461
O 6.03 14.1281 4.95769
O 8.41915 9.72177 4.70393
O 7.31865 11.2781 3.02696
O 9.87002 15.4651 2.84015
O 6.90074 9.72756 1.01587
O 9.24114 13.7177 1.13395
O 5.86925 12.1881 0.836768
O 8.52787 16.2711 0.705147
O 7.37668 14.9081 2.65153
O 9.76949 10.2744 2.58387
O 6.85955 16.6059 4.61949
O 9.39643 12.158 4.47331
Si 10.0928 12.9543 0.0779985
Si 12.6661 8.659 16.5394
Si 11.217 15.236 3.66653
Si 13.5409 10.9611 3.7958
Si 11.1046 10.6875 1.85188
Si 13.7392 15.0648 1.75558
O 11.0665 14.0574 4.72447
O 13.5192 9.8004 4.82426
O 12.1508 11.0164 3.00487
O 14.7535 15.2547 2.92876
O 11.6562 9.38827 1.0355
O 14.1568 13.8511 0.839281
O 10.9345 11.8661 0.841906
O 13.6565 16.5258 0.990925
O 12.2323 14.8554 2.45347
O 14.7956 10.6226 2.82536
O 11.6818 16.5873 4.44027
O 14.0521 12.3572 4.44534
Si 0.118596 4.33985 5.32527
Si 2.41181 17.38 5.51676
Si 1.42889 6.79296 9.16299
Si 3.59543 2.26347 9.18195
Si 1.10421 2.17594 7.35858
Si 3.9073 6.45822 7.28752
O 1.13757 5.64115 10.2424
O 3.22864 1.03694 10.1248
O 2.24676 2.68435 8.43503
O 5.26711 6.85384 8.07193
O 1.75477 0.887823 6.69597
O 4.32314 5.17903 6.54052
O 0.869147 3.20564 6.24175
O 3.63986 7.7174 6.28097
O 2.54994 6.31755 8.15079
O 4.75569 1.84433 8.15158
O 1.93557 8.14795 9.934
O 4.16248 3.43511 10.0739
Si 5.19979 4.25213 5.57326
Si 7.8592 0.0189455 5.55316
Si 6.47186 6.61033 9.19794
Si 8.80315 2.22142 9.26841
Si 6.26892 2.00006 7.53432
Si 8.89513 6.28539 7.26055
O 5.91234 5.4954 10.2005
O 8.75471 0.927277 10.2216
O 7.3396 2.39916 8.73436
O 10.2596 6.77776 7.93265
O 6.98096 0.843706 6.63888
O 9.19858 4.97431 6.50244
O 5.98735 3.26772 6.59916
O 8.40787 7.50055 6.30727
O 7.69707 6.19708 8.32405
O 9.80954 1.69154 7.99051
O 6.77891 8.0188 9.87829
O 9.47805 3.50436 9.90072
Si 10.1558 4.28899 5.47408
Si 12.7019 17.351 5.47211
Si 11.4004 6.68277 9.01417
Si 13.7263 2.35405 9.17154
Si 11.218 1.95267 7.36491
Si 13.9097 6.4367 7.2826
O 11.1257 5.67689 10.2398
O 13.408 1.2153 10.3086
O 12.2564 2.47318 8.46562
O 15.1131 6.91221 8.35541
O 11.9144 0.752436 6.58989
O 14.49 5.26323 6.44989
O 11.0248 3.07891 6.24605
O 13.4597 7.62407 6.40453
O 12.6709 5.96374 8.2348
O 14.7662 1.83449 8.11539
O 11.8794 8.07963 9.55233
O 14.3894 3.71599 9.75114
Si 15.0119 12.9722 5.53327
Si 2.61132 8.73563 5.54258
Si 1.25041 15.3119 9.20719
Si 3.56829 11.0639 9.15267
Si 1.06662 10.6743 7.31022
Si 3.73316 15.1013 7.28601
O 0.85306 14.0269 9.99805
O 3.33867 10.1682 10.4326
O 2.16762 11.2618 8.33197
O 5.03643 15.4825 8.1487
O 1.64695 9.36391 6.74199
O 4.07418 13.8735 6.34818
O 0.841871 11.7574 6.08413
O 3.26658 16.1742 6.20796
O 2.59569 14.8732 8.33703
O 4.71246 10.4752 8.11702
O 1.6373 16.4908 10.2007
O 4.24939 12.3695 9.72524
Si 5.07575 13.004 5.57532
Si 7.57002 8.66516 5.52594
Si 6.31909 15.3529 9.19382
Si 8.67922 11.1025 9.17358
Si 6.08406 10.7599 7.48314
Si 8.97648 15.0693 7.49435
O 6.04359 14.1752 10.2967
O 8.62557 9.8632 10.2728
O 7.16521 11.1418 8.55499
O 10.1455 15.3933 8.55534
O 6.77806 9.59059 6.57508
O 9.4478 13.6867 6.6998
O 5.89718 12.0245 6.46481
O 8.77297 16.2737 6.36193
O 7.58562 15.0279 8.30959
O 9.75895 10.6855 8.07828
O 6.63698 16.6968 10.056
O 9.19226 12.4307 9.89697
Si 10.2963 12.9093 5.53473
Si 12.6704 8.69028 5.57418
Si 11.4621 15.2465 9.41273
Si 13.736 10.9602 9.236
Si 11.1993 10.7669 7.46138
Si 13.8838 15.0955 7.31124
O 11.2519 13.9754 10.3603
O 13.5562 9.91896 10.4372
O 12.2042 11.1174 8.69304
O 0.0517034 15.602 8.12173
O 11.7223 9.55754 6.56057
O 14.2245 13.7397 6.67105
O 11.2158 11.9814 6.40165
O 13.5305 16.2679 6.2796
O 12.6426 14.9636 8.33404
O 14.7847 10.6611 8.07049
O 11.8345 16.505 10.3183
O 14.1733 12.294 9.90563
Si 0.340464 4.42949 10.8227
Si 2.54005 0.0303647 11.1428
Si 1.10875 6.7038 14.6091
Si 3.80216 2.16995 14.5624
Si 1.27604 2.33876 12.8748
Si 3.796 6.54588 12.8764
O 0.837985 5.61993 15.6962
O 3.3841 0.953063 15.4981
O 2.46813 2.81631 13.8836
O 4.9666 6.83981 13.9735
O 1.76652 0.930531 12.2275
O 4.11345 5.20492 12.0471
O 1.09543 3.34882 11.6667
O 3.68853 7.82563 11.7784
O 2.34325 6.40659 13.5843
O 4.96906 1.82536 13.4692
O 1.48073 8.02249 15.4406
O 4.4165 3.22898 15.5095
Si 5.0871 4.35995 11.0299
Si 7.70101 17.3724 10.981
Si 6.31467 6.52753 14.7764
Si 8.6496 2.2676 14.831
Si 6.37342 2.20489 12.8378
Si 8.79972 6.44053 12.8262
O 5.90969 5.17607 15.7714
O 8.33386 1.02666 15.7264
O 7.31328 2.67114 14.0179
O 10.0809 6.86872 13.658
O 7.03584 1.0081 11.9641
O 9.17909 5.22698 11.8532
O 6.11248 3.42367 11.8284
O 8.35558 7.56947 11.7915
O 7.4856 6.18039 13.7907
O 9.76164 1.97722 13.7334
O 6.74687 7.80412 15.6659
O 9.22029 3.49209 15.6837
Si 10.2695 4.49782 10.8894
Si 12.5876 0.0810543 11.2941
Si 11.4074 6.51145 14.5629
Si 13.7802 2.31638 14.7075
Si 11.2418 2.27201 12.9916
Si 13.9165 6.39796 12.6349
O 11.061 5.36072 15.5327
O 13.6984 1.10052 15.7276
O 12.3122 2.40985 14.1853
O 14.9046 6.84626 13.7382
O 11.6542 1.00382 12.1854
O 14.5328 5.04621 12.0196
O 11.0689 3.43742 11.9259
O 13.5687 7.54779 11.5274
O 12.4948 6.0466 13.4281
O 14.8994 2.03475 13.5609
O 11.9641 7.66375 15.4719
O 14.2708 3.56884 15.5479
Si -0.017244 13.0827 10.9555
Si 2.69926 8.87273 11.098
Si 1.19483 15.243 14.7368
Si 3.61116 11.0526 14.7982
Si 1.1584 10.8048 12.9087
Si 3.69458 15.1955 12.7694
O 0.975829 14.1113 15.832
O 3.31313 9.85126 15.8361
O 2.20194 11.2739 14.0889
O 4.86902 15.332 13.8989
O 1.77289 9.5767 12.2011
O 4.10792 14.0207 11.8087
O 0.89433 12.0461 11.8225
O 3.55867 16.5771 11.9607
O 2.37806 14.9669 13.6211
O 4.71134 10.5498 13.7194
O 1.64621 16.5329 15.5545
O 4.1432 12.3602 15.6073
Si 5.04947 13.0851 10.9096
Si 7.66464 8.79554 11.0298
Si 6.21801 15.2409 14.7738
Si 8.56664 10.992 14.697
Si 6.06959 10.8611 12.9461
Si 8.82016 15.0807 12.9981
O 5.94653 14.2326 16.001
O 8.51394 9.70166 15.6511
O 7.0937 11.3011 14.0653
O 9.86184 15.6527 14.0379
O 6.72726 9.65411 12.1452
O 9.35896 13.835 12.1028
O 5.82158 12.0274 11.8862
O 8.55383 16.2477 11.9169
O 7.45453 14.8992 13.7202
O 9.70574 10.5904 13.6264
O 6.57411 16.6085 15.4947
O 9.1634 12.1407 15.608
Si 10.1922 12.9547 11.044
Si 12.6462 8.69931 10.8692
Si 11.2817 15.3594 14.7394
Si 13.7009 10.9748 14.6612
Si 11.0883 10.5859 12.8699
Si 13.6948 15.1044 12.9753
O 10.9131 14.1017 15.7697
O 13.495 9.93988 15.9526
O 12.2661 10.935 13.8859
O 14.8265 15.3301 14.1004
O 11.6052 9.23634 11.9676
O 14.23 13.9491 12.0346
O 10.948 11.7333 11.7542
O 13.5222 16.4409 12.1378
O 12.2432 14.8495 13.6469
O 14.8659 10.5692 13.6383
O 12.075 16.5361 15.5486
O 14.1653 12.3812 15.2676
324
 Atoms. Timestep: 8500
Si 0.140848 4.29321 16.4877
Si 2.72601 0.017705 0.0793533
Si 1.41745 6.43538 3.73319
Si 3.6982 2.23748 3.71866
Si 1.25387 2.11415 1.82565
Si 3.87716 6.54962 1.75891
O 1.26816 5.25918 4.80482
O 3.4868 1.05726 4.83516
O 2.38543 2.53826 2.95972
O 4.95771 6.84095 2.91891
O 1.74491 0.759114 1.15187
O 4.2454 5.34736 0.896283
O 0.919462 3.20196 0.781038
O 3.58525 7.75625 0.738421
O 2.53505 6.24594 2.6345
O 4.81962 1.71471 2.64815
O 1.65968 7.79685 4.53011
O 4.26487 3.5948 4.43661
Si 5.18646 4.4375 16.4998
Si 7.57496 17.3303 16.4892
Si 6.30611 6.64994 3.62745
Si 8.76722 2.09181 3.54527
Si 6.11452 1.9221 1.76495
Si 8.92455 6.66553 1.81881
O 6.21144 5.29713 4.47269
O 8.54412 0.860667 4.52828
O 7.35435 2.22292 2.75291
O 10.1765 7.25029 2.62563
O 6.52145 0.693803 0.831066
O 9.51776 5.23371 1.29446
O 5.85852 3.34238 0.949808
O 8.59676 7.70449 0.579414
O 7.53321 6.51379 2.61806
O 9.95955 1.70553 2.60207
O 6.77927 7.89557 4.58681
O 9.35544 3.32916 4.34757
Si 10.1595 4.45305 0.0872723
Si 12.7146 0.0160515 16.4963
Si 11.308 6.71334 3.54537
Si 13.8649 2.29116 3.65282
Si 11.3587 2.05099 1.87708
Si 13.8568 6.4429 1.9055
O 10.8035 5.57818 4.46847
O 13.5954 1.17419 4.743
O 12.4183 2.44845 2.90388
O 15.0221 6.58302 2.99274
O 11.9565 0.725566 1.18111
O 14.3081 5.26142 0.897331
O 10.9319 3.1161 0.755003
O 13.4815 7.77966 1.05313
O 12.4589 6.06559 2.61099
O 14.9693 1.79665 2.59156
O 12.0327 7.79798 4.45251
O 14.5023 3.60508 4.44704
Si 0.0351174 12.9688 16.516
Si 2.72554 8.81679 16.5086
Si 1.23771 15.3141 3.54192
Si 3.5956 11.1368 3.788
Si 1.24042 10.8162 1.91039
Si 3.82873 15.2275 1.87241
O 1.04282 14.1443 4.6422
O 3.34232 9.7934 4.65086
O 2.37127 11.48 2.83217
O 4.80385 15.5739 3.09183
O 1.9005 9.54325 1.17828
O 4.40843 13.8638 1.13311
O 0.838716 11.8185 0.69538
O 3.7155 16.3618 0.811693
O 2.35332 14.9733 2.43338
O 4.7827 10.692 2.74622
O 1.85519 16.5775 4.35155
O 4.05772 12.2714 4.78739
Si 5.18496 13.0349 16.5585
Si 7.51051 8.87209 0.0209599
Si 6.2548 15.2315 3.79048
Si 8.72514 11.0033 3.75066
Si 6.13067 10.8541 1.95875
Si 8.63658 14.9693 1.76536
O 5.84595 14.0698 4.78654
O 8.6052 9.8568 4.94857
O 7.32696 11.2021 3.00738
O 9.80852 15.2914 2.81189
O 6.66121 9.47675 1.25862
O 8.95737 13.6658 0.949724
O 6.0038 11.8283 0.728281
O 8.22226 16.1812 0.779093
O 7.29096 14.8631 2.64818
O 9.85941 10.6967 2.71263
O 6.74094 16.4155 4.70143
O 9.07979 12.3906 4.48473
Si 10.0462 13.0584 16.5298
Si 12.5773 8.74572 0.182879
Si 11.1991 15.362 3.65181
Si 13.8081 11.0357 3.6315
Si 11.2367 10.849 1.85758
Si 13.7574 15.1483 1.7027
O 10.9508 14.2012 4.69761
O 13.5581 9.90889 4.77213
O 12.4563 11.3296 2.851
O 14.9659 15.5779 2.69195
O 11.6179 9.56444 1.09727
O 14.3537 13.7719 1.04717
O 10.9314 12.059 0.82431
O 13.4966 16.1062 0.481003
O 12.449 15.1079 2.64624
O -0.013458 10.5451 2.82232
O 11.8111 16.6308 4.43835
O 14.2425 12.3569 4.36312
Si 0.261714 4.27136 5.63577
Si 2.625 17.2861 5.48217
Si 1.36154 6.4487 9.31684
Si 3.83053 2.28775 9.18636
Si 1.27147 1.88962 7.46329
Si 3.8321 6.44045 7.35031
O 0.987983 5.29086 10.2731
O 3.70343 1.08658 10.2094
O 2.40638 2.46941 8.41637
O 4.995 6.77579 8.37795
O 1.78083 0.638779 6.63194
O 4.47914 5.35939 6.38646
O 0.95058 3.04157 6.37872
O 3.32655 7.66271 6.42278
O 2.50527 5.99628 8.17392
O 4.92811 1.89947 8.0001
O 1.93673 7.78364 10.0121
O 4.36578 3.59773 9.98221
Si 5.24184 4.40554 5.38359
Si 7.67494 0.0122582 5.56936
Si 6.31469 6.60592 9.2227
Si 8.64758 2.38086 9.1629
Si 6.29169 2.17713 7.20331
Si 8.84501 6.22835 7.2168
O 6.07192 5.45143 10.3553
O 8.46548 1.11207 10.0494
O 7.24482 2.63198 8.4017
O 10.069 6.68273 8.22082
O 6.80854 0.87252 6.53214
O 9.31202 4.90755 6.46781
O 6.13522 3.30356 6.11961
O 8.61524 7.45557 6.17352
O 7.58545 6.24828 8.23641
O 9.83512 2.21304 8.11209
O 6.84891 7.86516 10.0675
O 8.99092 3.61084 10.1473
Si 10.2658 4.22986 5.27858
Si 12.5966 0.0815288 5.51665
Si 11.3184 6.49654 9.15918
Si 13.8327 2.26847 9.28787
Si 11.2635 2.20718 7.31355
Si 13.8643 6.51015 7.42873
O 11.0136 5.21785 10.0788
O 13.4059 1.19423 10.4796
O 12.5204 2.42818 8.36308
O 15.0695 6.9151 8.44026
O 11.5539 0.853873 6.36474
O 14.4822 5.27006 6.59292
O 11.2023 3.33912 6.08594
O 13.5699 7.77447 6.48089
O 12.5845 6.08217 8.22979
O 15.0476 1.80809 8.40937
O 11.6694 7.7224 10.1653
O 14.2055 3.62163 10.0925
Si 0.0958721 13.1498 5.46183
Si 2.52298 8.71561 5.51374
Si 1.06991 15.3389 9.08591
Si 3.65997 11.0573 9.05996
Si 1.08103 10.8242 7.38184
Si 3.7011 15.0066 7.51509
O 0.821073 14.2954 10.344
O 3.66139 9.80888 10.0563
O 2.15672 11.2299 8.54602
O 4.73706 15.6324 8.57449
O 1.58849 9.50995 6.54925
O 4.42611 13.6665 6.98276
O 0.840796 12.0847 6.34569
O 3.47135 16.1303 6.31243
O 2.25453 14.714 8.15948
O 4.74586 10.6317 7.97699
O 1.79589 16.6921 9.68264
O 4.18856 12.3797 9.75299
Si 5.08923 13.0047 5.70907
Si 7.75159 8.63007 5.59456
Si 6.08461 15.3692 9.26658
Si 8.66529 11.1214 9.21745
Si 6.25359 10.7297 7.32554
Si 8.66894 15.1852 7.55192
O 5.91749 14.2229 10.3278
O 8.34168 10.0285 10.3677
O 7.29684 11.2578 8.49511
O 9.80469 15.5743 8.66239
O 6.92248 9.41187 6.69338
O 9.25345 13.9749 6.70919
O 6.1174 11.8672 6.23377
O 8.4034 16.412 6.60741
O 7.27126 14.9391 8.28891
O 9.71558 10.5879 8.15414
O 6.68033 16.653 10.0153
O 9.45869 12.308 9.88574
Si 10.0459 13.1867 5.55254
Si 12.6807 8.78285 5.57881
Si 11.2531 15.2634 9.28993
Si 13.6314 10.9435 9.18761
Si 11.0365 10.7833 7.24908
Si 13.5823 15.1731 7.3464
O 11.1557 14.1109 10.3577
O 13.4732 9.74817 10.3088
O 12.2999 11.0677 8.30988
O 14.7868 15.4906 8.41312
O 11.5398 9.49209 6.48102
O 14.1335 14.0986 6.34014
O 10.9136 11.9813 6.22283
O 13.4394 16.5561 6.47667
O 12.2018 14.9401 8.0808
O 14.7193 10.5017 8.09371
O 11.8239 16.6225 9.99384
O 14.0875 12.3664 9.94405
Si 0.0468009 4.26068 11.1397
Si 2.73753 17.3487 10.8303
Si 1.17875 6.64319 14.7097
Si 3.72537 2.25447 14.6918
Si 1.24466 1.88219 12.7612
Si 3.73798 6.5157 12.8788
O 1.11742 5.27968 15.656
O 3.37289 1.2548 15.9169
O 2.34367 2.43659 13.868
O 4.76925 6.87032 14.0627
O 1.86365 0.754393 11.8263
O 4.23017 5.13582 12.2343
O 1.009 3.08072 11.7364
O 3.69509 7.71955 11.8309
O 2.19382 6.45536 13.4999
O 4.89036 1.59469 13.657
O 1.77173 7.89446 15.6008
O 4.36867 3.50602 15.352
Si 5.1883 4.30128 11.1578
Si 7.76585 17.3848 11.0033
Si 6.19883 6.74013 14.7613
Si 8.65641 2.30437 14.8911
Si 6.24036 1.9077 12.9735
Si 8.77668 6.5543 12.975
O 6.10815 5.50968 15.7427
O 8.56991 1.05868 15.9066
O 7.34027 2.31002 14.0609
O 9.85823 6.86754 14.1145
O 6.85666 0.751952 12.0985
O 9.19133 5.34943 12.1068
O 5.96084 3.28863 12.0564
O 8.67045 7.77263 11.9149
O 7.338 6.42373 13.6113
O 9.82175 1.91701 13.7848
O 6.51188 8.19568 15.4297
O 9.04402 3.76001 15.6636
Si 9.99921 4.42508 11.098
Si 12.4913 0.0762073 11.101
Si 11.2922 6.64695 14.7432
Si 13.7917 2.27415 14.5894
Si 11.1266 2.15449 12.9117
Si 13.8481 6.43954 12.9947
O 11.1238 5.38205 15.7375
O 13.5876 1.13048 15.7477
O 12.3983 2.58815 13.8043
O 14.8837 7.07739 14.1344
O 11.5691 0.813704 12.1389
O 14.5429 5.10697 12.3601
O 10.7075 3.30349 11.9114
O 13.6798 7.45209 11.7421
O 12.4506 6.39712 13.7229
O 14.8696 1.69374 13.434
O 11.7063 7.91597 15.6829
O 14.4746 3.50717 15.3672
Si 14.9123 13.1938 11.0734
Si 2.79367 8.82018 10.9496
Si 1.2414 15.3391 14.7273
Si 3.61596 11.1874 14.6293
Si 1.09962 10.8048 12.8086
Si 3.67142 15.1838 12.6944
O 0.928684 14.0432 15.6309
O 3.50802 9.90134 15.6448
O 2.2133 11.3451 13.8653
O 4.91917 15.3859 13.713
O 1.73271 9.55238 11.9638
O 4.09379 13.6953 12.0458
O 0.70208 12.0035 11.7811
O 3.44536 16.2333 11.6144
O 2.30268 15.059 13.5918
O 4.76509 10.9358 13.4421
O 1.87603 16.5084 15.6446
O 4.13971 12.4646 15.4423
Si 5.06192 12.9802 10.9275
Si 7.61028 8.7524 11.1413
Si 6.2368 15.172 14.5165
Si 8.67617 11.0336 14.6123
Si 6.207 10.8754 12.7649
Si 8.70003 15.0797 12.7933
O 6.12883 14.0016 15.7021
O 8.36476 9.96522 15.8026
O 7.37201 11.3519 13.8049
O 9.76588 15.5306 13.9897
O 6.64137 9.39827 12.2099
O 9.39327 13.7028 12.1153
O 6.03647 11.9261 11.4962
O 8.53412 16.2442 11.7265
O 7.2934 14.7116 13.4023
O 9.85427 10.4636 13.6891
O 6.73539 16.5218 15.2371
O 9.32719 12.3424 15.2696
Si 10.313 12.9502 11.0083
Si 12.6597 8.53542 11.0901
Si 11.1315 15.4441 14.8627
Si 13.7917 10.7411 14.791
Si 11.3025 10.6903 12.8948
Si 13.7133 15.3047 13.1307
O 10.8638 14.3257 15.9942
O 13.6522 9.60219 15.8865
O 12.4545 11.0342 13.9644
O 15.0479 15.7233 13.8686
O 11.9069 9.33145 12.2866
O 14.063 13.9753 12.1692
O 11.1464 11.7763 11.8032
O 13.2516 16.3904 12.0411
O 12.4223 15.0242 14.0371
O 14.883 10.4126 13.6355
O 11.5921 16.9107 15.4166
O 14.2131 12.1 15.5492
324
 Atoms. Timestep: 9000
Si 0.158186 4.05906 0.0102175
Si 2.5835 17.3895 16.4983
Si 1.32836 6.51683 3.71429
Si 3.74984 2.41419 3.6727
Si 1.18243 1.75004 1.96972
Si 3.80646 6.43672 1.7859
O 1.12292 5.30852 4.77442
O 3.60748 1.2308 4.7653
O 2.27106 2.29786 2.97407
O 5.00304 6.92873 2.82516
O 1.67886 0.51065 1.15134
O 4.3378 5.02165 1.07034
O 0.816016 2.99217 1.00334
O 3.4634 7.4754 0.648219
O 2.51986 6.1473 2.6587
O 4.89583 2.03228 2.63206
O 1.72267 7.81592 4.56177
O 4.1804 3.72791 4.33191
Si 5.1252 4.35532 16.5486
Si 7.52367 17.3117 16.5615
Si 6.35332 6.78526 3.66451
Si 8.66092 2.27175 3.62719
Si 6.22287 2.0602 1.67651
Si 8.81606 6.55276 1.82421
O 6.13836 5.53542 4.70465
O 8.18633 1.18358 4.70528
O 7.44921 2.50442 2.61159
O 10.131 6.97566 2.72067
O 6.53117 0.719531 0.951971
O 9.07703 5.23444 0.985567
O 6.06779 3.22138 0.525152
O 8.53424 7.76345 0.863984
O 7.66347 6.36942 2.82263
O 10.0721 1.82294 2.92009
O 6.75711 8.1012 4.52456
O 9.07768 3.60185 4.4292
Si 10.0487 4.35802 0.030208
Si 12.6295 17.5308 16.5687
Si 11.3854 6.5813 3.58757
Si 13.7914 2.28039 3.71825
Si 11.2704 2.19828 1.99381
Si 14.0016 6.35743 1.77224
O 10.8727 5.34122 4.56324
O 13.3407 1.07617 4.7571
O 12.4392 2.6914 2.99075
O 15.1307 6.71579 2.82632
O 11.9071 0.896788 1.11648
O 14.2298 4.94793 0.961781
O 10.7628 3.30116 0.988564
O 13.6438 7.52846 0.702288
O 12.6177 6.13058 2.63852
O 14.8463 1.61316 2.69921
O 11.9723 7.76388 4.45362
O 14.4046 3.47172 4.56773
Si 0.244492 13.1202 0.046491
Si 2.5852 8.58352 16.4398
Si 1.24572 15.4997 3.69424
Si 3.71208 10.8542 3.68589
Si 1.32614 10.7612 1.72753
Si 3.75354 15.1892 1.75401
O 0.948684 14.3896 4.76911
O 3.52913 9.60298 4.74072
O 2.37063 10.9118 2.89078
O 4.85741 15.6823 2.70726
O 1.64201 9.36887 0.908857
O 4.4642 13.874 0.994546
O 1.21316 12.0344 0.799753
O 3.35481 16.1764 0.580265
O 2.51419 14.8653 2.74172
O 4.85032 10.6623 2.64977
O 1.85258 16.7785 4.33917
O 4.1854 12.171 4.49853
Si 5.21164 12.9641 16.3832
Si 7.60338 8.76563 0.0122718
Si 6.06575 15.2899 3.72473
Si 8.77499 11.0316 3.55774
Si 6.23889 10.7786 1.8029
Si 8.70358 15.237 1.85575
O 5.73755 14.147 4.72033
O 8.52335 9.93827 4.71768
O 7.41954 11.1789 2.75543
O 9.92201 15.431 2.87967
O 6.59371 9.34745 1.1337
O 9.21288 13.9912 0.988977
O 5.99543 11.8768 0.656182
O 8.4148 16.3694 0.928759
O 7.31368 14.9307 2.74524
O 9.97715 10.5527 2.56744
O 6.58211 16.5344 4.56993
O 9.18284 12.3005 4.43307
Si 10.169 13.1242 -0.0703464
Si 12.809 8.69353 -0.0368628
Si 11.2099 15.2838 3.8199
Si 13.9503 11.0213 3.52555
Si 11.379 10.8255 1.84219
Si 13.6901 15.0861 1.93121
O 11.0317 14.1798 4.96614
O 13.567 9.74297 4.41975
O 12.5782 11.478 2.74907
O 15.0207 15.6165 2.82614
O 12.0612 9.60111 1.09919
O 14.2829 13.8245 1.14379
O 11.0279 12.0173 0.775217
O 13.3596 16.231 0.740299
O 12.5081 14.851 2.9139
O 14.96 10.5713 2.37661
O 11.4351 16.7264 4.58802
O 14.5119 12.2306 4.48905
Si 0.270002 4.30531 5.65202
Si 2.73109 0.107614 5.46275
Si 1.1427 6.53844 9.28174
Si 3.78887 2.073 9.29043
Si 1.22153 1.94771 7.44334
Si 3.66082 6.48871 7.5516
O 1.00148 5.30167 10.3067
O 3.59578 0.829763 10.2053
O 2.35133 2.08386 8.51274
O 4.8492 6.91011 8.54035
O 1.67907 0.834926 6.41837
O 4.25083 5.33539 6.54112
O 1.10784 3.3313 6.51191
O 3.07875 7.72318 6.6667
O 2.40436 6.118 8.36835
O 5.03337 1.92012 8.29876
O 1.53144 7.76889 10.1372
O 4.07676 3.45372 10.1394
Si 5.08608 4.49831 5.48765
Si 7.4768 0.0711758 5.58263
Si 6.21363 6.60531 9.23374
Si 8.80587 2.41702 9.23365
Si 6.29424 2.21836 7.36462
Si 8.78616 6.61632 7.38378
O 5.96718 5.26216 10.0947
O 8.36582 1.17311 10.1897
O 7.56894 2.64721 8.20265
O 9.91945 6.85971 8.47409
O 6.65484 0.881459 6.65479
O 9.05305 5.24762 6.53463
O 5.82378 3.41222 6.38915
O 8.72558 7.81106 6.30783
O 7.38928 6.3854 8.115
O 10.1598 1.91352 8.52168
O 6.74698 7.76941 10.2012
O 9.13091 3.62549 10.2051
Si 10.0026 4.4498 5.48277
Si 12.4618 0.103803 5.54416
Si 11.2679 6.54449 9.26348
Si 13.7537 2.23133 9.10465
Si 11.2051 2.32103 7.42758
Si 13.809 6.45497 7.3302
O 11.0391 5.29053 10.2602
O 13.2744 1.09979 10.0499
O 12.54 2.72838 8.15687
O 14.8838 6.74097 8.48857
O 11.5566 1.05471 6.60207
O 14.4022 5.21197 6.49857
O 10.7028 3.4064 6.46966
O 13.643 7.72429 6.35852
O 12.3945 6.21952 8.16693
O 14.8657 1.70529 8.05502
O 11.9069 7.82244 10.0451
O 14.4312 3.41932 9.91951
Si 0.176313 13.2336 5.50375
Si 2.39319 8.77902 5.63233
Si 0.978705 15.3267 9.08314
Si 3.71038 10.8811 9.32747
Si 1.23724 11.0413 7.38427
Si 3.54001 15.2415 7.339
O 0.807682 13.9978 10.0237
O 3.40751 9.712 10.3709
O 2.42559 11.0751 8.37834
O 4.55063 15.6868 8.49582
O 1.45519 9.78089 6.39672
O 4.14344 13.898 6.65034
O 1.11031 12.2962 6.47402
O 3.4774 16.3552 6.20058
O 2.08967 14.9781 7.9956
O 4.95402 10.5596 8.36352
O 1.60603 16.4553 10.0276
O 4.23818 12.2296 9.97175
Si 4.99972 13.0258 5.55301
Si 7.68476 8.85012 5.58927
Si 5.97951 15.44 9.15783
Si 8.90117 10.9397 9.09699
Si 6.28945 10.8923 7.43418
Si 8.49383 15.2794 7.35282
O 5.77921 14.2724 10.2472
O 8.50266 9.68489 10.1351
O 7.5051 11.2722 8.35736
O 9.62127 15.4719 8.46923
O 6.73201 9.5536 6.69673
O 8.95175 13.9537 6.52817
O 5.95438 11.953 6.27893
O 8.40728 16.5383 6.40056
O 7.12463 15.0605 8.07216
O 9.96779 10.4804 7.9336
O 6.63907 16.6717 9.94584
O 9.36941 12.2557 9.93628
Si 9.9993 13.1041 5.53022
Si 12.8156 8.69928 5.38346
Si 11.1478 15.2943 9.11796
Si 13.7152 10.9377 9.27786
Si 11.3637 10.7869 7.23619
Si 13.5839 15.212 7.27157
O 11.0556 14.0914 10.1839
O 13.5531 9.71287 10.2031
O 12.2887 11.0813 8.50399
O 14.7204 15.6343 8.34271
O 11.9598 9.60346 6.3709
O 14.2738 13.9996 6.44133
O 10.9366 12.0429 6.31565
O 13.3462 16.441 6.30796
O 12.1653 14.9924 7.89768
O 14.9747 10.9179 8.2041
O 11.6169 16.6158 9.76426
O 13.9742 12.2536 10.1496
Si 0.100294 4.26606 11.0614
Si 2.67113 17.2124 10.9861
Si 1.20482 6.34316 14.7544
Si 3.79245 2.33479 14.7848
Si 1.27454 1.93813 12.8628
Si 3.63438 6.45201 12.8837
O 1.08324 5.13794 15.8349
O 3.58159 1.10581 15.8704
O 2.4281 2.35441 13.8969
O 4.80292 6.95741 13.9865
O 1.82744 0.769611 12.0313
O 4.28512 5.18364 12.0602
O 0.938226 3.24463 12.0073
O 3.40233 7.58025 11.8318
O 2.41056 5.98376 13.7349
O 5.08132 1.96076 13.9116
O 1.60357 7.76637 15.4252
O 4.23276 3.7004 15.4512
Si 5.10695 4.33931 11.0375
Si 7.59919 0.0108583 10.9085
Si 6.23972 6.67056 14.7676
Si 8.83603 2.11154 14.6472
Si 6.31371 2.11197 12.844
Si 8.74399 6.54207 13.07
O 6.04263 5.57405 15.9004
O 8.30443 0.958684 15.7269
O 7.60418 2.48175 13.7441
O 9.82028 6.94166 14.2408
O 6.79364 0.747554 12.1302
O 9.46485 5.16186 12.3937
O 5.96387 3.21094 11.8102
O 8.65667 7.69403 11.9403
O 7.3626 6.19091 13.7599
O 10.1221 1.72074 13.8275
O 6.74396 7.99087 15.5068
O 9.356 3.4387 15.4701
Si 10.1613 4.35974 11.21
Si 12.5364 17.3306 10.9122
Si 11.251 6.66357 14.8902
Si 13.929 2.04384 14.5917
Si 11.3701 1.92382 12.9362
Si 13.7372 6.47883 12.9864
O 11.0162 5.4148 15.9112
O 13.64 1.07758 15.7972
O 12.5565 2.31222 13.8337
O 14.8797 6.59015 13.9798
O 11.7097 0.640837 12.0372
O 14.2161 5.16434 12.0798
O 11.0566 3.17836 11.905
O 13.5721 7.71142 11.9853
O 12.3495 6.19584 13.6997
O 14.9663 1.49757 13.5587
O 11.7799 7.92524 15.6568
O 14.5957 3.25894 15.3254
Si 0.0648518 13.0187 11.0482
Si 2.507 8.60411 11.0845
Si 1.20347 15.4145 14.6923
Si 3.79754 10.8839 14.6532
Si 1.24156 10.8107 12.8507
Si 3.64008 14.997 12.9409
O 0.979282 14.3403 15.86
O 3.57062 9.83445 15.8917
O 2.44089 10.8561 13.9085
O 4.70088 15.3763 13.9798
O 1.55986 9.48844 11.9795
O 4.14819 13.6646 12.1843
O 1.01011 11.9521 11.817
O 3.42336 16.1259 11.86
O 2.28534 14.7634 13.7416
O 4.99385 10.6187 13.6359
O 1.72765 16.8487 15.2771
O 4.25856 12.2553 15.2954
Si 5.09527 13.0609 11.0333
Si 7.71719 8.65649 11.1058
Si 6.19741 15.2181 14.58
Si 8.76469 11.0827 14.7269
Si 6.32235 10.8456 12.7367
Si 8.77383 15.3194 12.7005
O 6.17751 14.0469 15.5923
O 8.36719 10.0173 15.8967
O 7.57455 11.13 13.717
O 9.7772 15.6183 13.9209
O 6.80523 9.45581 12.1034
O 9.30383 14.0064 12.0476
O 6.12132 11.9619 11.6908
O 8.55449 16.4342 11.5939
O 7.26127 15.1846 13.4108
O 10.0108 10.6107 13.8363
O 6.72611 16.3905 15.5784
O 9.20327 12.3761 15.4905
Si 10.1854 13.1037 11.0531
Si 12.6846 8.71812 11.0374
Si 11.2074 15.4241 14.6569
Si 13.9149 10.9746 14.695
Si 11.292 10.8424 12.8999
Si 13.8182 15.1764 12.8658
O 11.0494 14.2361 15.7195
O 13.6464 9.67372 15.6025
O 12.4934 11.2952 13.9699
O 14.7963 15.6669 13.973
O 11.6111 9.52971 11.9534
O 14.4467 13.9111 12.1763
O 11.0163 12.1047 11.9008
O 13.4937 16.2586 11.66
O 12.3378 15.047 13.5387
O 15.0191 10.656 13.6754
O 11.6717 16.8066 15.414
O 14.4558 12.2388 15.556
324
 Atoms. Timestep: 9500
Si 0.00758695 4.41147 0.0167541
Si 2.70342 17.3835 16.4988
Si 1.23256 6.70458 3.6428
Si 3.83062 2.47292 3.5729
Si 1.30609 2.11736 1.81299
Si 3.76738 6.57552 1.92693
O 0.872933 5.68301 4.80497
O 3.65269 1.17086 4.52555
O 2.43065 2.6153 2.7921
O 4.87152 7.14637 2.86611
O 1.95023 0.857587 1.02319
O 4.49358 5.37857 1.1669
O 0.918096 3.26647 0.709525
O 3.24054 7.55806 0.809054
O 2.41074 6.15341 2.66793
O 4.97017 2.18634 2.56152
O 1.63315 8.11882 4.27126
O 4.15067 3.77009 4.45828
Si 5.22997 4.38349 16.5623
Si 7.66817 17.3538 16.5337
Si 6.28005 6.75074 3.73789
Si 8.79909 2.40663 3.75426
Si 6.38933 2.19945 1.76959
Si 8.72538 6.32345 1.86624
O 5.87784 5.61203 4.83935
O 8.5472 1.12003 4.64242
O 7.44817 2.55975 2.99348
O 9.8527 6.79812 2.89604
O 6.90961 0.834167 1.15726
O 9.21452 5.06782 1.08487
O 6.13249 3.26441 0.723737
O 8.51383 7.48785 0.790687
O 7.31758 6.27369 2.68066
O 9.91986 2.08225 2.55055
O 6.88726 7.93336 4.54663
O 9.22856 3.66024 4.57377
Si 10.2451 4.34821 0.025412
Si 12.5236 17.3482 0.0995568
Si 11.2395 6.62133 3.71054
Si 13.9042 2.27544 3.74871
Si 11.3034 2.01478 1.85198
Si 13.7444 6.45694 1.84179
O 11.1606 5.46688 4.83352
O 13.6808 1.08043 4.86133
O 12.4254 2.32205 3.06326
O 14.9336 6.80193 2.8648
O 11.4959 0.612961 1.18917
O 14.3524 5.08377 1.20443
O 11.1961 3.19502 0.662119
O 13.6282 7.50318 0.638461
O 12.4097 6.27851 2.61973
O 15.026 1.90205 2.66165
O 11.7658 7.96777 4.4864
O 14.2318 3.66104 4.39802
Si 0.00961588 13.252 0.164727
Si 2.54667 8.59662 16.4505
Si 1.24104 15.292 3.60673
Si 3.92164 10.8947 3.58466
Si 1.35079 10.8955 1.69526
Si 3.64467 15.0213 1.82218
O 1.06232 14.1012 4.65456
O 3.54347 9.85889 4.75105
O 2.59149 11.2336 2.66509
O 4.87866 15.3141 2.8948
O 1.67951 9.65875 0.717231
O 4.06089 13.7416 1.02933
O 0.980501 12.1331 0.745112
O 3.58263 16.3176 0.734951
O 2.16292 14.869 2.37583
O 5.03397 10.4576 2.52217
O 1.94742 16.5658 4.30028
O 4.33973 12.227 4.33558
Si 5.042 12.9613 0.0465892
Si 7.86169 8.58855 16.4823
Si 6.31158 15.3351 3.62851
Si 8.92661 11.0067 3.60563
Si 6.3874 10.7848 1.77464
Si 8.86959 15.1916 1.81412
O 6.04914 14.2618 4.8595
O 8.79171 9.83007 4.72538
O 7.50854 11.187 2.87722
O 9.98788 15.5588 2.92469
O 6.98345 9.51832 0.964197
O 9.44977 13.8937 0.998849
O 6.04433 12.0395 0.852605
O 8.61936 16.3275 0.728903
O 7.51109 15.0006 2.64146
O 10.0888 10.6179 2.45248
O 6.69798 16.7341 4.42333
O 9.60728 12.269 4.33372
Si 10.4417 13.1301 16.5569
Si 12.8402 8.72059 16.4916
Si 11.2335 15.4966 3.81295
Si 13.9401 10.9073 3.62166
Si 11.5295 10.8788 1.74306
Si 13.7385 15.1938 2.07736
O 10.8812 14.3632 4.97383
O 13.6401 9.83531 4.78874
O 12.5881 11.1653 2.9076
O 14.8623 15.6938 3.05803
O 12.0685 9.56328 1.03183
O 14.3041 13.9283 1.32808
O 11.363 12.1357 0.825573
O 13.3014 16.2391 0.929701
O 12.4154 15.0359 2.93228
O 15.0849 10.5033 2.5579
O 11.7115 16.8105 4.50115
O 14.5757 12.2378 4.21941
Si 15.0102 4.55413 5.42969
Si 2.77884 0.148183 5.35042
Si 0.943979 6.7222 9.36922
Si 3.58814 2.11007 9.23353
Si 1.1695 2.23173 7.00321
Si 3.51559 6.5007 7.41437
O 0.713883 5.59119 10.4917
O 3.36751 0.857224 10.2332
O 2.36906 2.39357 8.24455
O 4.61231 7.05041 8.45906
O 1.6603 0.973006 6.20455
O 4.11707 5.19479 6.71551
O 0.875328 3.49064 6.14239
O 3.19152 7.55363 6.28389
O 2.22896 6.19819 8.44725
O 4.88606 1.92271 8.33402
O 1.43724 8.12442 9.95341
O 3.91635 3.37901 10.1644
Si 5.08414 4.44463 5.52669
Si 7.6361 0.142447 5.52509
Si 6.01382 6.49382 9.13466
Si 8.66273 2.25977 9.2969
Si 6.2255 2.27724 7.38799
Si 8.56296 6.59725 7.47921
O 5.75473 5.10785 9.91973
O 8.1931 1.07579 10.269
O 7.43645 2.6706 8.34794
O 9.65941 6.74946 8.6637
O 6.63224 0.9828 6.56002
O 9.3093 5.39437 6.65837
O 5.88329 3.31103 6.25581
O 8.39649 7.89065 6.63374
O 7.15195 6.25862 8.13082
O 9.83756 1.67364 8.32633
O 6.55379 7.45011 10.2588
O 9.46018 3.60204 10.0995
Si 10.2135 4.46947 5.65671
Si 12.6782 0.0343946 5.61122
Si 11.1247 6.70387 9.31221
Si 13.8105 2.26812 8.93656
Si 11.1793 2.03554 7.47987
Si 13.5973 6.42078 7.28445
O 11.0984 5.46886 10.3306
O 13.4553 0.96742 9.89367
O 12.3846 2.60286 8.42188
O 14.7028 6.80137 8.48107
O 11.7406 0.820723 6.62653
O 13.9498 5.12772 6.50665
O 10.8608 3.21198 6.40108
O 13.629 7.56164 6.21028
O 12.1719 6.42888 8.05333
O 14.8855 1.95313 7.76565
O 11.5996 7.944 10.116
O 14.3645 3.46874 9.79337
Si 0.111622 13.087 5.45628
Si 2.57237 8.72619 5.40871
Si 1.08661 15.3815 9.20093
Si 3.7238 10.8733 9.25835
Si 1.26135 10.8451 7.32584
Si 3.5496 15.2697 7.23758
O 1.02662 14.1152 10.2213
O 3.5221 9.6677 10.3286
O 2.38196 11.1122 8.36323
O 4.80023 15.2646 8.20547
O 1.71567 9.63984 6.45338
O 3.82468 14.1123 6.20203
O 1.03031 12.066 6.30266
O 3.4662 16.6194 6.45771
O 2.20931 14.9748 8.07978
O 5.07771 10.5843 8.24974
O 1.51108 16.5948 10.0537
O 4.094 12.1491 10.2505
Si 4.97893 13.2374 5.4844
Si 7.80094 8.89787 5.58223
Si 6.16886 15.1526 9.1451
Si 8.79775 10.6975 9.24329
Si 6.26451 11.0968 7.35795
Si 8.54705 15.0634 7.23235
O 5.7782 14.1344 10.3652
O 8.24937 9.38208 10.032
O 7.50417 11.365 8.4019
O 9.76496 15.4185 8.32617
O 6.83468 9.91944 6.329
O 8.95884 13.7049 6.4637
O 5.64935 12.336 6.61293
O 8.34656 16.4061 6.30937
O 7.28506 14.8232 8.12579
O 9.93959 10.4923 8.15633
O 6.60207 16.5459 9.76369
O 9.37803 11.6273 10.3725
Si 10.1403 13.1011 5.58404
Si 12.737 8.74231 5.541
Si 11.1137 15.1408 9.10541
Si 13.9147 10.9485 9.23034
Si 11.3522 10.8447 7.45945
Si 13.7238 15.0464 7.4044
O 10.7503 13.9524 10.1363
O 13.6957 9.748 10.2712
O 12.449 11.1392 8.55074
O 14.7328 15.4117 8.48533
O 11.9386 9.54687 6.6401
O 14.2472 13.868 6.48326
O 11.0238 12.1092 6.46639
O 13.5285 16.3702 6.42618
O 12.3362 14.83 8.2197
O 14.9236 10.6678 8.04908
O 11.5205 16.4158 9.98925
O 14.3123 12.3537 9.87965
Si 15.0305 4.28913 11.0956
Si 2.38963 17.3738 11.11
Si 1.18817 6.42055 14.5783
Si 3.76005 2.47807 14.7523
Si 1.1707 2.14682 13.0189
Si 3.81899 6.43135 12.9124
O 0.934197 5.33584 15.673
O 3.6627 1.08414 15.6428
O 2.38775 2.62365 13.9401
O 4.92074 6.94894 13.8592
O 1.60474 0.854795 12.1033
O 4.40616 5.13137 12.1508
O 0.761582 3.24084 11.8808
O 3.34729 7.49851 11.7081
O 2.41597 6.12968 13.6074
O 4.88035 2.24724 13.6777
O 1.51181 7.74517 15.5166
O 4.11471 3.67685 15.7471
Si 5.05252 4.16466 10.9674
Si 7.3864 17.3575 10.9292
Si 6.34861 6.63667 14.5571
Si 8.87017 2.29333 14.5889
Si 6.26626 2.12679 12.9203
Si 8.90582 6.33737 12.9025
O 6.04113 5.43214 15.516
O 8.5126 1.04982 15.6184
O 7.40238 2.45906 13.9102
O 9.80151 6.92694 14.0454
O 6.55959 0.764433 12.0643
O 9.6263 5.12349 12.2762
O 6.15471 3.15043 11.6816
O 8.6745 7.48725 11.7952
O 7.4391 6.20086 13.4744
O 9.88892 1.88651 13.5346
O 6.98254 7.86526 15.3742
O 9.48967 3.47327 15.4599
Si 10.4456 4.33063 11.1599
Si 12.6012 17.342 10.7831
Si 11.194 6.72609 14.815
Si 13.7857 2.12888 14.9259
Si 11.3894 1.97565 12.8074
Si 13.6521 6.32126 12.8628
O 10.991 5.62269 15.9246
O 13.4606 1.08509 16.0872
O 12.4847 2.20679 13.9836
O 14.9229 6.62473 13.7987
O 11.895 0.684442 12.0346
O 13.9152 4.98322 12.0455
O 11.3834 3.17948 11.7355
O 13.4706 7.47265 11.7619
O 12.2987 6.28807 13.7859
O 15.0413 1.79325 13.9921
O 11.8019 8.03054 15.4597
O 14.0663 3.59493 15.5887
Si 0.15762 13.0146 10.991
Si 2.5236 8.67959 11.0799
Si 1.11913 15.4548 14.7206
Si 3.8562 10.6806 14.602
Si 1.2259 10.8027 12.9612
Si 3.67403 15.1119 12.9625
O 0.706907 14.4108 15.9423
O 3.49663 9.44205 15.516
O 2.48218 11.0514 13.8755
O 4.69972 15.5665 14.0405
O 1.59448 9.43155 12.1839
O 4.32019 13.7981 12.2681
O 0.987746 11.9122 11.7402
O 3.19402 16.21 11.9261
O 2.33206 14.7909 13.8739
O 5.04808 10.3983 13.5998
O 1.69791 16.7494 15.3691
O 4.35161 11.8875 15.6114
Si 5.13581 12.9518 11.2074
Si 7.53268 8.39764 11.0737
Si 6.09964 15.3645 14.843
Si 8.92743 10.9493 14.8069
Si 6.47031 10.6769 12.8673
Si 8.55554 15.0483 12.8903
O 5.81931 14.0975 15.7936
O 8.74075 9.5765 15.612
O 7.49683 11.1312 14.032
O 9.74611 15.4034 13.9139
O 6.87375 9.37088 12.1529
O 9.02594 13.7378 12.087
O 6.2433 11.887 11.8096
O 8.19379 16.2035 11.8269
O 7.20671 14.9149 13.7086
O 9.94753 10.5832 13.5089
O 6.59495 16.5717 15.7476
O 9.62909 12.0864 15.6221
Si 10.0295 12.9194 11.1916
Si 12.7587 8.66273 11.0883
Si 11.259 15.3256 14.5488
Si 13.7885 11.0553 14.8847
Si 11.3072 10.8267 12.8535
Si 13.7645 15.111 12.7312
O 11.1659 14.1269 15.5849
O 13.746 9.80905 15.8161
O 12.3519 11.0624 14.1326
O 14.9443 15.5988 13.7582
O 12.0289 9.63518 12.0999
O 14.3416 13.7582 12.1082
O 11.1509 12.1459 11.9993
O 13.5692 16.177 11.4574
O 12.3946 15.0074 13.4725
O 14.9208 10.8789 13.7588
O 11.7288 16.606 15.3922
O 14.1216 12.405 15.7174
324
 Atoms. Timestep: 10000
Si 15.031 4.34793 0.00143708
Si 2.64436 17.4249 -0.00631401
Si 1.18938 6.78894 3.75727
Si 3.89211 2.20459 3.58127
Si 1.30448 2.20372 1.84552
Si 3.65644 6.35776 1.93913
O 0.790828 5.6988 4.82309
O 3.3755 1.23077 4.69131
O 2.59259 2.53512 2.80162
O 4.79937 6.7857 2.99961
O 1.7717 0.846488 1.05034
O 4.06132 5.14105 1.06509
O 0.980193 3.28414 0.75748
O 3.48012 7.66831 0.994837
O 2.26623 6.26844 2.82182
O 5.07187 1.76157 2.60439
O 1.81495 8.12012 4.34874
O 4.59884 3.50789 4.3371
Si 5.17253 4.50188 0.100866
Si 7.83351 0.134392 16.5331
Si 6.17001 6.67186 3.78226
Si 8.87182 2.24299 3.84538
Si 6.3664 2.22012 1.85392
Si 8.62966 6.22842 1.93677
O 5.98659 5.56489 4.99177
O 8.63092 1.14241 4.98543
O 7.45553 2.46224 3.02461
O 9.88248 6.65288 2.8682
O 7.04972 1.11463 0.883971
O 9.04675 4.93824 1.10563
O 6.15151 3.5489 0.957935
O 8.36445 7.39542 0.8197
O 7.27324 6.19629 2.79352
O 9.97549 1.95138 2.81212
O 6.64217 8.11053 4.39078
O 9.38034 3.61916 4.61097
Si 10.0642 4.32827 0.0210505
Si 12.5547 17.3636 16.5159
Si 11.2429 6.7106 3.70256
Si 13.8898 2.18087 3.68069
Si 11.222 2.09736 1.83955
Si 13.6941 6.4393 1.85714
O 11.0191 5.61862 4.88335
O 13.6812 0.997639 4.70913
O 12.4857 2.32761 2.83952
O 14.8766 7.01296 2.83106
O 11.6686 0.735467 1.0962
O 14.1783 5.09868 1.12751
O 10.9502 3.27793 0.771762
O 13.3186 7.48855 0.66429
O 12.425 6.24286 2.77661
O 15.0842 1.87647 2.70522
O 11.6845 8.03649 4.4065
O 14.1922 3.58493 4.45269
Si 0.230632 13.0836 0.0823238
Si 2.63587 8.65932 0.0998843
Si 1.16667 15.3534 3.59369
Si 3.95051 11.0684 3.73932
Si 1.4288 10.883 1.97711
Si 3.79316 15.0583 1.7962
O 0.898513 14.1942 4.6128
O 3.76119 9.85166 4.70342
O 2.5992 11.2647 2.96423
O 4.89536 15.7385 2.83096
O 1.73927 9.58708 1.12777
O 4.40628 13.7954 1.19118
O 1.1859 12.1604 0.973008
O 3.46407 16.0481 0.561168
O 2.4062 15.037 2.56792
O 5.12078 10.7028 2.64826
O 1.73048 16.6489 4.46394
O 4.23577 12.5391 4.32464
Si 5.38213 13.0326 0.0741431
Si 7.8013 8.62567 0.0453016
Si 6.25611 15.4419 3.50895
Si 8.93552 11.1392 3.71111
Si 6.49495 10.7421 1.85154
Si 8.83139 15.1525 1.82308
O 6.11377 14.3142 4.67673
O 8.51333 10.014 4.80725
O 7.63007 11.2121 2.83669
O 9.87062 15.5744 2.93048
O 6.93464 9.50356 0.998668
O 9.35021 13.8715 1.0691
O 6.1934 11.9214 0.83413
O 8.67649 16.4358 0.791528
O 7.33793 14.8997 2.39387
O 10.1319 10.7069 2.78732
O 6.7974 16.8325 4.12344
O 9.32956 12.4399 4.45872
Si 10.0799 12.9389 16.5785
Si 12.5354 8.648 16.4211
Si 11.2892 15.4305 3.78062
Si 13.8937 10.9403 3.71536
Si 11.4214 10.8375 1.78896
Si 13.7714 15.1727 1.78118
O 10.922 14.4296 4.93729
O 13.4748 9.83015 4.77899
O 12.689 11.1004 2.72769
O 14.9227 15.5473 2.80356
O 11.7429 9.54809 0.896499
O 14.2411 13.8725 1.03224
O 11.0158 11.9826 0.78248
O 13.6333 16.3886 0.665502
O 12.4505 15.017 2.71901
O 0.0867502 10.6661 2.79939
O 11.7947 16.628 4.5816
O 14.2362 12.3061 4.57618
Si 14.9822 4.47122 5.42083
Si 2.63404 0.10549 5.45191
Si 1.15102 6.5283 9.04916
Si 3.57114 2.11591 9.06986
Si 1.11232 2.19188 7.34552
Si 3.56817 6.42177 7.1221
O 1.02 5.15821 9.93401
O 3.31853 0.819931 9.99151
O 2.07443 2.47672 8.52526
O 4.50844 6.69071 8.40877
O 1.66159 0.941286 6.44521
O 4.07044 5.05176 6.51056
O 0.803912 3.44497 6.38942
O 3.59161 7.61773 6.04601
O 1.97601 6.39761 7.66253
O 4.74639 1.77964 8.04044
O 1.65813 7.76522 10.0363
O 4.03138 3.35273 9.93807
Si 5.19943 4.32284 5.56935
Si 7.5978 0.0465211 5.37876
Si 5.92479 6.62527 9.22375
Si 8.691 2.02845 9.17802
Si 6.14328 1.97028 7.34863
Si 8.50559 6.56785 7.3447
O 5.71052 5.43061 10.2231
O 8.56224 0.88552 10.2305
O 7.29719 2.19847 8.50766
O 9.71108 6.83508 8.30402
O 6.61721 0.759546 6.39108
O 8.93757 5.23733 6.53144
O 5.96672 3.2542 6.48369
O 8.37632 7.69589 6.17069
O 7.11785 6.46109 8.15504
O 9.78984 1.71198 8.04367
O 6.42614 7.92099 10.0701
O 9.13599 3.39312 9.90354
Si 10.0556 4.44599 5.7248
Si 12.685 -0.00890276 5.56732
Si 10.9853 6.62931 9.23892
Si 13.6951 2.0898 9.24762
Si 11.2095 2.18156 7.41371
Si 13.5526 6.34649 7.47633
O 10.6872 5.48508 10.272
O 13.6585 0.829687 10.2351
O 12.2771 2.30791 8.54972
O 14.7405 6.65811 8.48339
O 11.7599 0.933304 6.46781
O 13.9958 5.15418 6.46856
O 10.9343 3.49 6.58182
O 13.2802 7.68455 6.47867
O 12.2516 6.18613 8.34014
O 14.7652 1.97989 8.11191
O 11.5833 7.93617 9.89794
O 14.2342 3.32267 10.1828
Si 0.156653 13.1425 5.55886
Si 2.80476 8.8239 5.41381
Si 1.04035 15.3009 9.15763
Si 3.80036 10.9123 9.23514
Si 1.45682 10.9649 7.25987
Si 3.71751 15.3286 7.37248
O 1.0887 14.0342 10.1014
O 3.43347 9.60874 10.0562
O 2.45131 11.3613 8.47796
O 4.77588 15.4562 8.62415
O 1.99221 9.68262 6.45635
O 4.25715 14.0858 6.53214
O 1.13706 12.0858 6.13269
O 3.64621 16.5681 6.31964
O 2.25909 15.1946 8.02924
O 4.81505 10.6337 8.08728
O 1.44472 16.5513 10.1035
O 4.33288 12.0027 10.1701
Si 5.09568 13.2565 5.45255
Si 7.65373 8.89331 5.45141
Si 6.21028 15.314 9.24942
Si 8.69621 10.9492 9.15144
Si 6.12821 10.96 7.30918
Si 8.66072 15.2717 7.29609
O 6.08892 14.0149 10.1677
O 8.43771 9.63491 10.0337
O 7.35903 11.1025 8.33033
O 9.94922 15.7465 8.11643
O 6.68908 9.63297 6.51156
O 9.04339 13.8889 6.59305
O 5.92437 12.1885 6.29471
O 8.26822 16.2414 6.14455
O 7.42705 15.1017 8.2796
O 9.8962 10.8586 8.14078
O 6.51818 16.6277 10.1723
O 9.03716 12.2048 10.0774
Si 10.1143 13.2142 5.60894
Si 12.5794 8.7711 5.60031
Si 11.155 15.2536 9.06264
Si 13.8947 10.9469 9.14296
Si 11.3705 10.9442 7.36875
Si 13.6313 15.1707 7.41603
O 10.7727 14.1481 10.1321
O 13.5286 9.61266 10.0194
O 12.6359 11.2201 8.3198
O 14.657 15.4509 8.59463
O 11.6103 9.61128 6.5949
O 14.3623 14.0966 6.52297
O 11.1053 12.1602 6.33354
O 13.3583 16.3934 6.49937
O 12.2296 14.6275 8.05239
O 0.0236026 10.6693 8.06224
O 11.9592 16.4618 9.89091
O 14.3658 12.1808 10.1067
Si 0.21016 4.21983 10.9057
Si 2.51081 17.3255 10.9939
Si 1.13569 6.65798 14.7554
Si 3.70848 2.20834 14.8863
Si 1.2624 2.15884 12.9572
Si 3.69429 6.31828 12.8248
O 0.711204 5.48644 15.8224
O 3.64447 1.08773 15.9782
O 2.38784 2.44403 14.1063
O 4.9116 6.62042 13.7908
O 1.78387 0.956909 12.0238
O 4.09079 4.97378 12.0915
O 1.1177 3.38217 11.9601
O 3.39115 7.50986 11.8464
O 2.31349 6.17397 13.7955
O 4.8261 1.79322 13.874
O 1.74117 7.9083 15.5806
O 4.33471 3.49745 15.6227
Si 4.93197 4.1855 10.9608
Si 7.55874 17.3803 11.1481
Si 6.21842 6.72728 14.5826
Si 8.73192 2.33707 14.5795
Si 6.09877 2.05185 13.0513
Si 8.77453 6.36414 12.6949
O 5.85423 5.64509 15.9028
O 8.74036 1.06926 15.5827
O 7.21672 2.62764 14.0606
O 10.0952 6.63271 13.6457
O 6.97213 0.84182 12.3368
O 8.93418 4.96836 11.9104
O 5.7959 3.11404 11.7823
O 8.41576 7.57809 11.6709
O 7.39804 6.14061 13.5893
O 9.73015 1.96103 13.3392
O 6.84164 8.06879 15.3216
O 9.30931 3.62393 15.3989
Si 10.044 4.15968 10.9518
Si 12.7553 17.1753 11.0262
Si 11.3566 6.50606 14.6457
Si 13.7205 2.16989 14.6803
Si 11.1929 1.96559 12.7376
Si 13.8482 6.38985 12.766
O 10.9718 5.49284 15.8685
O 13.3375 1.05598 15.7633
O 12.3941 2.30695 13.8142
O 14.9577 6.97683 13.855
O 11.729 0.668938 11.9617
O 14.4517 5.17449 11.939
O 10.9852 3.08904 11.7052
O 13.418 7.59506 11.7747
O 12.5625 5.96973 13.6764
O 15.0014 1.86455 13.7692
O 11.7229 7.93847 15.2209
O 14.1618 3.48052 15.4938
Si 0.31399 13.0517 11.032
Si 2.49613 8.62788 11.0327
Si 1.3333 15.3736 14.8146
Si 3.84735 10.9564 14.8342
Si 1.36545 10.7961 12.9763
Si 3.74475 15.1341 12.8531
O 1.10213 14.1926 15.8577
O 3.53621 9.73243 15.833
O 2.51528 11.1604 14.0077
O 5.08277 15.5975 13.8847
O 1.76487 9.47075 12.167
O 4.26452 13.817 12.1231
O 1.13549 11.9435 11.8364
O 3.44359 16.2972 11.7634
O 2.45441 14.9976 13.7374
O 4.88412 10.4384 13.681
O 1.69885 16.7673 15.537
O 4.60909 12.1965 15.5404
Si 5.22101 13.0097 11.0711
Si 7.52237 8.71858 10.9745
Si 6.30535 15.4647 14.8516
Si 8.76872 10.7918 14.83
Si 6.25062 10.7321 12.988
Si 8.76944 15.0587 12.8915
O 6.10432 14.2368 15.9283
O 8.85025 9.60639 15.8731
O 7.42255 10.8534 14.0162
O 10.0604 15.632 13.6998
O 6.75318 9.51872 12.0914
O 9.25002 13.7168 12.2257
O 6.1081 12.1019 11.9911
O 8.32825 16.107 11.7983
O 7.52932 14.9216 13.9471
O 9.96343 10.7762 13.7191
O 6.78525 16.7512 15.5511
O 8.97045 12.0981 15.7654
Si 10.0675 13.0169 11.0717
Si 12.6559 8.68249 10.9246
Si 11.3061 15.1597 14.5611
Si 13.8342 10.9805 14.7728
Si 11.3624 10.8902 12.909
Si 13.8722 14.9959 13.0324
O 10.7836 13.9934 15.5834
O 13.4138 9.73187 15.6873
O 12.5092 11.3172 13.9267
O 14.9866 15.455 14.1192
O 11.7897 9.56728 12.0479
O 14.5384 13.8775 12.1342
O 11.1714 11.9807 11.7757
O 13.5095 16.1869 11.9832
O 12.4936 14.6089 13.6968
O 15.0691 10.6611 13.7225
O 11.8384 16.4934 15.4335
O 14.4312 12.1953 15.6081
324
 Atoms. Timestep: 10500
Si 15.1854 4.3033 16.5673
Si 2.68285 -0.0328075 -0.0299894
Si 1.17939 6.65939 3.75921
Si 3.73257 2.35959 3.74826
Si 1.32209 2.15452 1.75977
Si 3.64656 6.32795 1.8478
O 0.913484 5.4778 4.86078
O 3.44622 1.22168 4.81312
O 2.5216 2.62302 2.70668
O 4.96512 6.4751 2.80781
O 1.74813 0.788002 1.06737
O 3.99211 4.99602 1.01355
O 1.08666 3.25927 0.667844
O 3.66758 7.56896 0.839865
O 2.37321 6.33673 2.69682
O 5.01686 1.95283 2.87311
O 1.71457 7.95127 4.5159
O 4.18324 3.7359 4.49176
Si 5.04107 4.26007 0.0201175
Si 7.63701 -0.0161319 16.6806
Si 6.29618 6.43952 3.55915
Si 8.90559 2.33624 3.62085
Si 6.26385 1.99492 1.96176
Si 8.79643 6.37638 1.7399
O 6.23285 5.3366 4.67192
O 8.56657 1.16396 4.69529
O 7.53545 2.51425 2.80133
O 9.73039 6.76119 2.95899
O 6.77515 0.696053 1.20046
O 9.64537 5.27774 0.956994
O 5.83637 3.13647 0.761162
O 8.49415 7.56536 0.735661
O 7.39816 6.02807 2.39403
O 9.97515 2.01376 2.50948
O 6.80777 7.84031 4.2194
O 9.42818 3.59752 4.5165
Si 10.3121 4.37086 16.4122
Si 12.9372 17.4173 16.4196
Si 11.1596 6.71961 3.65988
Si 13.759 2.44122 3.65633
Si 11.3443 2.15066 1.66286
Si 13.7542 6.40627 1.82233
O 11.0817 5.52659 4.79
O 13.5288 1.30864 4.80059
O 12.4681 2.4794 2.73492
O 14.8854 6.82968 2.87335
O 11.9854 0.818391 0.834485
O 14.3861 5.0613 1.21058
O 11.2455 3.36593 0.662477
O 13.3475 7.5521 0.699162
O 12.2798 6.20017 2.62755
O 0.000168863 2.02603 2.70966
O 11.7075 8.13456 4.32291
O 14.1738 3.81045 4.44341
Si 0.121792 13.0202 -0.069766
Si 2.74992 8.77952 0.162875
Si 1.21918 15.2931 3.78915
Si 3.76218 10.9985 3.7369
Si 1.2083 10.8018 1.98203
Si 3.68962 15.0694 1.86513
O 0.979921 14.1264 4.97026
O 3.44326 9.77735 4.69664
O 2.36536 11.2986 2.97885
O 4.728 15.5022 3.02165
O 1.85837 9.42257 1.26446
O 4.29098 13.8606 0.979963
O 0.932706 11.9193 0.844747
O 3.57411 16.36 0.864962
O 2.22243 14.8684 2.60883
O 4.92916 10.6519 2.76958
O 1.69541 16.6923 4.42165
O 4.2379 12.2617 4.7061
Si 5.07136 13.1298 -0.171771
Si 7.54022 8.69194 0.100732
Si 6.23798 15.3063 3.70481
Si 8.69135 11.0326 3.71815
Si 6.23758 11.0256 1.86626
Si 8.76241 15.056 1.83138
O 6.0687 14.1284 4.75282
O 8.38022 9.78668 4.56702
O 7.37 11.5551 2.92665
O 9.94542 15.6964 2.72156
O 6.8333 9.65666 1.18653
O 9.1932 13.7523 1.13644
O 5.84919 11.9749 0.6855
O 8.42409 16.1562 0.702888
O 7.4497 14.9551 2.74829
O 9.80881 10.4484 2.69503
O 6.72173 16.754 4.38466
O 9.229 12.249 4.6335
Si 10.0972 13.0258 0.0845467
Si 12.5815 8.66164 16.4057
Si 11.2776 15.4833 3.58743
Si 13.8179 10.9493 3.75928
Si 11.2231 10.7125 1.8998
Si 13.835 15.1992 1.78677
O 10.9869 14.2256 4.59713
O 13.4675 9.90089 4.90787
O 12.4764 11.0394 2.80067
O 14.8774 15.2685 2.98985
O 11.6015 9.42752 0.927301
O 14.1838 13.8793 0.84637
O 10.8776 11.8433 0.821323
O 13.9387 16.4444 0.794524
O 12.3219 15.1254 2.36659
O 14.9477 10.4637 2.74201
O 11.8131 16.7493 4.44604
O 14.2169 12.3311 4.5211
Si -0.0360319 4.47056 5.67589
Si 2.55767 0.0810218 5.52321
Si 1.06787 6.6323 9.10772
Si 3.53463 2.34871 9.34087
Si 1.05267 2.05318 7.41888
Si 3.62883 6.46406 7.38596
O 1.01804 5.45174 10.1397
O 3.58552 1.19121 10.3867
O 2.2008 2.47641 8.47553
O 4.72131 6.69089 8.5719
O 1.53354 0.76176 6.61237
O 4.35528 5.26075 6.55953
O 0.797895 3.27224 6.40603
O 3.54433 7.68548 6.35994
O 2.14715 6.30249 7.98315
O 4.59967 1.91708 8.17915
O 1.75969 7.87701 9.82721
O 4.1394 3.63732 9.95573
Si 5.25204 4.40079 5.55461
Si 7.57609 0.101242 5.46133
Si 6.148 6.52666 9.30154
Si 8.58091 2.23652 9.0998
Si 5.998 2.02943 7.41887
Si 8.55024 6.43777 7.32289
O 6.03002 5.45915 10.4336
O 8.59647 1.05045 10.2266
O 7.12407 2.33544 8.4378
O 9.69934 7.06965 8.2637
O 6.54783 0.725068 6.56049
O 9.32069 5.25467 6.57148
O 5.94723 3.19023 6.29375
O 8.13935 7.67432 6.3797
O 7.20319 6.07902 8.10717
O 9.84132 1.83237 8.0816
O 6.68557 7.9781 9.80879
O 8.83987 3.62341 9.79285
Si 10.2659 4.4972 5.5539
Si 12.6867 0.142014 5.49076
Si 10.9876 6.79002 9.09409
Si 13.7911 2.26241 9.30929
Si 11.2983 2.10377 7.41737
Si 13.5279 6.45976 7.32226
O 10.6375 5.39645 9.89471
O 13.7083 1.12389 10.3715
O 12.3526 2.39681 8.5386
O 14.6253 6.79963 8.48899
O 11.687 0.821857 6.53141
O 14.1144 5.1996 6.66413
O 11.1155 3.34097 6.39107
O 13.4217 7.59454 6.1938
O 12.1217 6.36645 8.01353
O 14.805 1.83298 8.24586
O 11.5279 7.78325 10.1864
O 14.1997 3.64002 10.1532
Si -0.0152187 13.0697 5.72305
Si 2.61519 8.71801 5.53568
Si 1.16985 15.2768 9.24418
Si 3.7241 10.8767 9.18677
Si 1.13384 10.6791 7.4621
Si 3.60831 15.2703 7.35223
O 0.933014 14.0737 10.2789
O 3.57212 9.68246 10.2177
O 2.28992 11.2458 8.45735
O 4.75773 15.7371 8.38806
O 1.78189 9.47119 6.64034
O 4.28517 14.0165 6.52774
O 0.85201 11.9211 6.47843
O 3.27945 16.3231 6.24274
O 2.25805 14.9967 8.19753
O 4.71822 10.6934 8.0109
O 1.86633 16.5061 10.0774
O 4.20851 12.1823 9.99349
Si 5.22776 13.1278 5.58459
Si 7.50893 8.71765 5.3741
Si 6.13996 15.3554 9.17591
Si 8.672 10.7691 9.31627
Si 6.21601 10.7696 7.32197
Si 8.72133 15.3477 7.45854
O 5.83964 14.1748 10.1985
O 8.59512 9.73988 10.5102
O 7.36901 10.8572 8.45677
O 9.76802 15.608 8.61683
O 6.46247 9.61188 6.29363
O 9.27522 14.0682 6.59721
O 6.18072 12.1456 6.44207
O 8.61236 16.5072 6.34027
O 7.24128 15.0095 8.05366
O 9.90825 10.5575 8.21513
O 6.881 16.6639 9.92149
O 9.12315 12.1258 10.1361
Si 10.1336 13.1933 5.60266
Si 12.5585 8.71051 5.4946
Si 11.2015 15.4657 9.26432
Si 13.7057 10.8472 9.24024
Si 11.2376 10.8068 7.37368
Si 13.7732 15.3711 7.42789
O 10.9976 14.0975 10.2585
O 13.3917 9.62122 10.1244
O 12.4251 11.1768 8.32477
O 14.9718 15.6783 8.4784
O 11.7072 9.47129 6.66018
O 14.1281 13.8441 6.79991
O 11.018 12.0168 6.34432
O 13.6658 16.4452 6.2529
O 12.3749 15.2916 8.12399
O 14.8478 10.301 8.182
O 11.7866 16.635 10.1888
O 14.3478 12.0305 10.0317
Si 0.237357 4.35729 11.0377
Si 2.79067 17.3291 11.1223
Si 1.2694 6.70919 14.8119
Si 3.73382 2.29884 14.6249
Si 1.24261 2.10725 12.785
Si 3.74654 6.33336 12.7928
O 0.915398 5.51633 15.8529
O 3.53939 0.922942 15.6406
O 2.25649 2.44737 13.9569
O 4.84737 6.72596 13.9425
O 1.86584 0.684881 12.2117
O 4.19648 4.92847 12.1419
O 1.09636 3.16237 11.6181
O 3.60087 7.42798 11.704
O 2.31905 6.26847 13.5085
O 4.85381 1.94429 13.4485
O 1.97161 7.93118 15.5972
O 4.16072 3.55863 15.4324
Si 5.14261 4.25323 11.0017
Si 7.74882 17.3864 11.0551
Si 6.17392 6.61924 14.8961
Si 8.75779 2.27866 14.8374
Si 6.29933 2.02186 12.8133
Si 8.65282 6.36498 12.9732
O 5.99681 5.39201 15.8983
O 8.58865 1.09211 15.9338
O 7.38176 2.48354 13.9814
O 9.95816 6.50606 13.7995
O 6.78727 0.676617 12.2031
O 8.98816 5.08423 12.0382
O 6.07954 3.09559 11.5752
O 8.33219 7.5582 11.8944
O 7.40377 6.33067 13.9024
O 9.96492 2.00134 13.7147
O 6.47157 7.91305 15.6826
O 9.21454 3.62222 15.4976
Si 9.75943 4.36864 10.8337
Si 12.7851 17.5082 11.2101
Si 11.3332 6.60856 14.4786
Si 13.7526 2.52405 14.4731
Si 11.2364 2.26019 12.7704
Si 13.9001 6.42645 12.8253
O 11.1997 5.29606 15.5248
O 13.6353 1.21387 15.5395
O 12.3801 2.80693 13.7665
O 14.9547 6.95618 13.9831
O 11.9632 0.965796 12.1694
O 14.6428 5.11949 12.2595
O 10.7681 3.28645 11.4995
O 13.6376 7.55246 11.7414
O 12.4753 6.24665 13.3987
O 14.8545 2.10042 13.4273
O 11.8088 7.93962 15.1951
O 14.2295 3.69814 15.4792
Si 0.176432 12.8672 11.0697
Si 2.74961 8.60674 10.898
Si 1.3066 15.2003 14.7518
Si 3.79189 11.001 14.7504
Si 1.29826 10.4563 12.8497
Si 3.92213 15.1435 12.9182
O 1.04746 14.0352 15.7199
O 3.55845 9.9937 16.0352
O 2.4155 10.8849 13.9288
O 5.05119 15.5852 13.9061
O 1.84535 9.30556 11.9724
O 4.16348 13.8162 12.1489
O 1.11992 11.784 11.9473
O 3.71422 16.2944 11.8689
O 2.50896 15.0358 13.7384
O 4.98593 10.5329 13.7592
O 1.7405 16.4697 15.6033
O 4.10291 12.4245 15.2847
Si 5.11109 13.0345 11.0534
Si 7.53213 8.61948 11.0094
Si 6.39977 15.4904 14.7658
Si 8.82296 10.9177 14.7385
Si 6.32226 10.7183 12.8597
Si 8.9139 15.2764 12.9955
O 6.07682 14.246 15.7479
O 8.39078 9.67539 15.715
O 7.59564 11.0718 13.7326
O 10.2245 15.504 13.8417
O 6.51565 9.49055 11.8641
O 9.29498 13.9352 12.0594
O 6.08152 11.9939 11.8037
O 8.64626 16.3775 11.7968
O 7.64511 15.2295 13.8853
O 10.0828 10.5227 13.9381
O 6.66877 16.8728 15.5328
O 9.13988 12.2146 15.6042
Si 10.099 13.0187 10.9509
Si 12.6381 8.62155 11.0658
Si 11.4964 15.175 14.7593
Si 13.8602 10.8516 14.5726
Si 11.3225 10.8035 12.8916
Si 13.9272 15.023 12.8219
O 11.012 14.0971 15.8447
O 13.5706 9.73966 15.7051
O 12.6013 11.2985 13.6833
O 15.0638 15.4741 13.8789
O 11.72 9.41078 12.1547
O 14.3582 13.7212 12.0853
O 10.9584 11.8816 11.6753
O 13.62 16.3269 11.9481
O 12.6209 14.6688 13.7201
O 14.9437 10.3104 13.5646
O 12.1111 16.3818 15.5625
O 14.4289 12.1627 15.3492
324
 Atoms. Timestep: 11000
Si 0.100333 4.53867 16.5303
Si 2.5268 0.0152278 0.0347126
Si 1.15243 6.56938 3.66514
Si 3.63037 2.31445 3.83928
Si 1.1857 2.22806 1.7549
Si 3.59876 6.30199 1.71061
O 1.04469 5.49705 4.88613
O 3.24534 1.02385 4.74112
O 2.36714 2.37021 2.81021
O 4.75734 6.77269 2.68465
O 1.62349 0.898627 1.003
O 3.93337 4.98689 0.856221
O 0.915678 3.47621 0.753906
O 3.38558 7.50208 0.646126
O 2.20026 6.07676 2.54688
O 4.86996 2.04091 2.82236
O 1.76817 7.91573 4.3594
O 4.08758 3.49599 4.75706
Si 4.96646 4.26504 16.4292
Si 7.58988 -0.0807404 0.184084
Si 6.10867 6.68741 3.58021
Si 8.75026 2.32123 3.63797
Si 6.16312 2.05935 1.83518
Si 8.76385 6.64972 1.82731
O 5.90805 5.43784 4.58907
O 8.54648 1.1173 4.66797
O 7.38004 2.47699 2.81868
O 9.86944 6.89687 3.0004
O 6.60559 0.709159 1.20461
O 9.22571 5.39751 0.867811
O 5.89172 3.11444 0.680149
O 8.66084 7.89885 0.838993
O 7.38165 6.30252 2.53533
O 9.85274 1.82615 2.52283
O 6.79261 7.83017 4.50497
O 9.46185 3.50877 4.30209
Si 10.1304 4.35545 16.5379
Si 12.7662 0.0600493 16.596
Si 11.3632 6.74362 3.64274
Si 13.7429 2.25367 3.68986
Si 11.2359 2.11481 1.84777
Si 13.8049 6.62427 1.80886
O 11.1894 5.49756 4.63514
O 13.5378 0.975343 4.67782
O 12.3513 2.54991 2.88798
O 14.8244 6.79572 3.01699
O 11.7977 0.800003 1.07711
O 14.2629 5.40032 0.94598
O 10.9146 3.14702 0.714556
O 13.9358 7.87594 0.925232
O 12.3394 6.30676 2.41165
O 14.9056 2.08654 2.60141
O 11.959 8.00865 4.34093
O 14.2929 3.46906 4.50541
Si -0.000124009 13.0657 16.5002
Si 2.6342 8.77096 16.464
Si 1.11632 15.3174 3.81827
Si 3.64239 11.0353 3.70521
Si 1.19994 10.9074 1.84885
Si 3.74363 15.327 2.00587
O 1.0594 14.121 4.91857
O 3.33729 9.98387 4.88218
O 2.27192 11.3489 2.93766
O 4.98993 15.4623 2.95322
O 1.81318 9.62533 1.02852
O 4.23947 13.9887 1.1151
O 0.873644 12.0657 0.830462
O 3.58106 16.5664 0.972662
O 2.30704 15.1003 2.69907
O 4.76213 10.5255 2.62625
O 1.56915 16.4963 4.6846
O 4.16165 12.3905 4.3946
Si 5.04124 13.0652 0.0626447
Si 7.57605 8.73095 -0.0638275
Si 6.49354 15.135 3.62683
Si 8.7139 10.839 3.65917
Si 6.15716 10.7722 1.76648
Si 8.90528 15.039 1.8426
O 6.19422 13.9761 4.63073
O 8.58957 9.68218 4.72011
O 7.31529 11.0282 2.86273
O 9.99005 15.4123 2.93352
O 6.61205 9.54316 0.941804
O 9.36584 13.8814 0.913685
O 6.01333 12.1008 0.821083
O 8.61275 16.3071 0.922674
O 7.50232 14.6481 2.51877
O 9.90332 10.5214 2.59942
O 6.96929 16.4999 4.26882
O 9.26408 12.2047 4.36639
Si 10.2828 13.0283 -0.101111
Si 12.8694 8.8394 0.186368
Si 11.4226 15.3212 3.5922
Si 13.7193 10.9977 3.60372
Si 11.259 10.8384 1.92437
Si 13.9061 15.2792 1.70037
O 11.2956 13.8899 4.40208
O 13.5007 9.8868 4.72019
O 12.3131 11.2149 2.98611
O 14.8495 15.47 2.99511
O 11.8767 9.57749 1.16003
O 14.26 13.8849 1.01073
O 11.0685 11.9783 0.796758
O 13.7232 16.383 0.663899
O 12.4522 15.2871 2.42371
O 14.8253 10.6013 2.55249
O 11.8367 16.4485 4.58333
O 14.319 12.2726 4.33639
Si 15.2136 4.33632 5.57976
Si 2.48776 -0.0435143 5.61253
Si 1.26748 6.60894 9.31754
Si 3.76414 2.222 9.14623
Si 1.18485 2.05886 7.46737
Si 3.70191 6.64512 7.38259
O 0.865489 5.43243 10.3047
O 3.30723 1.0031 10.1655
O 2.37686 2.6401 8.43889
O 4.96588 7.01695 8.36245
O 1.63563 0.70055 6.7836
O 4.36329 5.46595 6.50637
O 0.920825 3.1863 6.37312
O 3.27845 7.89309 6.49135
O 2.45975 6.21982 8.20918
O 4.92296 1.89786 8.12382
O 1.72105 7.90005 10.0792
O 4.26937 3.52637 9.96185
Si 5.14704 4.39675 5.54524
Si 7.69862 -0.00140542 5.41131
Si 6.35158 6.68155 9.1109
Si 8.65652 2.34983 9.20701
Si 6.26775 2.01342 7.32404
Si 8.82943 6.32741 7.35805
O 6.06455 5.46674 10.1643
O 8.52993 1.03041 10.2411
O 7.28538 2.49405 8.44215
O 10.0633 6.53157 8.36107
O 6.85222 0.83523 6.47328
O 9.23175 5.18711 6.37276
O 6.02729 3.24737 6.26495
O 8.76264 7.66852 6.36883
O 7.45979 6.17545 8.07144
O 9.75031 2.0622 8.1272
O 7.04294 7.87005 9.90021
O 9.36272 3.50308 10.0312
Si 10.2751 4.43475 5.42799
Si 12.5791 0.00483701 5.57325
Si 11.3654 6.54661 9.27018
Si 13.6128 2.27081 9.2734
Si 11.0875 2.16383 7.30317
Si 13.828 6.47158 7.4006
O 11.039 5.44127 10.4604
O 13.322 1.08158 10.3219
O 12.3305 2.36492 8.40586
O 15.0738 6.89556 8.39935
O 11.541 0.904685 6.43776
O 14.2614 5.1374 6.57492
O 11.1487 3.48025 6.36908
O 13.5555 7.62342 6.31037
O 12.5178 6.0934 8.27126
O 14.9565 2.03496 8.33068
O 11.8288 8.00277 9.87814
O 13.925 3.58529 10.0209
Si 15.0879 13.0249 5.47392
Si 2.46053 8.83263 5.51879
Si 1.33209 15.168 9.12641
Si 3.56268 10.8615 9.07793
Si 0.860336 10.6882 7.37415
Si 3.89839 15.1114 7.38158
O 1.11342 14.0235 10.2452
O 3.40038 9.90596 10.3386
O 2.17947 10.8433 8.30615
O 5.01584 15.6018 8.36561
O 1.29732 9.57159 6.39995
O 4.46603 13.8226 6.63979
O 0.724083 12.0613 6.55914
O 3.52683 16.3196 6.35772
O 2.60464 14.8787 8.26256
O 4.75185 10.2824 8.06499
O 1.49618 16.4754 9.96355
O 4.07929 12.2756 9.69026
Si 5.22145 13.0021 5.48006
Si 7.72323 8.61845 5.51112
Si 6.44556 15.2446 9.01239
Si 8.56574 10.9695 9.28803
Si 6.12461 10.5822 7.35838
Si 8.93494 15.1823 7.16809
O 6.06505 14.0177 10.044
O 8.55673 9.76528 10.3286
O 7.13257 11.0582 8.45322
O 9.96028 15.36 8.43224
O 6.80552 9.342 6.5579
O 9.58315 14.0652 6.22958
O 5.93236 11.7414 6.22443
O 8.65355 16.4735 6.23693
O 7.48999 14.8581 7.8574
O 9.67584 10.7063 8.09159
O 6.95496 16.423 9.94214
O 9.1492 12.2737 10.024
Si 10.2924 12.9838 5.30442
Si 12.7424 8.74918 5.5296
Si 11.2341 15.2488 9.37103
Si 13.5918 11.0843 9.30522
Si 11.1531 10.8725 7.41546
Si 13.7371 15.1095 7.41633
O 11.1013 14.0236 10.3029
O 13.4761 9.96038 10.3833
O 12.1476 11.2325 8.60086
O 14.9933 15.3057 8.34282
O 11.8046 9.50768 6.62256
O 14.0324 13.8589 6.40437
O 10.9454 11.9778 6.30219
O 13.4663 16.4146 6.47718
O 12.397 14.9893 8.31121
O 14.5723 10.466 8.18161
O 11.5212 16.5389 10.2112
O 14.2478 12.3855 9.96337
Si 14.9488 4.38316 10.9993
Si 2.33688 -0.00807687 11.0135
Si 1.31339 6.75548 14.7045
Si 3.66987 2.09743 14.5899
Si 1.05121 2.03872 12.7567
Si 3.88626 6.48589 12.8761
O 1.12418 5.70483 15.8902
O 3.40465 1.04258 15.6791
O 2.28518 2.24989 13.7574
O 5.00552 6.87895 13.9393
O 1.35037 0.735468 11.9919
O 4.4022 5.21819 12.0277
O 0.87399 3.25873 11.7055
O 3.65809 7.75209 11.7969
O 2.53517 6.31699 13.7422
O 4.8533 1.69068 13.6538
O 1.54566 8.13449 15.4149
O 4.19153 3.46973 15.2902
Si 5.23032 4.33237 11.0376
Si 7.89247 17.3318 11.0751
Si 6.31317 6.41853 14.8134
Si 8.58354 2.31105 14.8782
Si 6.2601 2.03002 12.8016
Si 8.88341 6.48221 13.0644
O 5.88537 5.33881 15.7752
O 8.35472 1.18555 16.0383
O 7.26983 2.41966 14.0303
O 9.88043 6.90119 14.3117
O 6.87422 0.731051 12.0594
O 9.40299 5.19629 12.3292
O 6.11351 3.18236 11.7647
O 8.6523 7.62209 12.0019
O 7.41912 6.1711 13.6559
O 9.69127 1.75732 13.8025
O 6.71276 7.73189 15.6814
O 9.04073 3.69085 15.4827
Si 10.2161 4.3295 11.2225
Si 12.5296 0.0433146 11.1495
Si 11.343 6.6209 15.0001
Si 13.8281 2.38038 14.8227
Si 11.1873 2.01163 13.137
Si 13.7087 6.41668 12.8864
O 11.1576 5.29706 15.7925
O 13.6531 1.25229 15.8891
O 12.2655 2.43343 14.232
O 15.0125 6.80417 13.7849
O 11.7037 0.835936 12.2111
O 14.0827 5.10904 12.1143
O 10.9869 3.22908 12.0458
O 13.597 7.5714 11.6965
O 12.3892 6.46774 13.8024
O 14.7685 1.91844 13.5948
O 11.9877 7.83851 15.8007
O 14.5422 3.66997 15.3969
Si 0.121983 13.0903 11.0173
Si 2.64045 8.73203 11.1284
Si 1.2956 15.2506 14.6786
Si 3.72521 11.0279 14.7143
Si 1.26089 10.7593 12.9115
Si 3.68216 15.2064 12.7819
O 0.978899 14.0722 15.8009
O 3.48214 9.77214 15.6204
O 2.38295 11.2753 13.8938
O 4.90598 15.5178 13.7542
O 1.78259 9.39793 12.2755
O 4.21041 13.9005 11.8297
O 0.973872 11.9315 11.7853
O 3.33375 16.4412 11.8679
O 2.43049 14.8584 13.6302
O 4.88739 10.8348 13.6417
O 1.67496 16.5379 15.5523
O 4.12983 12.179 15.7518
Si 4.96625 13.0456 10.7647
Si 7.74885 8.65465 11.1466
Si 6.21728 15.2572 14.6942
Si 8.72874 11.1259 14.5687
Si 6.2335 10.8394 12.7717
Si 8.84378 15.0287 12.9622
O 5.77242 14.0807 15.6247
O 8.34151 9.90092 15.621
O 7.44346 11.4193 13.7366
O 9.9782 15.549 14.021
O 6.77013 9.40822 12.1867
O 9.34012 13.7369 12.2888
O 5.91827 11.8989 11.5809
O 8.58953 16.1217 11.8477
O 7.43574 14.7964 13.7851
O 9.81191 10.5397 13.4775
O 6.87091 16.4891 15.5794
O 9.44371 12.2946 15.3701
Si 10.1942 12.9403 11.0957
Si 12.6606 8.72623 10.9696
Si 11.3283 15.4222 14.8168
Si 13.787 11.0758 14.6661
Si 11.2699 10.6812 12.8881
Si 13.8335 15.1243 12.8905
O 11.2565 14.1685 15.8102
O 13.6003 10.0277 15.8711
O 12.4403 11.023 13.8606
O 14.9618 15.4706 13.8689
O 11.7512 9.3239 12.1298
O 14.3066 13.7976 12.082
O 11.0573 11.7917 11.7663
O 13.4782 16.2778 11.7651
O 12.4939 15.1352 13.7382
O 14.9236 10.6278 13.687
O 11.7642 16.8226 15.4621
O 14.2596 12.4126 15.3449
324
 Atoms. Timestep: 11500
Si 0.0436217 4.41512 0.0235499
Si 2.79819 0.0598371 16.543
Si 1.42672 6.43882 3.71633
Si 3.57232 2.30661 3.75957
Si 1.1268 2.02726 1.78532
Si 3.8157 6.48116 1.81886
O 1.24107 5.08426 4.55148
O 3.56107 1.11488 4.94052
O 2.11046 2.42571 3.04557
O 4.76923 6.86594 2.99289
O 1.73862 0.761465 0.964765
O 4.44861 5.21058 1.11629
O 0.918797 3.22127 0.785512
O 3.55678 7.73595 0.819473
O 2.36734 6.16258 2.47629
O 4.61048 1.89775 2.57587
O 1.95727 7.51409 4.79551
O 4.1834 3.59847 4.57973
Si 5.18999 4.35543 16.4939
Si 7.5554 17.3917 16.5033
Si 6.15383 6.77872 3.82133
Si 8.54862 2.21651 3.59959
Si 6.04276 2.01555 1.72263
Si 8.71252 6.67454 1.87965
O 5.94058 5.48118 4.69788
O 8.43651 1.16344 4.84533
O 7.18282 2.29278 2.83587
O 9.98973 7.00653 2.74451
O 6.51744 0.698004 0.981327
O 9.0062 5.25674 1.18088
O 6.06115 3.1644 0.627949
O 8.48847 7.83511 0.748093
O 7.29239 6.55367 2.74233
O 9.71202 1.79596 2.56966
O 6.49292 8.00279 4.71653
O 9.01206 3.68879 4.23216
Si 9.92521 4.37012 0.123251
Si 12.6558 0.014459 0.116698
Si 11.2161 6.62737 3.64973
Si 13.7093 2.17769 3.68088
Si 11.1 2.04712 1.89251
Si 13.9459 6.52237 1.94414
O 10.8761 5.45068 4.61163
O 13.5146 1.10248 4.85388
O 12.2765 2.43691 2.98456
O 0.0293607 6.78371 3.03619
O 11.6992 0.800387 1.14283
O 14.1476 5.1506 1.03795
O 10.8084 3.31949 0.869707
O 13.7448 7.73539 0.865043
O 12.4466 6.34572 2.63875
O 14.7726 1.75413 2.4766
O 11.6119 7.7969 4.61878
O 14.3553 3.48028 4.44918
Si 0.086674 12.9962 -0.00119961
Si 2.64129 8.61891 0.0414448
Si 1.15384 15.547 3.78753
Si 3.59883 10.8973 3.63301
Si 1.08787 10.6309 1.73485
Si 3.70686 15.3263 1.89748
O 0.860838 14.3279 4.8036
O 3.23947 9.68835 4.62709
O 2.24472 11.1642 2.77458
O 4.84417 15.6956 3.01664
O 1.6013 9.36058 1.06437
O 4.22904 14.005 1.18786
O 0.827502 11.764 0.601353
O 3.62884 16.4745 0.794205
O 2.3344 15.1829 2.72385
O 4.74854 10.5193 2.55355
O 1.6595 16.8747 4.47019
O 4.25888 12.0464 4.42851
Si 5.08301 13.0938 0.12958
Si 7.5671 8.8405 16.5063
Si 6.14675 15.4561 3.77423
Si 8.59527 10.8814 3.63056
Si 6.13064 10.7551 1.85909
Si 8.75943 15.2254 1.78671
O 5.93438 14.1713 4.73093
O 8.42544 9.62094 4.60479
O 7.27394 11.084 2.85519
O 10.0857 15.5292 2.59794
O 6.63237 9.41559 1.09282
O 9.26099 13.8218 1.06176
O 5.82478 11.8942 0.846711
O 8.46056 16.3133 0.65582
O 7.45282 15.2071 2.74976
O 9.71419 10.5317 2.50603
O 6.66362 16.6942 4.62911
O 9.06793 12.1571 4.51272
Si 10.191 13.1851 16.506
Si 12.7935 8.7395 0.063853
Si 11.2956 15.2394 3.61043
Si 13.733 10.9089 3.66702
Si 11.1465 10.7291 1.82235
Si 13.8099 15.0511 1.91036
O 10.953 14.0264 4.68778
O 13.3824 9.78702 4.79185
O 12.3068 11.115 2.92
O 14.8009 15.715 3.00051
O 11.8651 9.53915 1.07916
O 14.5188 13.9139 1.09944
O 10.9967 11.9758 0.730682
O 13.4061 16.3187 0.854131
O 12.5298 14.7493 2.73876
O 14.8425 10.4799 2.59241
O 11.7338 16.5413 4.39333
O 14.3763 12.2213 4.25977
Si 0.328291 4.09369 5.42529
Si 2.6922 17.3158 5.60415
Si 1.32464 6.59499 9.3032
Si 3.66814 2.33124 9.17511
Si 1.15902 1.86428 7.48761
Si 3.85919 6.51037 7.4407
O 1.13448 5.38842 10.3237
O 3.44158 1.07756 10.207
O 2.25927 2.45143 8.51114
O 5.14242 6.7813 8.40744
O 1.76274 0.560597 6.75813
O 4.17049 5.28046 6.53834
O 1.00437 2.98842 6.32335
O 3.58922 7.87731 6.60555
O 2.52981 6.36965 8.30983
O 4.8719 2.01301 8.21009
O 1.65214 7.89617 10.1999
O 4.20442 3.60103 10.1018
Si 5.135 4.43245 5.56594
Si 7.59004 0.114919 5.67341
Si 6.51329 6.63027 9.20897
Si 8.83613 2.3301 9.25617
Si 6.30754 2.30162 7.53238
Si 8.93234 6.32587 7.31642
O 6.17535 5.39452 10.3052
O 8.62911 1.00365 10.226
O 7.46253 2.57734 8.59375
O 10.266 6.44775 8.21472
O 6.80009 0.938405 6.80077
O 9.05656 4.93211 6.46603
O 6.08399 3.50154 6.4595
O 8.57047 7.52862 6.37144
O 7.70968 6.17361 8.3218
O 9.94394 2.08883 8.07643
O 6.71781 7.8795 10.1366
O 9.29024 3.58434 10.1533
Si 9.97742 4.2947 5.31794
Si 12.6089 17.3246 5.45145
Si 11.6267 6.41557 9.12798
Si 13.7168 2.31876 9.08335
Si 11.2865 2.0524 7.16916
Si 14.0814 6.37028 7.31764
O 11.2969 5.15726 10.0843
O 13.2451 1.17406 10.1
O 12.5264 2.57003 8.00713
O 0.186312 6.87695 8.25238
O 11.7147 0.630607 6.56452
O 14.624 5.10888 6.51087
O 10.9456 3.15332 5.94887
O 13.6653 7.53215 6.2237
O 12.855 6.19093 8.23318
O 14.8717 1.58697 8.27827
O 11.7173 7.72288 10.0109
O 14.3858 3.53397 9.86401
Si 15.0653 13.0958 5.38267
Si 2.56486 8.68847 5.75259
Si 1.31335 15.2959 9.07142
Si 3.57326 11.0959 9.1611
Si 1.11326 10.9565 7.37448
Si 3.80717 14.9709 7.29951
O 0.92222 14.186 10.1326
O 3.28419 9.87652 10.1745
O 2.24605 11.4633 8.38271
O 5.03903 15.6006 8.19941
O 1.52253 9.64643 6.59209
O 4.35631 13.7129 6.59983
O 0.882779 12.0546 6.18617
O 3.49351 16.0668 6.11624
O 2.52941 14.8907 8.1117
O 4.70638 10.6849 8.03658
O 1.69703 16.5107 9.9894
O 4.25702 12.2617 9.98779
Si 5.17961 12.9313 5.425
Si 7.68124 8.67082 5.5972
Si 6.35056 15.2843 9.09352
Si 8.65542 11.0426 9.16827
Si 6.16457 10.765 7.37592
Si 8.92754 15.1871 7.23198
O 5.97478 14.0658 9.993
O 8.3973 9.85462 10.175
O 7.214 11.2454 8.52118
O 10.1263 15.5179 8.29983
O 6.94195 9.46318 6.77221
O 9.28482 13.8443 6.50068
O 6.10705 11.8891 6.17541
O 8.67376 16.4226 6.19841
O 7.60375 14.9458 8.08374
O 9.70221 10.613 7.99485
O 6.84495 16.6304 9.85337
O 9.14452 12.4246 9.80154
Si 10.0813 12.9942 5.49861
Si 12.6509 8.63004 5.62758
Si 11.4491 15.2592 9.15245
Si 13.7279 10.9684 9.24376
Si 11.2306 10.7311 7.36787
Si 13.828 15.1444 7.27519
O 11.0831 14.125 10.2521
O 13.5021 9.69631 10.2573
O 12.269 11.2366 8.53586
O 0.0233469 15.5259 8.11798
O 11.7789 9.38576 6.74449
O 14.0669 13.7771 6.47889
O 11.057 11.8101 6.10209
O 13.4224 16.2695 6.23505
O 12.6837 14.817 8.32982
O 14.8331 10.8357 8.14466
O 11.8331 16.559 10.0094
O 14.2586 12.2472 10.0612
Si 0.138707 4.34447 10.9754
Si 2.56616 -0.0309644 10.9502
Si 1.26446 6.5032 14.6176
Si 3.79601 2.31456 14.7131
Si 1.20788 2.01625 12.8903
Si 3.78425 6.50778 12.8799
O 0.933844 5.42439 15.7623
O 3.59696 1.21173 15.8676
O 2.36676 2.32268 14.0003
O 4.93557 6.76016 13.9868
O 1.67852 0.756897 12.0257
O 4.25059 5.19233 12.1022
O 0.923654 3.30536 11.8702
O 3.53796 7.77008 11.8874
O 2.33437 6.12986 13.5144
O 4.88329 1.88115 13.6477
O 1.81159 7.80785 15.4481
O 4.19561 3.76847 15.4868
Si 5.1671 4.42749 11.0427
Si 7.70616 17.3591 10.9823
Si 6.46456 6.59155 14.6983
Si 8.73866 2.23745 14.7538
Si 6.23369 2.0592 12.775
Si 8.92539 6.57729 12.8504
O 6.15833 5.43607 15.791
O 8.43334 1.11233 15.8325
O 7.31801 2.40202 13.9123
O 9.9628 6.93625 14.0241
O 6.77655 0.770159 11.9627
O 9.67196 5.30033 12.1608
O 6.03149 3.3458 11.8396
O 8.59322 7.63262 11.6985
O 7.48481 6.25231 13.6151
O 9.81361 1.81972 13.6626
O 6.74986 8.0081 15.4292
O 9.20979 3.62775 15.4807
Si 10.3574 4.32951 11.1205
Si 12.6665 0.00374453 10.9959
Si 11.3 6.55281 14.8773
Si 13.7747 2.14182 14.7615
Si 11.2335 1.85762 12.9134
Si 13.6845 6.31891 12.8845
O 10.8129 5.46968 15.8529
O 13.5699 1.06336 15.9379
O 12.2833 2.21281 14.0781
O 14.9389 6.63502 13.8818
O 11.7664 0.567613 12.2347
O 14.2445 5.13822 11.9699
O 11.0958 3.05366 11.8291
O 13.3055 7.58115 11.9369
O 12.3219 6.05264 13.7319
O 14.8724 1.81306 13.6066
O 11.883 7.8642 15.588
O 14.2906 3.53729 15.4418
Si 0.140916 13.1153 10.961
Si 2.54852 8.76673 11.1192
Si 1.23672 15.2914 14.7469
Si 3.60083 11.0534 14.7534
Si 1.14208 10.9548 12.9408
Si 3.65855 15.1169 12.7648
O 0.959863 14.1066 15.7101
O 3.35088 9.79808 15.7612
O 2.27633 11.4412 13.992
O 4.80135 15.435 13.8409
O 1.68995 9.60323 12.1897
O 4.20166 13.8577 11.9601
O 1.02166 12.0556 11.7835
O 3.43842 16.3718 11.7951
O 2.21198 14.9223 13.4902
O 4.67058 10.6574 13.6015
O 1.95998 16.5167 15.5478
O 4.24704 12.2319 15.6058
Si 5.22889 13.0695 10.9532
Si 7.61379 8.76602 11.1073
Si 6.20997 15.3684 14.6799
Si 8.57747 11.2515 14.7954
Si 6.06713 10.8991 12.9217
Si 8.80251 15.2007 12.9333
O 6.0451 14.2513 15.8677
O 8.34284 10.0237 15.7554
O 7.0326 11.4652 14.2192
O 10.0486 15.6192 13.8664
O 6.82144 9.61433 12.2468
O 9.26819 13.9469 12.1237
O 6.05786 11.9597 11.8104
O 8.52549 16.3333 11.904
O 7.49114 14.9905 13.8001
O 9.64873 10.7448 13.6286
O 6.63473 16.7138 15.3486
O 9.27421 12.5276 15.4175
Si 10.1135 13.1089 11.0556
Si 12.5593 8.68131 11.0828
Si 11.4354 15.4215 14.7361
Si 13.5969 11.1233 14.6979
Si 11.0656 10.6874 12.9005
Si 13.8941 15.2571 12.7804
O 11.2101 14.2775 15.9227
O 13.5272 9.86857 15.7581
O 12.1635 11.0732 14.0495
O 14.9779 15.7866 14.0225
O 11.573 9.53529 12.0151
O 14.3554 13.9249 12.0688
O 10.9443 11.9971 11.8984
O 13.7012 16.4165 11.7078
O 12.5243 14.9744 13.6329
O 14.7624 10.727 13.575
O 11.7999 16.744 15.5234
O 14.0957 12.4902 15.398
324
 Atoms. Timestep: 12000
Si 0.249186 4.27076 0.137054
Si 2.58446 17.4465 0.0642528
Si 1.2514 6.54003 3.58482
Si 3.69438 2.23996 3.45859
Si 1.14993 1.93945 1.92064
Si 3.93484 6.66495 1.8871
O 1.0342 5.22912 4.44094
O 3.67452 0.987899 4.48782
O 2.16228 2.28791 3.12296
O 5.20482 7.03516 2.83279
O 1.74315 0.664282 1.24878
O 4.40356 5.3057 1.1305
O 1.13411 3.16033 0.858687
O 3.58412 7.76891 0.850438
O 2.56909 6.32152 2.65429
O 4.6688 1.9016 2.21167
O 1.61857 7.79601 4.5628
O 4.23377 3.56151 4.13248
Si 5.2835 4.45396 16.5985
Si 7.57298 0.0733051 16.4854
Si 6.34016 6.5749 3.76388
Si 8.66163 2.11323 3.73283
Si 6.19398 2.16451 1.8253
Si 8.8041 6.37043 1.87309
O 5.82236 5.35187 4.6592
O 8.43119 0.918721 4.74167
O 7.26209 2.47929 2.98412
O 10.0291 6.90487 2.78283
O 6.61012 0.824114 0.93341
O 9.34181 5.13476 1.04149
O 6.06807 3.37278 0.827363
O 8.44781 7.57824 0.817494
O 7.5915 6.12874 2.87857
O 9.60181 1.87412 2.45005
O 6.83734 7.86392 4.55958
O 9.26877 3.3901 4.5043
Si 10.1704 4.43374 16.526
Si 12.5178 17.3358 16.3847
Si 11.2421 6.52687 3.70792
Si 13.5964 2.15081 3.65858
Si 11.0943 2.06884 1.75695
Si 13.7636 6.3541 1.92549
O 10.7342 5.45083 4.79412
O 13.442 1.03836 4.7773
O 12.1136 2.3044 3.01411
O 14.9547 6.90961 2.79078
O 11.6295 0.755896 0.862129
O 14.4735 5.0981 1.22621
O 11.0422 3.34108 0.806379
O 13.3432 7.55105 0.886624
O 12.5134 6.04933 2.77901
O 14.6572 1.8748 2.43584
O 11.7616 7.88614 4.48008
O 14.2281 3.46122 4.39758
Si 0.0205916 13.0384 -0.00253704
Si 2.66346 8.75756 16.5516
Si 1.27105 15.2183 3.62416
Si 3.58053 10.8564 3.65321
Si 1.09961 10.7719 1.78117
Si 3.77565 15.1502 1.68429
O 1.12072 13.865 4.57151
O 3.43134 9.61937 4.75157
O 2.14394 11.1566 2.98075
O 4.85676 15.4661 2.80128
O 1.64284 9.45224 1.07999
O 4.21621 13.8091 0.950244
O 1.08289 12.0564 0.746645
O 3.67969 16.375 0.775538
O 2.34335 15.0113 2.48186
O 4.72358 10.4505 2.50089
O 1.8408 16.4146 4.54876
O 4.17448 12.205 4.38991
Si 5.25149 13.0222 16.5313
Si 7.69893 8.70541 16.5577
Si 6.1502 15.2189 3.71063
Si 8.6621 10.8825 3.66528
Si 6.16864 10.7057 1.76885
Si 8.65933 15.2347 1.85016
O 5.85074 13.9586 4.72382
O 8.50617 9.79136 4.76867
O 7.18688 11.0241 3.00809
O 9.73783 15.5574 3.00801
O 6.74716 9.50346 0.943064
O 9.07025 13.9368 1.0242
O 6.05844 11.9557 0.794531
O 8.44766 16.4205 0.756561
O 7.31579 15.0742 2.70265
O 9.77941 10.3279 2.66212
O 6.63054 16.5165 4.69697
O 9.13001 12.2147 4.38801
Si 9.93228 13.0159 -0.00104983
Si 12.7156 8.63651 16.5057
Si 11.1307 15.3275 3.75387
Si 13.6029 10.9269 3.64249
Si 11.1421 10.736 1.80953
Si 13.6823 15.0437 1.80543
O 10.7783 14.2106 4.74503
O 13.4955 9.75262 4.67464
O 12.2537 11.19 2.86766
O 14.9363 15.4484 2.87321
O 11.5889 9.45374 0.887685
O 14.141 13.7447 1.05931
O 10.7806 11.9462 0.860966
O 13.356 16.1854 0.726829
O 12.3842 15.0406 2.76822
O 14.7092 10.6341 2.43082
O 11.6392 16.5747 4.6424
O 14.1682 12.1796 4.45
Si 0.15579 4.29485 5.34326
Si 2.77956 17.3956 5.41827
Si 1.5044 6.66247 9.22093
Si 3.72469 2.40556 9.20733
Si 1.28188 2.01571 7.23711
Si 3.96451 6.31878 7.28289
O 1.09686 5.47816 10.2205
O 3.50544 1.28252 10.3457
O 2.40054 2.4564 8.28366
O 5.26892 6.7674 8.03705
O 1.86889 0.843204 6.38603
O 4.21457 4.89788 6.51719
O 1.09194 3.26783 6.20282
O 3.63414 7.43468 6.19786
O 2.75859 6.31277 8.31391
O 4.9122 1.83214 8.29422
O 1.81147 8.08333 9.89323
O 4.24125 3.64925 9.93205
Si 5.07401 4.1673 5.34261
Si 7.5354 17.3363 5.7242
Si 6.39385 6.61088 9.25401
Si 8.64153 2.24231 9.11024
Si 6.17181 2.11054 7.37597
Si 8.93298 6.47859 7.41162
O 5.89205 5.49781 10.2747
O 8.23227 1.30799 10.2926
O 7.32535 2.54613 8.28288
O 10.3252 6.84263 8.08107
O 6.7468 0.754816 6.7426
O 9.23544 5.08839 6.65496
O 5.79776 2.94323 6.07312
O 8.56519 7.6957 6.37692
O 7.72439 6.20352 8.4362
O 9.85444 1.79228 8.17951
O 6.77773 7.95421 10.0378
O 9.39354 3.55324 9.90848
Si 10.1649 4.2595 5.62929
Si 12.6596 17.3693 5.58814
Si 11.5183 6.50729 9.09918
Si 13.8552 2.18975 9.06756
Si 11.2246 2.00053 7.39669
Si 13.9989 6.41262 7.29531
O 11.1725 5.32202 10.0589
O 13.7923 1.13588 10.2652
O 12.4283 2.31066 8.37925
O 0.170897 6.71489 8.23901
O 11.7793 0.642376 6.64979
O 14.387 5.19307 6.32412
O 11.0788 3.23382 6.44355
O 13.5723 7.61851 6.27583
O 12.8322 6.16829 8.28765
O 14.9525 1.82204 8.01725
O 11.9207 7.85025 10.0012
O 14.3791 3.63171 9.83326
Si 0.124795 12.8778 5.47392
Si 2.66259 8.53159 5.58162
Si 1.24624 15.4609 9.25705
Si 3.76817 11.003 9.24717
Si 1.22481 10.6734 7.48211
Si 3.7565 15.1151 7.30763
O 0.9408 14.2323 10.2315
O 3.63921 9.89722 10.3687
O 2.38957 11.0522 8.47593
O 4.92984 15.352 8.40137
O 1.85952 9.34214 6.6859
O 4.11922 13.78 6.5815
O 0.836732 11.7906 6.35218
O 3.59449 16.3401 6.29491
O 2.32311 15.0783 8.12992
O 4.98893 10.579 8.36628
O 1.81166 16.7478 10.0612
O 4.20724 12.3632 10.0311
Si 4.9402 12.9213 5.54834
Si 7.72406 8.75656 5.61106
Si 6.21607 15.3358 9.39239
Si 8.81092 11.0986 9.17365
Si 6.3176 10.8598 7.44165
Si 8.71731 15.029 7.58899
O 6.0294 14.2442 10.5764
O 8.24241 10.0871 10.3565
O 7.43909 11.4686 8.38533
O 10.0842 15.4498 8.29646
O 6.72262 9.52946 6.71271
O 9.04609 13.7279 6.74783
O 5.85774 11.839 6.24222
O 8.27852 16.1535 6.54983
O 7.53701 14.9197 8.66979
O 9.88641 10.4549 8.18767
O 6.49038 16.803 10.0639
O 9.53517 12.4144 9.87136
Si 9.91154 13.0448 5.47709
Si 12.669 8.71544 5.44785
Si 11.4964 15.2756 9.10947
Si 13.7987 11.0508 9.2698
Si 11.2048 10.8652 7.4205
Si 14.0008 15.2193 7.26606
O 11.1348 14.2953 10.2996
O 13.6454 9.80342 10.3283
O 12.4326 11.1791 8.46423
O 15.0165 15.8002 8.45297
O 11.6769 9.58457 6.53375
O 14.6337 13.9129 6.58135
O 10.8575 12.0588 6.35456
O 13.6333 16.2733 6.18997
O 12.6599 14.8542 8.00163
O 14.9334 10.529 8.25589
O 11.9341 16.6822 9.84674
O 14.1644 12.3637 10.0305
Si 0.17203 4.37786 10.932
Si 2.77509 0.0196973 11.1057
Si 1.2202 6.6299 14.7885
Si 3.63512 2.46832 14.8091
Si 1.37372 2.24082 12.9069
Si 3.68294 6.57536 12.843
O 0.920056 5.39331 15.8723
O 3.25169 1.25714 15.7575
O 2.47607 2.94732 13.8374
O 4.87549 6.95734 13.9292
O 1.87288 0.790661 12.3007
O 4.13271 5.2024 12.1365
O 1.04398 3.21237 11.7251
O 3.45297 7.70876 11.7999
O 2.34921 6.26811 13.6831
O 4.80373 1.9513 13.7737
O 1.83155 7.87009 15.5358
O 4.34177 3.64714 15.5741
Si 5.05252 4.3654 11.0765
Si 7.44542 0.144454 11.0894
Si 6.28319 6.75829 14.6649
Si 8.78649 2.37652 14.6863
Si 6.11796 2.17559 12.9985
Si 8.72957 6.60204 12.7394
O 6.09521 5.61808 15.8312
O 8.52116 1.1687 15.7189
O 7.35386 2.58104 13.9533
O 9.91681 6.6947 13.8145
O 6.44924 0.841935 12.212
O 9.13678 5.46075 11.7209
O 5.90253 3.28534 11.8987
O 8.54018 7.99137 11.9484
O 7.44964 6.26661 13.5715
O 9.87867 1.98933 13.5858
O 6.86059 8.04354 15.3309
O 9.29864 3.66865 15.4736
Si 10.1435 4.46492 10.9338
Si 12.6919 0.163751 10.9639
Si 11.3006 6.58894 14.6976
Si 13.8227 2.14038 14.7578
Si 11.2908 2.25097 12.8373
Si 13.8145 6.38754 12.9625
O 11.0748 5.51335 15.8971
O 13.4663 0.851223 15.6315
O 12.497 2.50752 13.9745
O 14.9033 6.76378 14.0621
O 11.8256 1.18906 11.77
O 14.382 5.17434 12.0283
O 10.9445 3.61782 12.0882
O 13.6032 7.637 11.9248
O 12.4454 6.12343 13.6421
O 0.110624 1.89808 13.8779
O 11.8594 7.92826 15.3499
O 14.3017 3.42312 15.7176
Si 15.0535 13.2097 11.049
Si 2.64615 8.86979 11.0012
Si 1.15692 15.4259 14.7571
Si 3.61048 11.0821 14.6698
Si 1.20363 10.9477 12.8893
Si 3.66127 15.0459 12.9404
O 0.839983 14.2672 15.8741
O 3.35447 9.90552 15.7351
O 2.19861 11.2079 14.0197
O 4.7696 15.4821 14.0108
O 1.67905 9.74632 11.9654
O 4.09167 13.6742 12.2528
O 0.91043 12.2712 11.9933
O 3.51577 16.198 11.7757
O 2.24565 14.9666 13.6606
O 4.71515 10.7315 13.6216
O 1.66888 16.5967 15.6517
O 4.29079 12.2498 15.4843
Si 5.14344 13.0483 11.1792
Si 7.50446 8.86945 11.1141
Si 6.21888 15.4026 14.7301
Si 8.76735 10.8439 14.7497
Si 6.16544 10.7824 12.9097
Si 8.61626 15.1621 12.72
O 6.01821 14.1468 15.7951
O 8.76288 9.72032 15.9172
O 7.31727 11.1137 13.9569
O 9.68482 15.6214 13.8486
O 6.50431 9.39548 12.2045
O 9.27281 13.8134 11.9805
O 5.98595 11.9647 11.8253
O 8.29844 16.4255 11.705
O 7.28381 14.9116 13.557
O 9.87126 10.5695 13.6182
O 6.7486 16.7066 15.4172
O 9.09715 12.188 15.4489
Si 10.3111 13.159 11.0515
Si 12.8133 8.72017 11.12
Si 10.9921 15.2877 14.7166
Si 13.853 10.8667 14.706
Si 11.2946 10.7807 12.7802
Si 13.6143 15.2601 12.926
O 10.7274 14.0919 15.69
O 13.7469 9.681 15.8184
O 12.4199 11.1392 13.9751
O 14.8603 15.4441 13.9358
O 11.866 9.60795 11.9808
O 14.0279 14.1063 11.9491
O 11.0504 11.9945 11.8093
O 13.2761 16.481 11.9554
O 12.2554 14.8857 13.7417
O 14.913 10.5142 13.5573
O 11.5343 16.6302 15.397
O 14.3174 12.1526 15.4932
324
 Atoms. Timestep: 12500
Si -0.0801941 4.25613 16.4973
Si 2.35101 0.000169408 16.3916
Si 1.16981 6.85429 3.55581
Si 3.74093 1.99373 3.62881
Si 1.04135 1.99231 1.86138
Si 3.78359 6.80421 1.82709
O 0.796625 5.68121 4.56676
O 3.47472 0.787638 4.6705
O 2.28271 2.20303 2.79986
O 4.92115 7.11583 2.86112
O 1.44077 0.72496 0.914516
O 4.35127 5.48055 0.986518
O 0.675657 3.13401 0.738959
O 3.46587 7.85752 0.788311
O 2.41225 6.48485 2.59491
O 4.97453 1.73068 2.60533
O 1.68553 8.10691 4.35281
O 4.12945 3.30692 4.45852
Si 5.13848 4.4348 0.0634652
Si 7.64253 -0.0118155 16.5613
Si 6.2238 6.55722 3.59389
Si 8.86667 2.14125 3.70825
Si 6.36977 2.05967 1.8452
Si 8.85063 6.31569 1.8611
O 5.88226 5.23282 4.3953
O 8.61027 0.952126 4.74948
O 7.43017 2.33722 2.95556
O 9.87411 6.54164 3.15178
O 6.83524 0.729747 1.13047
O 9.40269 5.13769 0.979659
O 6.02552 3.38882 0.884867
O 8.66599 7.60735 0.959131
O 7.41758 6.13946 2.47598
O 9.97557 1.87802 2.61558
O 6.76227 7.64375 4.71456
O 9.29466 3.3439 4.71323
Si 10.28 4.29727 16.3955
Si 12.625 17.4543 0.00187233
Si 11.3469 6.2816 3.76462
Si 13.6765 2.26266 3.76493
Si 11.3065 2.10375 1.797
Si 13.6856 6.38306 1.67679
O 11.3228 4.99357 4.68632
O 13.3997 1.09676 4.80466
O 12.3013 2.49989 2.96469
O 14.8767 6.94898 2.68169
O 11.7509 0.693421 1.12096
O 14.1355 5.09537 0.994174
O 11.0633 3.19791 0.728767
O 13.3162 7.56981 0.747736
O 12.3427 6.16229 2.56662
O 14.7604 1.7924 2.6532
O 11.8854 7.42227 4.75418
O 14.4099 3.53164 4.30404
Si 0.0964494 13.1025 0.0794608
Si 2.43515 8.84141 0.0360235
Si 1.15067 15.2095 3.51429
Si 3.74312 10.8731 3.63454
Si 1.19017 10.9255 1.92809
Si 3.62389 15.1222 1.6807
O 0.946049 13.9272 4.57011
O 3.74441 9.67898 4.71164
O 2.2625 11.1339 3.03011
O 4.77538 15.7012 2.65465
O 1.56475 9.52961 1.16458
O 4.20516 13.8987 0.772661
O 1.15366 12.0901 0.833531
O 3.11719 16.2075 0.583608
O 2.43737 14.8338 2.67835
O 4.78188 10.5107 2.50373
O 1.49398 16.5747 4.38169
O 4.18094 12.1526 4.46029
Si 5.21835 13.076 16.4505
Si 7.72007 8.66787 0.165209
Si 6.1221 15.3304 3.52159
Si 8.77627 10.881 3.73076
Si 6.26812 10.7799 1.89537
Si 8.69358 15.0659 1.82225
O 5.80188 14.213 4.57922
O 8.60773 9.64005 4.68083
O 7.44147 11.2105 2.90609
O 9.77723 15.2561 2.95153
O 6.77603 9.49405 1.16481
O 9.25212 13.7427 1.09032
O 6.03766 12.0729 0.925195
O 8.51951 16.2742 0.842637
O 7.23104 14.8448 2.50233
O 9.95464 10.6489 2.67815
O 6.78601 16.5299 4.31905
O 9.32749 12.13 4.64248
Si 10.0545 12.9433 16.5763
Si 12.3569 8.72231 0.0165187
Si 11.1028 15.2877 3.78889
Si 13.6204 10.9852 3.6864
Si 11.2572 10.8165 1.84972
Si 13.6433 15.1574 1.88695
O 10.9984 14.089 4.88358
O 13.3106 9.62783 4.44212
O 12.3307 11.3645 2.83956
O 14.8061 15.4586 2.89817
O 11.6615 9.44609 1.22346
O 14.1784 13.7741 1.16643
O 10.9985 11.9339 0.702648
O 13.5056 16.2683 0.752204
O 12.2565 14.9312 2.68808
O 14.8879 10.8381 2.67084
O 11.5848 16.6175 4.48146
O 14.0875 12.1671 4.66827
Si 0.109967 4.50908 5.36583
Si 2.40457 17.2673 5.4818
Si 1.43943 6.60867 9.21548
Si 3.72005 2.25124 8.96705
Si 1.18017 2.24943 7.19498
Si 3.96832 6.41547 7.28977
O 1.13704 5.52006 10.3273
O 3.53173 1.15954 10.1157
O 2.3526 2.47836 8.19051
O 5.331 6.86201 8.09716
O 1.50791 1.00157 6.23077
O 4.38179 5.0016 6.59209
O 0.990965 3.54935 6.29086
O 3.47937 7.3806 6.17568
O 2.88124 6.31178 8.4575
O 4.91316 1.67396 8.03546
O 1.67601 8.0366 9.92171
O 4.24085 3.51336 9.84643
Si 5.19814 4.22238 5.45153
Si 7.68682 17.2317 5.47833
Si 6.49056 6.47194 9.10068
Si 8.86014 2.27223 9.28076
Si 6.32524 1.96863 7.26092
Si 9.08989 6.48458 7.36318
O 6.00154 5.41951 10.191
O 8.41969 1.31701 10.5122
O 7.52152 2.29095 8.30867
O 10.2011 7.01263 8.3701
O 6.84991 0.669916 6.53227
O 9.64337 5.19184 6.55642
O 6.10995 3.18105 6.20577
O 8.62318 7.63082 6.42496
O 7.80031 5.95265 8.26571
O 10.0139 1.76596 8.29045
O 6.97387 7.83911 9.81429
O 9.34743 3.66048 9.80865
Si 10.3566 4.15255 5.58119
Si 12.6508 17.2587 5.48921
Si 11.4936 6.88212 9.27339
Si 13.9082 2.29577 9.22968
Si 11.4013 1.92804 7.48203
Si 13.9924 6.51018 7.36975
O 10.9265 5.75955 10.3722
O 13.734 0.983686 10.0583
O 12.459 2.59227 8.59485
O 0.273564 6.72738 8.14136
O 11.8638 0.596715 6.76859
O 14.2315 5.22107 6.45476
O 11.15 3.06637 6.38518
O 13.6002 7.79224 6.47174
O 12.7358 6.33425 8.39197
O 14.9112 1.97876 7.96904
O 11.941 8.19033 10.0424
O 14.6064 3.47668 10.0387
Si 0.210035 12.9189 5.50517
Si 2.77759 8.62102 5.46509
Si 1.24967 15.3673 9.31233
Si 3.82959 11.0389 9.21927
Si 1.42399 10.8754 7.33592
Si 3.71205 15.0906 7.39467
O 1.01001 14.3018 10.5314
O 3.54572 9.84462 10.254
O 2.48098 11.3284 8.43427
O 4.84207 15.51 8.39862
O 2.05909 9.5148 6.64827
O 4.19418 13.7373 6.5419
O 1.14958 11.9053 6.24752
O 3.06011 16.1521 6.42383
O 2.38458 14.8106 8.33825
O 5.05875 10.6465 8.24704
O 1.69351 16.7366 10.0384
O 4.14274 12.3445 10.0222
Si 5.08526 13.0347 5.43998
Si 7.7062 8.61317 5.53612
Si 6.15066 15.3422 9.31182
Si 8.94209 11.0339 9.14606
Si 6.38568 10.9587 7.36575
Si 8.71144 15.0961 7.54198
O 5.87852 14.1133 10.2802
O 8.52123 9.97087 10.358
O 7.61379 11.3322 8.35418
O 9.99214 15.5248 8.43604
O 6.82769 9.54529 6.55373
O 9.22765 13.7054 6.81215
O 6.07192 12.0227 6.2824
O 8.54302 16.193 6.37013
O 7.44598 14.8764 8.45209
O 10.0929 10.5762 8.11421
O 6.71042 16.642 10.1081
O 9.54237 12.2607 9.93487
Si 10.1413 13.0493 5.7042
Si 12.6126 8.64009 5.48844
Si 11.3617 15.3299 9.24599
Si 14.0162 11.1221 9.09244
Si 11.4329 10.8288 7.37967
Si 13.8132 15.1267 7.38236
O 11.0131 14.267 10.3887
O 13.7741 10.0819 10.2786
O 12.6278 11.1142 8.30124
O 14.9204 15.5913 8.50098
O 11.7571 9.48549 6.46552
O 14.5997 13.7996 6.70682
O 11.1728 12.0285 6.42627
O 13.5426 16.1172 6.16865
O 12.4397 14.8462 8.20852
O 0.096198 10.6732 8.15598
O 11.9019 16.6999 9.81249
O 14.3439 12.5122 9.79656
Si 0.221264 4.45138 11.1828
Si 2.73156 0.172687 11.0954
Si 1.17553 6.56915 14.8054
Si 3.69762 2.22554 14.7917
Si 1.1995 2.1521 12.9904
Si 3.67034 6.39135 12.9501
O 0.950781 5.45675 15.8562
O 3.41497 0.863991 15.697
O 2.30306 2.48288 14.0898
O 4.74793 6.73496 14.0292
O 1.8227 1.01247 12.073
O 4.14692 5.1564 12.0193
O 0.981526 3.42792 12.1105
O 3.34579 7.64824 11.9051
O 2.22509 6.10767 13.6154
O 4.84096 2.04676 13.7306
O 1.67233 7.88165 15.5454
O 4.15903 3.42336 15.6888
Si 5.04645 4.34597 11.0031
Si 7.60182 0.11222 11.1988
Si 6.17226 6.68854 14.7766
Si 8.70217 2.13868 14.6421
Si 6.1915 2.20142 12.8944
Si 8.61119 6.55498 12.814
O 6.09758 5.34685 15.6514
O 8.56922 1.0439 15.843
O 7.32873 2.52032 14.0121
O 9.81332 6.78402 13.8845
O 6.59419 0.768351 12.2169
O 8.91498 5.27066 11.93
O 5.98378 3.3763 11.8566
O 8.44875 7.73371 11.7838
O 7.20589 6.50096 13.5475
O 9.7997 1.78674 13.452
O 6.73687 7.79473 15.7715
O 9.35419 3.40186 15.4084
Si 10.0354 4.58307 10.9847
Si 12.7357 0.133586 10.9744
Si 11.2046 6.5948 14.5743
Si 13.6795 2.31068 14.6665
Si 11.1325 2.21834 12.7765
Si 13.8495 6.60681 12.778
O 11.1535 5.33094 15.5906
O 13.4982 1.16438 15.7719
O 12.2863 2.49151 13.825
O 14.892 6.87781 13.9522
O 11.7801 1.03305 11.8892
O 14.2217 5.2659 12.0319
O 10.9108 3.55394 11.8922
O 13.7703 7.73737 11.7134
O 12.4129 6.45305 13.5276
O 14.7501 1.85199 13.5866
O 11.4486 7.92474 15.4896
O 14.2661 3.58608 15.3059
Si 15.0975 13.1981 11.0681
Si 2.56563 8.85215 11.0841
Si 1.01615 15.4153 14.648
Si 3.57967 11.0692 14.7477
Si 1.10032 10.8609 12.8565
Si 3.61868 15.2859 13.0322
O 0.752832 14.3146 15.8506
O 3.10139 10.0276 15.8028
O 2.34885 11.3182 13.7266
O 4.68166 15.4928 14.227
O 1.60829 9.61949 12.1039
O 4.1106 14.1058 12.112
O 0.753043 12.0238 11.8294
O 3.47722 16.5106 12.083
O 2.22274 15.0229 13.7727
O 4.7651 10.4465 13.7821
O 1.38344 16.8506 15.2684
O 4.28584 12.2721 15.4063
Si 5.00672 13.1586 11.1752
Si 7.60086 8.77744 10.9468
Si 6.18316 15.3549 14.6544
Si 8.7253 10.8158 14.6874
Si 6.09748 10.738 12.9299
Si 8.70918 15.1387 12.8889
O 6.226 14.1021 15.6657
O 8.50204 9.65084 15.7926
O 7.34771 10.9372 13.9464
O 9.62912 15.6857 14.0312
O 6.46587 9.55079 11.8975
O 9.16712 13.7983 12.1807
O 5.74371 12.1053 12.1168
O 8.60098 16.3658 11.7977
O 7.17677 15.0754 13.4241
O 9.9013 10.4322 13.737
O 6.72488 16.5808 15.5145
O 9.12693 12.1124 15.587
Si 10.2538 13.0633 11.1106
Si 12.9424 8.92811 10.9912
Si 11.031 15.3 14.7796
Si 13.6841 11.0034 14.813
Si 11.2836 10.7409 12.967
Si 13.4699 15.117 12.7624
O 10.7258 14.0872 15.6733
O 13.3372 9.81714 15.8287
O 12.3388 11.2384 14.0142
O 14.629 15.3165 13.8593
O 11.9969 9.58266 12.1221
O 13.9896 13.8291 12.0038
O 11.0716 11.937 11.8634
O 13.3394 16.4202 11.8938
O 12.017 14.9575 13.5344
O 14.8793 10.625 13.8001
O 11.6068 16.5684 15.501
O 14.2846 12.1748 15.7231
324
 Atoms. Timestep: 13000
Si 0.0656346 4.2523 16.5042
Si 2.60091 17.1534 16.5336
Si 1.08572 6.56711 3.55798
Si 3.82143 2.07265 3.66948
Si 1.35181 1.99595 1.78035
Si 3.54107 6.21031 1.80953
O 0.803637 5.45047 4.7251
O 3.37944 0.969515 4.75598
O 2.53842 2.48414 2.84644
O 4.63589 6.69324 2.85323
O 1.96997 0.637111 1.21181
O 4.10249 4.99706 1.05457
O 0.876313 3.10475 0.783602
O 3.34773 7.49691 0.715468
O 2.10832 5.97194 2.52655
O 4.97576 1.52275 2.73775
O 1.71348 7.90638 4.2632
O 4.46725 3.38057 4.42099
Si 4.92106 4.12765 -0.0131384
Si 7.63983 17.366 -0.0617265
Si 6.08578 6.56401 3.56064
Si 8.81555 2.26772 3.72721
Si 6.31988 1.93684 1.88477
Si 8.73927 6.28217 1.81855
O 5.93171 5.44743 4.74793
O 8.74407 1.0192 4.76622
O 7.42485 2.52024 2.91241
O 9.89378 6.56962 2.91642
O 6.84883 0.728398 1.10896
O 9.16235 4.91406 1.03196
O 5.80711 3.01267 0.835095
O 8.56196 7.61249 0.9216
O 7.24598 6.20989 2.57195
O 9.97705 2.03866 2.65987
O 6.7475 7.81685 4.31675
O 9.2289 3.53114 4.59586
Si 10.148 4.23563 16.5114
Si 12.5492 -0.0139096 16.5241
Si 11.3207 6.48534 3.65474
Si 13.9494 2.12991 3.75253
Si 11.3343 2.13679 1.89535
Si 13.8015 6.60346 1.75457
O 11.3153 5.13566 4.57854
O 13.5797 0.933314 4.72066
O 12.595 2.31469 2.86529
O 14.8627 6.94012 2.839
O 11.6595 0.900294 1.02641
O 14.3086 5.25402 0.896422
O 11.0858 3.25409 0.730847
O 13.6983 7.76106 0.652926
O 12.3942 6.26237 2.43765
O 0.0722495 1.78147 2.74088
O 11.6309 7.58918 4.69885
O 14.2384 3.502 4.5524
Si 0.156658 13.1041 0.0719873
Si 2.64675 8.61802 16.3952
Si 1.06075 15.2225 3.70596
Si 3.76198 11.0214 3.72839
Si 1.20872 10.7189 1.88425
Si 3.50425 14.8891 1.95262
O 0.649574 14.0269 4.5768
O 3.66424 9.7322 4.73202
O 2.3443 11.0923 2.99984
O 4.73518 15.4425 2.87508
O 1.89686 9.57278 0.937279
O 4.11361 13.5428 1.31372
O 0.941085 12.0087 0.910174
O 3.24096 15.9687 0.768047
O 2.13611 14.6827 2.64451
O 4.94592 10.716 2.76129
O 1.70548 16.3475 4.60542
O 4.04647 12.4504 4.4516
Si 5.07624 13.102 0.103738
Si 7.71981 8.67204 0.114833
Si 6.15407 15.4054 3.61566
Si 8.72079 11.0376 3.57105
Si 6.26907 10.8395 1.8583
Si 8.70506 15.0995 1.72825
O 5.98256 14.2629 4.6814
O 8.34955 9.7719 4.48158
O 7.39721 11.4245 2.79964
O 9.80677 15.5506 2.8882
O 6.76813 9.47784 1.18401
O 9.3174 13.8414 1.10004
O 5.99684 11.9349 0.671777
O 8.47973 16.1241 0.473703
O 7.32629 15.0672 2.55544
O 9.89911 10.5731 2.62916
O 6.69861 16.6804 4.37801
O 9.24082 12.287 4.47018
Si 10.2039 13.0518 16.5706
Si 12.6539 8.73936 0.00973535
Si 11.1951 15.3543 3.6398
Si 13.6915 10.8642 3.71789
Si 11.2926 10.7876 1.87005
Si 13.791 15.2077 1.84866
O 11.1113 14.0557 4.68831
O 13.3006 9.62972 4.77415
O 12.396 11.0879 2.88966
O 14.9004 15.6954 2.79002
O 11.8186 9.35844 1.17847
O 14.2963 13.8982 1.13282
O 11.129 11.9107 0.762374
O 13.357 16.3182 0.748882
O 12.3986 14.9375 2.56593
O 14.8355 10.4901 2.67912
O 11.7135 16.6091 4.54206
O 14.1572 12.0008 4.72984
Si 0.0515098 4.22233 5.61452
Si 2.48587 17.3668 5.62532
Si 1.33642 6.70095 9.20009
Si 3.92993 2.40059 9.19067
Si 1.34529 2.15773 7.50555
Si 3.83264 6.36457 7.4238
O 0.815364 5.48984 10.1352
O 3.54282 1.13217 10.1941
O 2.60856 2.55075 8.42806
O 5.03932 6.71676 8.38234
O 1.63045 0.770178 6.62962
O 4.25869 5.00728 6.57145
O 1.03589 3.25278 6.36896
O 3.46469 7.41701 6.15475
O 2.46635 6.2386 8.23846
O 5.22027 1.92623 8.27495
O 1.89807 7.85191 10.1682
O 4.33138 3.73664 10.0758
Si 5.23222 4.25988 5.49944
Si 7.75209 17.3969 5.29906
Si 6.48163 6.59706 9.07303
Si 8.90442 2.4366 9.1561
Si 6.48046 2.05277 7.25993
Si 8.96382 6.57141 7.29589
O 6.18036 5.5439 10.3354
O 8.27405 1.41005 10.4014
O 7.71526 2.53469 8.15771
O 10.0869 6.99049 8.46339
O 6.84751 0.756858 6.43915
O 9.5466 5.27996 6.56412
O 6.10846 3.14502 6.20622
O 8.5119 7.68689 6.2964
O 7.61234 6.13445 8.06693
O 10.0941 1.78129 8.2532
O 6.9292 7.91082 9.77962
O 9.39477 3.62058 9.93
Si 10.2982 4.28871 5.55732
Si 12.7609 17.2591 5.5809
Si 11.3801 6.74917 9.34445
Si 13.7794 2.24577 9.32765
Si 11.4154 2.01462 7.3477
Si 13.9497 6.34286 7.5081
O 11.0573 5.55308 10.3429
O 13.5067 1.04068 10.326
O 12.5314 2.5631 8.36223
O 0.0765727 6.94101 8.35363
O 12.0319 0.690303 6.71431
O 14.3413 5.01718 6.78833
O 11.1281 3.15728 6.30118
O 13.605 7.49023 6.36426
O 12.6243 6.35898 8.45255
O 0.00645397 1.96079 8.38253
O 11.8157 7.98939 10.197
O 14.1542 3.59179 10.1169
Si 15.0663 12.8984 5.52064
Si 2.61165 8.56316 5.40697
Si 1.17046 15.386 9.37475
Si 3.90781 10.9779 9.15662
Si 1.35872 10.7549 7.27829
Si 3.70332 15.2839 7.66298
O 1.05673 14.2801 10.4896
O 3.65217 9.82833 10.2528
O 2.5428 11.1966 8.28376
O 4.9537 15.6887 8.52963
O 1.82366 9.53767 6.44887
O 4.15074 14.057 6.65638
O 1.02146 11.9225 6.24904
O 3.34186 16.404 6.5664
O 2.40032 15.0439 8.45701
O 5.01761 10.5855 8.10474
O 1.71012 16.8255 9.90524
O 4.51833 12.3116 9.98788
Si 4.97432 13.207 5.55231
Si 7.60705 8.7123 5.36425
Si 6.413 15.3841 9.13367
Si 8.82917 11.0208 9.17424
Si 6.26035 10.8252 7.22257
Si 8.7214 15.2477 7.25547
O 6.30433 14.263 10.2082
O 8.61017 9.85083 10.2677
O 7.60254 11.0717 8.16224
O 9.81959 15.7414 8.24076
O 6.77837 9.53961 6.36638
O 9.33416 13.8785 6.54455
O 5.88773 12.0617 6.23821
O 8.50006 16.2113 5.96855
O 7.31292 15.0158 7.89208
O 10.133 10.8511 8.30751
O 7.03299 16.5678 9.86954
O 9.09809 12.3414 9.96007
Si 10.2039 13.0092 5.53098
Si 12.5425 8.45431 5.63952
Si 11.1491 15.5056 9.00508
Si 13.8793 10.8648 9.10475
Si 11.4177 10.7851 7.27224
Si 13.8033 15.0875 7.39965
O 10.7975 14.3063 10.1265
O 13.6743 9.69199 10.1402
O 12.708 11.1867 8.10765
O 14.824 15.5091 8.51572
O 11.6013 9.29595 6.63634
O 14.2597 13.7224 6.71213
O 11.0641 11.8906 6.22054
O 13.6672 16.1418 6.18419
O 12.3137 15.0179 8.09742
O 0.0839457 10.5172 8.19956
O 11.7276 16.606 10.0121
O 14.2911 12.2593 9.89079
Si -0.0357226 4.53081 11.0846
Si 2.67592 0.163222 10.9694
Si 1.19154 6.46042 14.598
Si 3.61136 2.06987 14.6526
Si 1.03014 2.04684 12.8474
Si 3.8401 6.52442 13.0417
O 1.05837 5.25361 15.6808
O 3.49332 0.786269 15.6204
O 2.16019 2.2427 13.9079
O 4.7651 6.86063 14.2763
O 1.61146 0.911295 11.937
O 4.39211 5.30101 12.2377
O 0.868361 3.45538 11.9221
O 3.7073 7.80391 11.9986
O 2.37243 6.1737 13.575
O 4.75049 1.95083 13.5816
O 1.76548 7.82629 15.2942
O 3.98043 3.3443 15.6175
Si 5.21852 4.56633 11.12
Si 7.50509 0.126905 11.0198
Si 6.23702 6.36148 14.8713
Si 8.71002 2.22771 14.5887
Si 6.11521 2.11413 12.797
Si 8.71778 6.49888 12.9248
O 5.9052 5.10005 15.776
O 8.51949 1.11174 15.7001
O 7.27396 2.32494 13.8744
O 9.76165 6.98409 14.0286
O 6.34845 0.769801 11.9483
O 9.3699 5.14823 12.2088
O 6.08769 3.44919 11.8807
O 8.3487 7.66734 11.9038
O 7.30442 6.17005 13.7766
O 9.77339 1.82611 13.5278
O 6.86625 7.67227 15.7269
O 9.27671 3.47199 15.3873
Si 10.1682 4.45331 11.0113
Si 12.6441 -0.0467635 11.1221
Si 11.1295 6.65935 14.7263
Si 13.6432 2.22975 14.6857
Si 11.2298 2.12629 12.8717
Si 13.6817 6.62093 12.9399
O 11.0292 5.45237 15.7683
O 13.5275 1.00931 15.7667
O 12.13 2.45345 14.1584
O 14.845 6.72396 14.0142
O 11.7746 0.944262 12.0505
O 14.1609 5.47514 11.9732
O 11.107 3.39586 11.7574
O 13.5013 7.93949 12.1337
O 12.2696 6.41342 13.7098
O 14.7346 1.85762 13.5193
O 11.7236 7.84086 15.6407
O 14.2707 3.47351 15.4262
Si 15.0998 13.1099 10.9463
Si 2.81002 8.75113 11.1175
Si 1.13383 15.1911 14.6913
Si 3.64559 10.9853 14.7108
Si 1.05563 10.8624 12.7979
Si 3.55918 15.2429 12.8439
O 1.02959 14.1787 15.8974
O 3.61172 9.6489 15.5501
O 2.21866 11.1646 14.0019
O 4.57131 15.7409 13.9856
O 1.70323 9.53377 12.0223
O 4.34101 14.1524 11.9537
O 0.894851 12.0357 11.7677
O 3.38479 16.4695 11.8139
O 2.23578 14.8714 13.5988
O 4.79114 10.8315 13.5224
O 1.58976 16.5557 15.4029
O 4.14539 12.2721 15.6148
Si 5.29455 13.3205 10.9918
Si 7.61282 8.76256 10.9112
Si 5.98863 15.4707 14.8201
Si 8.67422 10.9609 14.7514
Si 6.21737 10.9897 12.7056
Si 8.51212 15.339 12.9934
O 5.79387 14.3365 15.9336
O 8.49176 9.77594 15.8151
O 7.31295 11.1345 13.914
O 9.69164 15.5449 14.0611
O 6.67636 9.72265 11.8085
O 9.04506 14.1014 12.1125
O 6.13448 12.2753 11.8936
O 8.3182 16.6445 12.0594
O 7.06623 15.1022 13.7662
O 9.88861 10.699 13.6211
O 6.51461 16.8388 15.5375
O 9.23155 12.2203 15.5912
Si 9.92702 13.3083 10.9889
Si 12.7362 8.88493 11.1348
Si 11.1055 15.3147 14.7534
Si 13.7398 11.0567 14.6866
Si 11.1917 11.1631 12.9566
Si 13.6173 15.1685 12.8896
O 11.0832 14.087 15.7766
O 13.3217 9.94586 15.7577
O 12.3403 11.4875 14.0239
O 14.8308 15.4872 13.9828
O 11.9055 9.90038 12.1172
O 14.038 13.8007 11.9973
O 10.8975 12.3356 11.9469
O 13.5501 16.3586 11.8447
O 12.2844 15.0763 13.6394
O 14.8231 10.6195 13.6329
O 11.5635 16.7086 15.5473
O 14.36 12.2305 15.588
324
 Atoms. Timestep: 13500
Si 0.293423 4.38121 16.5481
Si 2.62293 17.3383 16.4177
Si 1.21017 6.57877 3.74235
Si 3.84729 2.32947 3.65029
Si 1.32996 2.06023 1.77586
Si 3.71595 6.29941 1.96945
O 1.08997 5.39155 4.90427
O 3.55571 1.19094 4.8685
O 2.47033 2.3607 2.8271
O 4.78166 6.88221 3.07624
O 1.62812 0.699713 0.906327
O 4.278 4.97952 1.2375
O 1.31426 3.25318 0.676207
O 3.48689 7.3248 0.769775
O 2.34948 6.26403 2.67335
O 4.99254 1.80936 2.66367
O 1.82786 7.80357 4.54254
O 4.32099 3.66194 4.50216
Si 5.0773 4.3059 -0.0120718
Si 7.64052 17.246 0.0881983
Si 6.23312 6.60633 3.73345
Si 8.7792 2.42805 3.65029
Si 6.26755 2.03899 1.79774
Si 8.58668 6.32153 1.81902
O 6.20226 5.51907 4.92686
O 8.25899 1.165 4.54327
O 7.42067 2.7461 2.83882
O 9.74806 6.71598 2.86599
O 6.81168 0.662471 1.20123
O 9.03519 5.05252 0.984466
O 5.84323 3.05954 0.666519
O 8.38423 7.48295 0.698631
O 7.21314 6.12929 2.59411
O 9.96318 1.91118 2.77658
O 6.86872 7.8883 4.35672
O 9.1541 3.80948 4.45615
Si 9.99589 4.31686 16.4858
Si 12.647 17.4741 0.0767296
Si 11.2493 6.61932 3.51027
Si 13.7999 2.36078 3.71905
Si 11.2253 2.15359 1.86032
Si 13.9176 6.43808 1.86013
O 11.1053 5.51896 4.72278
O 13.5495 1.12571 4.72145
O 12.4138 2.56103 2.9316
O 14.886 6.7271 3.0094
O 11.6317 0.814488 1.12069
O 14.4974 5.07077 1.18317
O 10.8357 3.2248 0.691782
O 13.7385 7.63085 0.750021
O 12.4369 6.16218 2.5005
O 15.0015 2.07443 2.63704
O 11.9144 7.8702 4.19282
O 14.3478 3.65799 4.55384
Si 0.0290862 12.9397 0.000899327
Si 2.80894 8.53015 0.128088
Si 1.15287 15.3945 3.75424
Si 3.75334 10.8769 3.60072
Si 1.24532 10.6863 1.89031
Si 3.72271 15.0909 1.85682
O 0.97508 14.1977 4.80248
O 3.45289 9.72436 4.64233
O 2.23564 11.2586 3.04832
O 4.88271 15.2909 2.92416
O 1.95525 9.34424 1.32425
O 4.00801 13.7946 1.08764
O 1.00409 11.7022 0.63024
O 3.48612 16.3583 0.795405
O 2.26021 14.9783 2.63908
O 4.87007 10.5388 2.49274
O 1.57026 16.7694 4.46405
O 4.41359 12.0838 4.50005
Si 4.90569 12.9848 16.5534
Si 7.50689 8.64465 16.4881
Si 6.1954 15.2332 3.83824
Si 8.76503 10.9677 3.51523
Si 6.2219 10.808 1.7289
Si 8.78134 15.0026 2.00052
O 6.15259 13.9861 4.86397
O 8.42678 9.78921 4.57169
O 7.43815 11.1779 2.67639
O 9.85017 15.4721 3.08551
O 6.71998 9.44686 0.984075
O 9.33953 13.6792 1.28893
O 5.91568 12.076 0.811975
O 8.57102 16.1423 0.811356
O 7.40241 15.0231 2.68763
O 9.96036 10.5192 2.57037
O 6.49772 16.5696 4.65015
O 9.23635 12.2748 4.32651
Si 10.193 13.0255 0.110781
Si 12.8704 8.71977 16.4298
Si 11.3975 15.2804 3.55804
Si 13.9434 10.915 3.61045
Si 11.376 10.7644 1.83445
Si 13.7701 15.1244 1.81315
O 11.2497 14.0541 4.5388
O 13.5679 9.70972 4.72689
O 12.5297 11.1364 2.9243
O 14.7883 15.4588 3.0694
O 11.9243 9.55652 0.961241
O 14.4415 13.8738 1.0535
O 11.1674 12.0073 0.814086
O 13.5165 16.4606 0.908259
O 12.2913 14.8393 2.34183
O 15.0164 10.341 2.62898
O 11.8707 16.6358 4.2498
O 14.4613 12.1522 4.39772
Si 0.147307 4.32083 5.63935
Si 2.66806 0.00296368 5.51332
Si 1.19885 6.6682 9.13034
Si 3.89136 2.20725 9.31344
Si 1.48087 2.07419 7.58545
Si 3.7916 6.36649 7.34658
O 1.01385 5.54687 10.2926
O 3.50344 1.10711 10.3047
O 2.67435 2.65876 8.35418
O 4.83674 6.65353 8.51789
O 1.94896 0.758463 6.83791
O 4.31768 5.08642 6.67698
O 0.921062 3.0736 6.42752
O 3.65688 7.58201 6.30031
O 2.32552 6.2939 7.98167
O 5.104 1.80866 8.42526
O 1.73767 8.01376 9.84229
O 4.36605 3.49683 10.0638
Si 5.28637 4.34951 5.59599
Si 7.53335 -6.09047e-05 5.45926
Si 6.26331 6.57136 9.27156
Si 8.94297 2.21079 9.2505
Si 6.41589 2.03558 7.4893
Si 8.75592 6.71176 7.34628
O 6.24569 5.35847 10.2515
O 8.69902 0.97734 10.187
O 7.61711 2.52607 8.42284
O 9.97366 7.0664 8.27543
O 6.93978 0.778585 6.66995
O 9.20731 5.21466 6.71466
O 6.01913 3.16029 6.41395
O 8.72146 7.79325 6.14686
O 7.40529 6.62858 8.14234
O 10.1843 2.06831 8.18686
O 6.5013 7.87362 10.1616
O 9.34112 3.60702 10.0264
Si 10.1052 4.46416 5.51937
Si 12.566 17.4155 5.38076
Si 11.3009 6.8207 9.23697
Si 13.9063 2.30813 9.29754
Si 11.4417 2.1219 7.24573
Si 13.7605 6.31023 7.40659
O 10.8943 5.76933 10.4567
O 13.5164 1.15173 10.3863
O 12.6763 2.51368 8.29697
O 14.8555 6.8947 8.4377
O 11.6287 0.814523 6.35716
O 14.4176 5.03809 6.7288
O 11.1143 3.35755 6.17744
O 13.5411 7.38466 6.19246
O 12.478 6.2255 8.25574
O 0.123003 1.90613 8.46385
O 11.7807 8.18222 9.9663
O 14.2578 3.64666 10.0773
Si 0.15298 12.9948 5.54238
Si 2.72684 8.62483 5.4889
Si 1.2596 15.4118 8.95744
Si 3.78333 11.0535 9.23088
Si 1.29005 10.7317 7.47863
Si 3.77442 15.1014 7.23585
O 1.03072 14.2949 10.1718
O 3.44041 9.98604 10.3709
O 2.37588 11.1947 8.52976
O 4.8329 15.5012 8.40321
O 1.93825 9.57893 6.5486
O 4.32499 13.8019 6.51534
O 0.944982 11.9341 6.43799
O 3.61351 16.2874 6.14033
O 2.41489 14.9307 8.01938
O 4.86865 10.396 8.27459
O 1.63557 16.7661 9.73849
O 4.44402 12.3166 9.91063
Si 5.2873 12.8844 5.55842
Si 7.67941 8.68946 5.41392
Si 6.25086 15.4854 9.14379
Si 8.85251 10.8472 9.24379
Si 6.26085 10.539 7.405
Si 8.76746 15.1804 7.13551
O 6.08704 14.3554 10.2989
O 8.57044 9.66884 10.2935
O 7.49054 10.9005 8.3674
O 10.0094 15.6354 8.11764
O 6.6908 9.36426 6.51253
O 9.35486 14.0166 6.33608
O 5.97864 11.7764 6.38688
O 8.5015 16.2955 6.07762
O 7.40702 15.0511 8.00102
O 10.0216 10.5109 8.18001
O 6.77045 16.7875 9.93617
O 9.0797 12.2976 9.8482
Si 10.2044 13.0571 5.40673
Si 12.7316 8.53755 5.45961
Si 11.1859 15.4234 9.15758
Si 13.8063 10.9416 9.23285
Si 11.3612 10.772 7.29089
Si 13.6931 15.0033 7.28145
O 10.554 14.4093 10.2516
O 13.6418 9.94833 10.4737
O 12.5121 10.9707 8.39156
O 14.9836 15.3945 8.18698
O 11.7345 9.4734 6.44986
O 14.1794 13.8197 6.38293
O 11.077 12.0661 6.32327
O 13.2491 16.2992 6.35886
O 12.4166 14.7161 8.24287
O 14.9996 10.4466 8.29476
O 11.8057 16.6827 10.0147
O 14.3593 12.2611 10.0465
Si 0.132537 4.5476 11.088
Si 2.4176 0.110813 10.9839
Si 1.13039 6.84909 14.6525
Si 3.658 2.25805 14.6806
Si 1.04974 2.09686 12.8959
Si 3.61054 6.63851 12.8269
O 0.961336 5.46526 15.6706
O 3.47915 1.18164 15.8
O 2.30776 2.54316 13.9195
O 4.78159 6.6644 13.9935
O 1.57334 0.88928 12.063
O 4.11906 5.59421 11.7041
O 0.875142 3.45138 11.9728
O 3.47168 7.95503 11.9554
O 2.17819 6.45605 13.557
O 4.71419 1.82601 13.5446
O 1.7519 8.04827 15.562
O 4.23739 3.69367 15.3545
Si 5.11496 4.52402 11.0148
Si 7.60596 0.171456 11.0246
Si 6.18246 6.49721 14.733
Si 8.55325 2.19191 14.7953
Si 6.13531 2.28973 12.8897
Si 8.76471 6.32434 12.9017
O 6.02021 5.36389 15.8766
O 8.43348 0.909836 15.7333
O 7.19998 2.32549 13.9856
O 9.68693 7.01332 13.968
O 6.7293 1.26676 11.8159
O 9.35376 4.98312 12.3112
O 5.83776 3.62879 12.1362
O 8.4307 7.38603 11.7083
O 7.37002 6.14913 13.6591
O 9.72695 1.98147 13.7001
O 6.67149 7.85136 15.3982
O 8.97946 3.50599 15.622
Si 10.1997 4.40547 10.9941
Si 12.6731 0.024662 11.1258
Si 11.1316 6.62529 14.7419
Si 13.6883 2.31365 14.7682
Si 11.1483 2.20277 12.9899
Si 13.5783 6.61101 12.9496
O 10.7506 5.43452 15.7232
O 13.5288 1.05107 15.7983
O 12.2823 2.55356 14.1445
O 14.8565 7.05824 13.8862
O 11.8659 0.882604 12.2992
O 14.2022 5.44974 11.994
O 11.0063 3.25942 11.8184
O 13.2492 7.93041 12.0921
O 12.2722 6.1997 13.6938
O 14.7982 1.89584 13.6836
O 11.8746 7.80295 15.5942
O 14.3053 3.59721 15.627
Si 0.29371 13.0913 10.9428
Si 2.52501 8.82897 10.9685
Si 1.19746 14.9788 14.557
Si 3.68319 10.7568 14.7905
Si 1.19633 10.7509 12.7487
Si 3.65956 15.1415 12.7856
O 1.0327 13.9069 15.7059
O 3.66589 9.60061 15.9781
O 2.32826 10.8054 13.8679
O 4.76176 15.6158 13.8474
O 1.39693 9.46836 11.8756
O 4.24034 13.9363 11.9489
O 1.2154 12.0466 11.7386
O 3.24945 16.3689 11.7524
O 2.25224 14.7488 13.415
O 4.85755 10.576 13.7408
O 1.90432 16.3314 15.2935
O 3.94214 12.1325 15.6087
Si 5.19968 13.1629 11.0094
Si 7.59259 8.64941 11.1146
Si 6.02871 15.2813 14.7166
Si 8.67168 11.0249 14.7733
Si 6.19704 10.7482 12.9589
Si 8.54269 15.2211 12.9036
O 5.66177 14.0207 15.6551
O 8.34028 9.77854 15.6883
O 7.27615 11.2675 13.9998
O 9.84511 15.504 13.8875
O 6.79891 9.47502 12.1723
O 8.92962 13.8774 12.0716
O 5.92065 11.9406 11.8591
O 8.30339 16.4761 11.9874
O 7.28773 14.8587 13.7786
O 9.77212 10.7203 13.7162
O 6.49026 16.49 15.6751
O 9.2111 12.1683 15.7153
Si 9.8026 13.1834 10.9674
Si 12.5353 8.94315 11.1296
Si 11.1807 15.3644 14.7364
Si 13.7701 11.0374 14.6008
Si 11.0969 11.0414 12.8834
Si 13.7561 15.0644 12.9106
O 10.8735 14.187 15.8147
O 13.7482 9.7336 15.5949
O 12.2945 11.3196 13.9751
O 14.85 15.4182 14.0004
O 11.4856 9.79314 12.0029
O 14.4719 13.8946 12.1237
O 10.6811 12.128 11.7491
O 13.5401 16.3202 11.9162
O 12.3294 14.8184 13.7657
O 14.8948 10.8872 13.4792
O 11.7431 16.6295 15.4967
O 14.1434 12.295 15.4781
324
 Atoms. Timestep: 14000
Si 15.0317 4.25229 0.0530859
Si 2.6217 -0.0225755 0.144193
Si 1.33815 6.55205 3.76514
Si 3.71301 2.3002 3.67449
Si 1.20565 2.19883 1.94865
Si 3.81301 6.41498 1.84118
O 1.06928 5.42835 4.78127
O 3.6745 0.979834 4.46451
O 2.26697 2.59085 3.04614
O 5.09138 6.73911 2.80663
O 1.77458 0.856429 1.25439
O 4.11507 5.05885 1.07631
O 1.01028 3.23408 0.693234
O 3.64437 7.56929 0.763276
O 2.56271 6.1402 2.79216
O 4.84748 2.05247 2.55154
O 1.63655 7.97753 4.42686
O 4.20172 3.50981 4.45351
Si 4.97818 4.37787 16.5535
Si 7.73504 17.3419 0.10061
Si 6.42192 6.56733 3.70751
Si 8.7397 2.24525 3.69329
Si 6.31832 2.30991 1.85184
Si 8.88198 6.47384 1.72115
O 6.11378 5.35214 4.76111
O 8.61592 1.03596 4.66807
O 7.38888 2.60211 2.93888
O 9.90846 7.1734 2.77265
O 6.97344 0.993523 0.997778
O 9.699 5.18447 1.10941
O 6.01867 3.40366 0.77161
O 8.35666 7.47898 0.595793
O 7.62564 6.19525 2.666
O 9.81629 1.81697 2.56948
O 6.77527 7.85731 4.58205
O 9.26677 3.51921 4.46607
Si 10.3355 4.11953 0.0867923
Si 12.7741 17.3173 16.5642
Si 11.1704 6.93486 3.65698
Si 13.8422 2.24457 3.68009
Si 11.2992 1.88658 1.94295
Si 13.7673 6.42642 1.95203
O 10.8222 5.79303 4.79247
O 13.904 1.0869 4.76703
O 12.3163 2.20318 3.12256
O 15.0321 6.71974 2.91455
O 11.8183 0.583938 1.0778
O 14.0876 5.06112 1.17442
O 11.2176 3.09839 0.94574
O 13.6111 7.67806 0.917176
O 12.3324 6.41484 2.67098
O 14.8379 1.99771 2.45082
O 11.7026 8.15019 4.61871
O 14.2334 3.55638 4.32409
Si 0.0301078 12.9757 0.0453336
Si 2.64348 8.6425 16.5801
Si 1.21866 15.4337 3.60524
Si 3.80953 10.9402 3.75217
Si 1.34291 10.784 1.80049
Si 3.71806 15.1652 1.82749
O 0.9428 14.2378 4.71263
O 3.51162 9.8092 4.89803
O 2.56383 11.1354 2.75937
O 4.87323 15.3443 2.93758
O 1.78688 9.37729 1.14073
O 3.9991 13.957 0.824694
O 0.991939 11.9096 0.661484
O 3.66516 16.3961 0.89469
O 2.31431 15.0455 2.55117
O 4.94754 10.455 2.75201
O 1.71694 16.7475 4.47204
O 4.24415 12.2596 4.51141
Si 4.98478 13.0953 16.5281
Si 7.49976 8.68236 16.3871
Si 6.30315 15.1792 3.72605
Si 8.78301 11.0095 3.76707
Si 6.22876 10.831 1.8512
Si 8.715 14.939 1.86396
O 6.00629 14.0553 4.83113
O 8.45517 9.72289 4.64327
O 7.44114 11.2513 2.8346
O 9.72695 15.4979 2.97896
O 6.77193 9.64235 0.980449
O 9.39301 13.7768 1.11933
O 5.71156 12.0023 0.887581
O 8.53381 16.1313 0.81955
O 7.31096 14.6865 2.65748
O 10.0843 10.6856 2.83428
O 6.76926 16.5239 4.41835
O 9.06475 12.3221 4.62028
Si 10.2859 13.0213 -0.0174739
Si 12.598 8.63325 0.105825
Si 11.1464 15.3548 3.73988
Si 13.7968 11.1076 3.7071
Si 11.2887 10.7086 1.8542
Si 13.6842 15.0237 1.92088
O 11.0262 14.1756 4.85509
O 13.6219 9.92406 4.84855
O 12.5133 11.0504 2.78874
O 14.8047 15.633 2.93313
O 11.5866 9.41736 1.00723
O 14.3581 13.739 1.24048
O 11.1325 11.9349 0.842402
O 13.4711 16.0337 0.78505
O 12.2672 14.8563 2.64468
O 15.0355 10.7199 2.60787
O 11.8736 16.7034 4.31613
O 14.1569 12.5097 4.32812
Si 0.0716764 4.30207 5.45188
Si 2.83505 17.3857 5.42319
Si 1.12069 6.66093 9.16318
Si 3.75303 2.26366 9.14442
Si 1.21964 2.02857 7.31278
Si 3.70312 6.50944 7.28504
O 0.935288 5.61052 10.343
O 3.31681 1.21778 10.2985
O 2.30493 2.6152 8.46023
O 4.69878 6.99321 8.46639
O 2.00016 0.8503 6.49282
O 4.20761 5.12769 6.52031
O 0.770171 3.10874 6.17766
O 3.51595 7.68503 6.27063
O 2.30357 6.35516 8.10606
O 4.92221 1.67014 8.12186
O 1.38119 8.05402 9.80094
O 4.25243 3.52578 9.97865
Si 5.14619 4.30645 5.51401
Si 7.72024 17.3669 5.40406
Si 6.06773 6.79398 9.30145
Si 8.78445 2.19547 9.1928
Si 6.27057 1.97873 7.31871
Si 8.68224 6.32144 7.46996
O 5.702 5.62229 10.2945
O 8.60464 1.00828 10.1601
O 7.35234 2.37301 8.41852
O 9.81663 6.502 8.54175
O 6.7802 0.719668 6.50421
O 9.06946 5.12798 6.47172
O 5.9263 3.24056 6.39888
O 8.45473 7.5732 6.45153
O 7.21754 6.2844 8.2116
O 9.86045 1.94017 8.04764
O 6.67117 8.06795 10.1024
O 9.2744 3.49163 10.0445
Si 10.1766 4.47643 5.42892
Si 12.7692 0.168717 5.41403
Si 11.2413 6.50809 9.14688
Si 13.8033 2.23892 9.12484
Si 11.3465 2.24259 7.23604
Si 13.7419 6.44931 7.19409
O 11.1561 5.30781 10.1816
O 13.7177 1.09341 10.1813
O 12.4176 2.45592 8.32663
O 14.83 6.73451 8.30653
O 11.8026 1.06769 6.34402
O 14.1663 5.14025 6.43455
O 11.1449 3.49286 6.28624
O 13.6099 7.66961 6.21224
O 12.3129 6.30735 7.99754
O 15.0124 1.66482 8.1557
O 11.6678 7.8605 9.91899
O 14.2847 3.65673 9.85585
Si 0.0548845 13.2011 5.42778
Si 2.55949 8.79612 5.60523
Si 1.32027 15.3897 9.24776
Si 3.64481 11.1454 9.07439
Si 1.01696 10.8658 7.271
Si 3.82805 15.0632 7.31373
O 1.01688 14.1707 10.2153
O 3.26797 9.86431 10.0022
O 2.22001 11.3598 8.29934
O 5.0362 15.4587 8.32101
O 1.61941 9.51522 6.64939
O 4.22628 13.6845 6.68459
O 0.907314 12.0879 6.20859
O 3.6045 16.151 6.12553
O 2.49301 15.0193 8.21083
O 4.8722 10.7409 8.16658
O 1.66419 16.7041 9.99493
O 4.30954 12.3665 9.88175
Si 5.1444 13.014 5.60595
Si 7.66667 8.62386 5.62873
Si 6.37267 15.2702 9.13681
Si 8.76997 11.0133 9.26827
Si 6.30209 10.9134 7.46411
Si 8.86686 15.2227 7.31291
O 6.22004 14.1723 10.3278
O 8.68722 9.80532 10.3592
O 7.32123 11.2288 8.61324
O 10.0514 15.6197 8.39622
O 6.84808 9.62731 6.63012
O 9.41706 13.8953 6.61415
O 6.1455 12.0855 6.44681
O 8.65812 16.3773 6.22033
O 7.53064 14.8841 8.14772
O 9.84881 10.6582 8.07059
O 6.82972 16.5573 9.97078
O 9.30838 12.3473 10.0188
Si 10.1732 13.0425 5.50368
Si 12.733 8.87417 5.58561
Si 11.4536 15.2936 9.17696
Si 13.6126 11.029 9.26201
Si 11.1954 10.8032 7.30095
Si 13.8713 15.3283 7.28467
O 11.0919 14.0499 10.0424
O 13.5075 9.69357 10.2019
O 12.1844 11.364 8.4692
O 0.0445729 15.5494 8.32702
O 11.886 9.53281 6.77188
O 14.3162 14.0665 6.3924
O 11.1294 11.8188 6.00557
O 13.4809 16.5774 6.44175
O 12.5419 15.0192 8.0404
O 14.7216 10.8222 8.07302
O 12.079 16.5029 9.90341
O 14.2209 12.2789 10.0145
Si 0.0736047 4.38384 10.9911
Si 2.50864 0.0241312 11.0437
Si 1.10286 6.43895 14.768
Si 3.6844 2.22087 14.6291
Si 1.19268 2.09476 12.9031
Si 3.49785 6.52494 12.7247
O 0.770249 5.35752 15.748
O 3.29369 1.00037 15.6497
O 2.40207 2.57956 13.7685
O 4.7274 6.86581 13.6833
O 1.64863 0.720084 12.1617
O 4.07379 5.15511 12.0806
O 1.01005 3.21028 11.6933
O 3.10487 7.68565 11.713
O 2.25291 6.22558 13.6427
O 4.9634 2.0052 13.6909
O 1.73013 7.6578 15.5935
O 4.0404 3.40712 15.5671
Si 5.04729 4.3868 11.0337
Si 7.56586 0.0197012 11.0563
Si 5.99013 6.62858 14.6388
Si 8.68608 2.08756 14.8335
Si 6.28151 2.16408 12.8355
Si 8.65319 6.42734 13.0177
O 5.73037 5.55302 15.7338
O 8.60045 0.737882 15.7344
O 7.39535 2.48265 14.0348
O 9.83961 6.64666 14.1667
O 6.68248 0.885493 12.0331
O 9.23453 5.14792 12.1197
O 5.98442 3.37321 11.8253
O 8.51551 7.59406 11.888
O 7.22844 6.16543 13.6696
O 9.85811 1.78545 13.6741
O 6.45393 7.88266 15.4386
O 9.24652 3.19885 15.8834
Si 10.1669 4.35016 11.0458
Si 12.7945 0.0660464 10.9692
Si 11.2387 6.44266 14.8366
Si 13.8199 2.11842 14.8071
Si 11.2361 2.0029 12.9571
Si 13.6902 6.37543 12.8913
O 11.1745 5.02317 15.6035
O 13.7799 0.958291 15.8568
O 12.3876 2.24695 14.0072
O 14.7853 6.6516 13.9777
O 11.7365 0.842906 11.9204
O 14.1791 5.08192 12.0769
O 11.0328 3.21481 11.906
O 13.5177 7.58191 11.8472
O 12.2901 6.31695 13.6098
O 14.9066 2.1026 13.7083
O 11.7765 7.6838 15.6257
O 14.0083 3.4391 15.637
Si 0.032194 13.2393 11.0599
Si 2.34209 8.8806 10.8085
Si 1.3197 15.2994 14.7755
Si 3.59445 10.9314 14.6167
Si 0.949711 10.8131 12.8992
Si 3.85377 15.2446 12.8355
O 0.709309 14.0411 15.6641
O 3.45059 9.71922 15.6768
O 2.13802 10.9954 13.9033
O 5.15083 15.564 13.6802
O 1.43362 9.72613 11.8548
O 4.20407 13.9185 11.9882
O 0.719612 12.1369 12.0193
O 3.46247 16.3433 11.7693
O 2.6585 15.0675 13.8606
O 4.65687 10.639 13.4762
O 1.63131 16.4538 15.8683
O 4.14218 12.1379 15.4721
Si 5.27314 13.1461 10.9863
Si 7.75097 8.74563 11.119
Si 6.35637 15.3604 14.6785
Si 8.6578 10.9722 14.697
Si 6.16568 10.8169 12.8243
Si 8.87516 15.2142 12.8982
O 5.90897 14.0012 15.606
O 8.54893 9.61674 15.6013
O 7.18955 11.2983 14.01
O 10.1073 15.5146 13.7475
O 6.76356 9.54973 12.1982
O 9.37289 14.0176 11.9333
O 6.11736 12.1313 11.7972
O 8.32773 16.4904 12.0476
O 7.71324 14.8971 13.9389
O 9.63513 10.6155 13.506
O 6.71823 16.5523 15.6624
O 9.35215 12.1706 15.4978
Si 10.2315 13.0741 11.0265
Si 12.6428 8.68679 11.0693
Si 11.3705 15.3159 14.767
Si 13.666 10.7864 14.882
Si 11.127 10.7741 12.9467
Si 13.8901 15.3703 12.9019
O 11.0976 14.1134 15.792
O 13.6111 9.66152 15.972
O 12.2154 11.0407 14.1772
O 0.0935575 15.6307 13.7978
O 11.6966 9.49379 12.1065
O 14.124 14.2234 11.7806
O 11.0845 11.996 11.862
O 13.6418 16.6534 11.9994
O 12.5399 14.9468 13.736
O 14.676 10.5024 13.7111
O 11.9173 16.5922 15.4987
O 14.1695 12.1214 15.6558
324
 Atoms. Timestep: 14500
Si 15.0267 4.33042 0.00756754
Si 2.70741 -0.0677858 0.0960742
Si 1.2199 6.822 3.6397
Si 3.59449 2.3826 3.7112
Si 1.18854 2.01823 1.86604
Si 3.81327 6.49355 1.89655
O 0.881772 5.56541 4.62191
O 3.48338 1.01265 4.62648
O 2.11143 2.51204 3.04112
O 5.18798 6.89127 2.69731
O 2.02572 0.873829 1.11866
O 4.30871 5.08402 1.06949
O 0.714456 3.2208 0.788962
O 3.36785 7.45044 0.636427
O 2.49456 6.43805 2.82378
O 4.82107 2.24743 2.64198
O 1.76809 8.11248 4.51572
O 4.10166 3.6644 4.64197
Si 5.27401 4.41476 16.5243
Si 7.57865 0.152141 0.0312281
Si 6.39906 6.69737 3.72221
Si 8.82535 2.19859 3.71929
Si 6.18657 2.21311 1.84163
Si 8.92333 6.34581 1.84575
O 5.9479 5.55663 4.75039
O 8.63996 1.13045 4.92556
O 7.47568 2.21204 2.77155
O 10.1755 6.85848 2.78322
O 6.35402 0.856594 0.915238
O 9.46682 5.17021 1.04349
O 6.21053 3.47312 0.793627
O 8.61281 7.50789 0.65204
O 7.67543 6.28349 2.82894
O 10.0954 1.87036 2.84857
O 6.74098 7.99654 4.50926
O 9.11692 3.68464 4.28576
Si 10.2175 4.37163 -0.168136
Si 12.7223 17.3946 0.161024
Si 11.3582 6.66491 3.83234
Si 13.7999 2.16031 3.55679
Si 11.3929 2.06745 1.93577
Si 13.6463 6.34704 1.88702
O 10.8244 5.51193 4.83034
O 13.3316 1.12006 4.71111
O 12.4882 2.66926 2.87453
O -0.0590847 6.94863 2.66385
O 12.0225 0.765396 1.35541
O 14.0553 5.02957 1.09639
O 10.9763 3.04615 0.647247
O 13.0747 7.45514 0.889497
O 12.6472 6.20364 3.10167
O 14.8835 1.61403 2.50993
O 11.7173 8.10754 4.43398
O 14.4513 3.40739 4.40036
Si 0.0840103 12.8556 16.5501
Si 2.44534 8.61716 16.5661
Si 1.4584 15.1744 3.55698
Si 3.70886 11.0721 3.72502
Si 1.20665 10.7059 1.92663
Si 4.02605 15.1737 1.78413
O 1.32785 14.024 4.61391
O 3.37866 10.0637 4.94209
O 2.3297 11.2081 2.97706
O 4.99367 15.6497 2.93294
O 1.80054 9.3808 1.23179
O 4.53917 13.8506 1.09552
O 1.00159 11.8364 0.866012
O 3.79965 16.3349 0.707122
O 2.58803 14.9239 2.44625
O 4.85895 10.5015 2.73493
O 1.7179 16.5963 4.30822
O 4.28622 12.4001 4.39557
Si 5.32659 12.9512 0.0479245
Si 7.77318 8.62069 16.4751
Si 6.38824 15.3913 3.67753
Si 8.72927 11.0415 3.76132
Si 6.31102 10.5766 1.84645
Si 8.81943 15.2969 1.75588
O 6.06548 14.2859 4.79616
O 8.52522 9.95291 4.95136
O 7.41625 11.0626 2.86959
O 10.0988 15.3879 2.76131
O 6.85422 9.35711 0.973209
O 9.17467 14.0298 0.749904
O 6.05941 11.7521 0.830344
O 8.40075 16.6699 1.08807
O 7.48527 14.9103 2.61003
O 9.93194 10.5917 2.80457
O 6.9237 16.789 4.37131
O 9.16409 12.5144 4.41728
Si 10.0466 12.978 16.4113
Si 12.3261 8.60158 0.0176835
Si 11.3693 15.2627 3.71294
Si 13.7584 10.9618 3.72207
Si 11.1608 10.7543 1.87035
Si 13.9222 15.1525 1.91362
O 11.0412 14.2118 4.86221
O 13.4395 9.94386 4.85112
O 12.5009 11.11 2.71227
O 15.1635 15.3433 2.81854
O 11.3686 9.41907 0.981492
O 14.3053 13.794 1.0379
O 10.7713 11.9309 0.748728
O 13.6851 16.4133 0.905922
O 12.5585 14.8447 2.73771
O 14.8643 10.3181 2.70597
O 11.7882 16.5778 4.46452
O 14.3948 12.3157 4.3805
Si 0.155314 4.42618 5.43562
Si 2.55807 0.0215132 5.4156
Si 1.13185 6.60875 9.19397
Si 3.69555 2.21382 9.13058
Si 1.16495 2.09051 7.30993
Si 3.70389 6.49329 7.37182
O 1.01791 5.48367 10.282
O 3.46363 0.933546 10.1175
O 2.34264 2.38425 8.31448
O 4.78069 6.81682 8.52188
O 1.67699 0.873772 6.41559
O 4.25664 5.19561 6.66127
O 1.06685 3.45545 6.36842
O 3.53411 7.76866 6.40667
O 2.32357 6.31741 8.19196
O 4.77222 1.8179 7.98593
O 1.49791 8.01282 9.96612
O 4.23833 3.41046 9.99596
Si 5.17655 4.40529 5.61383
Si 7.72973 17.4507 5.62847
Si 6.11754 6.65204 9.26261
Si 8.71449 2.14594 9.17769
Si 6.20036 2.05256 7.24665
Si 8.5051 6.34604 7.27297
O 5.96028 5.51236 10.3811
O 8.52519 0.843286 10.1828
O 7.28693 2.35416 8.37837
O 9.76223 6.50112 8.33827
O 6.61157 0.651842 6.56277
O 8.96762 5.00845 6.48111
O 6.01921 3.23013 6.148
O 8.35908 7.61714 6.35284
O 7.06464 6.17017 8.04973
O 9.89399 2.0418 8.06908
O 7.00679 7.95211 9.83716
O 9.2324 3.47386 9.99893
Si 9.97314 4.33703 5.47676
Si 12.6045 17.3831 5.60433
Si 11.1948 6.50859 9.08088
Si 13.7003 2.42819 9.06986
Si 11.1871 2.14885 7.22904
Si 13.7413 6.41372 7.30342
O 11.0067 5.48575 10.2668
O 13.541 1.37957 10.2208
O 12.3506 2.62608 8.27222
O 14.8962 6.65406 8.35972
O 11.5767 0.719078 6.61722
O 14.2109 5.05701 6.45513
O 10.9043 3.18576 6.03544
O 13.5026 7.62396 6.25017
O 12.3814 6.06046 8.13546
O 14.8701 1.83617 8.07889
O 11.628 7.94339 9.77993
O 14.3371 3.74079 9.68659
Si 0.25442 13.127 5.40129
Si 2.64067 8.82199 5.6199
Si 1.32157 15.2304 9.32483
Si 3.479 10.9679 9.26815
Si 1.05368 10.784 7.39488
Si 3.75828 15.3134 7.36347
O 1.15968 13.8929 10.2291
O 3.24058 9.82832 10.3292
O 2.10646 11.2167 8.47667
O 4.86504 15.7716 8.44151
O 1.62963 9.46235 6.77109
O 4.23402 14.0117 6.607
O 1.0141 12.0204 6.2598
O 3.45168 16.4234 6.2545
O 2.36547 15.0245 8.10407
O 4.7484 10.563 8.19717
O 1.82187 16.4205 10.2469
O 4.07412 12.2991 10.0297
Si 5.11601 13.2005 5.56346
Si 7.58156 8.8157 5.5406
Si 6.12919 15.413 9.36388
Si 8.68394 11.1692 9.19762
Si 6.11295 10.8054 7.37488
Si 8.71831 15.2455 7.57824
O 5.79539 14.1719 10.2549
O 8.53917 10.0225 10.3884
O 7.35813 11.0539 8.41693
O 9.91822 15.6256 8.52351
O 6.64527 9.55642 6.45992
O 9.22268 13.9413 6.73368
O 5.90223 12.0992 6.42953
O 8.47017 16.4071 6.50756
O 7.32814 14.9996 8.3552
O 9.76898 10.7185 8.15789
O 6.51366 16.6825 10.2858
O 9.1736 12.5134 9.87194
Si 10.1244 13.2132 5.58752
Si 12.5561 8.75826 5.60964
Si 11.3572 15.2343 9.24155
Si 13.6988 11.0796 9.18395
Si 11.1813 10.8442 7.40516
Si 13.8715 15.0603 7.38023
O 11.1874 14.1302 10.3718
O 13.4679 9.78867 10.1301
O 12.2528 11.2382 8.56068
O 14.8835 15.4342 8.60067
O 11.6961 9.37699 6.73832
O 14.444 14.0099 6.41467
O 10.9092 11.9407 6.28841
O 13.4641 16.4033 6.49829
O 12.4827 14.7884 8.17215
O 14.6101 10.8295 7.8724
O 12.0183 16.6589 9.86586
O 14.199 12.2491 10.1
Si 0.0977232 4.34594 10.9562
Si 2.78451 -0.0634173 11.0988
Si 1.05109 6.62558 14.746
Si 3.7767 2.30273 14.6884
Si 1.32378 2.13916 12.8482
Si 3.59445 6.33227 12.9419
O 0.800313 5.58639 15.977
O 3.48847 0.979456 15.6063
O 2.43317 2.61221 13.9198
O 4.76634 6.85115 13.9258
O 1.95654 0.834606 12.1813
O 4.1851 5.08933 12.0479
O 0.936794 3.28047 11.7998
O 3.20128 7.59454 11.8176
O 2.22867 6.13993 13.7667
O 4.88116 1.84829 13.5739
O 1.42861 8.03924 15.5349
O 4.33225 3.55202 15.5412
Si 5.09516 4.31638 11.0159
Si 7.80205 17.3277 11.135
Si 6.24201 6.71584 14.4924
Si 8.68637 2.42902 14.7787
Si 6.33461 2.14378 12.939
Si 8.73127 6.48067 12.7181
O 6.08484 5.52938 15.6238
O 8.48955 1.31004 15.8793
O 7.26518 2.60678 14.0521
O 9.80297 6.60223 13.9043
O 7.02902 0.76226 12.2917
O 9.10482 5.30303 11.8084
O 6.11371 3.27761 11.8072
O 8.6101 7.79673 11.8359
O 7.29886 6.37113 13.4364
O 9.8586 1.822 13.8272
O 6.86416 7.9803 15.3299
O 9.16962 3.79144 15.3506
Si 10.1283 4.40244 11.0282
Si 12.7188 0.182748 10.9461
Si 11.2561 6.53801 14.5546
Si 13.7799 2.15633 14.7127
Si 11.19 2.12139 12.9161
Si 13.6981 6.44335 12.6558
O 11.2332 5.22093 15.5922
O 13.3124 1.00211 15.6571
O 12.392 2.42854 13.8701
O 14.8934 6.71946 13.7345
O 11.6949 0.919445 11.9102
O 14.1213 5.05022 11.8973
O 10.8776 3.40392 12.0373
O 13.5188 7.45238 11.4647
O 12.3349 6.30703 13.4765
O 15.0694 1.86243 13.7316
O 11.6041 7.849 15.4079
O 14.2574 3.52164 15.4621
Si 0.0638162 12.9847 11.0412
Si 2.36202 8.72942 11.0702
Si 1.34699 15.1879 14.821
Si 3.63216 11.0122 14.6798
Si 1.02228 10.7677 13.0035
Si 3.91523 15.1834 13.062
O 0.986274 13.8844 15.6362
O 3.33756 9.75198 15.7091
O 2.28394 11.3004 13.9327
O 5.16541 15.3366 13.9401
O 1.5696 9.46971 12.2201
O 4.01113 13.8857 12.0963
O 0.672173 11.9466 11.9861
O 3.62766 16.4263 12.1019
O 2.65616 14.9283 14.0085
O 4.79293 10.7566 13.5788
O 1.66466 16.4736 15.752
O 4.2946 12.2427 15.5525
Si 4.93149 13.0639 11.1187
Si 7.67271 8.79615 11.0015
Si 6.52235 15.1946 14.7891
Si 8.64945 10.9425 14.6276
Si 6.07003 10.8412 12.6794
Si 9.0072 15.0075 12.839
O 6.20956 14.1269 15.851
O 8.6764 9.71114 15.7202
O 7.33236 10.9761 13.8145
O 10.2009 15.5966 13.8798
O 6.41101 9.39753 11.8543
O 9.53264 13.6642 12.2422
O 5.97835 12.0206 11.7125
O 8.64904 16.0662 11.6676
O 7.64323 14.812 13.6839
O 9.87001 10.7452 13.5806
O 6.91825 16.6198 15.4999
O 9.04782 12.3043 15.3922
Si 10.3343 12.9607 10.9621
Si 12.6036 8.56651 10.8749
Si 11.438 15.3052 14.807
Si 13.6912 10.7378 14.834
Si 11.2943 10.6838 12.7913
Si 13.9645 15.3672 12.8563
O 11.0348 13.9727 15.5226
O 13.435 9.55837 15.8581
O 12.3677 10.9716 13.9011
O 0.133364 15.524 13.7886
O 11.8099 9.21546 12.2018
O 14.2859 14.0854 11.9654
O 11.1935 11.7208 11.594
O 13.6373 16.6008 11.8723
O 12.7621 15.2619 13.7966
O 14.8042 10.4719 13.7732
O 11.6642 16.4512 15.8896
O 14.2199 12.0792 15.5375
324
 Atoms. Timestep: 15000
Si 0.0606252 4.38113 -0.109373
Si 2.7099 -0.101763 0.0717075
Si 1.32782 6.73954 3.47932
Si 3.71291 2.52662 3.77139
Si 1.36641 2.24526 1.75632
Si 3.79917 6.34993 1.65336
O 1.18278 5.51497 4.56928
O 3.43628 1.45381 4.86297
O 2.45333 2.72037 2.87068
O 4.80786 6.81774 2.84353
O 1.8876 0.84672 1.17819
O 4.39608 5.07298 1.03397
O 1.00134 3.24023 0.607728
O 3.50497 7.6344 0.729597
O 2.3226 6.23656 2.3036
O 4.9438 1.99001 2.78906
O 1.88672 7.99383 4.32193
O 4.35308 3.91671 4.31298
Si 5.24624 4.20292 -0.0984871
Si 7.58777 0.0324017 0.00863611
Si 6.18989 6.81662 3.68988
Si 8.79157 2.28052 3.60857
Si 6.17688 1.97097 1.81448
Si 8.78873 6.4751 1.88583
O 6.13916 5.6638 4.83289
O 8.76788 1.00061 4.66593
O 7.42064 2.28677 2.78509
O 9.89133 6.70665 2.98476
O 6.54363 0.732007 0.983557
O 9.14334 5.13033 1.03061
O 6.09966 3.06786 0.638809
O 8.71671 7.68153 0.835881
O 7.44788 6.52153 2.78792
O 10.0296 2.10361 2.58615
O 6.46527 8.21406 4.42756
O 9.03791 3.57559 4.49379
Si 10.1794 4.41127 16.6188
Si 12.745 -0.0626329 -0.0318792
Si 11.2793 6.46313 3.80934
Si 13.9595 2.38206 3.75414
Si 11.3874 2.17361 1.76689
Si 13.7224 6.60038 1.81792
O 11.0924 5.12729 4.63361
O 13.6922 1.01307 4.5985
O 12.6292 2.52809 2.85448
O 14.9145 6.86861 2.88335
O 11.8313 0.888701 0.945399
O 14.418 5.34996 0.954169
O 11.1437 3.42296 0.77612
O 13.3634 7.74442 0.73408
O 12.3984 6.2184 2.60981
O 0.0608837 2.15516 2.7101
O 11.7379 7.7589 4.55436
O 14.4505 3.58407 4.66519
Si -0.0272304 12.9886 16.5044
Si 2.58947 8.67001 0.00215849
Si 1.38151 15.2022 3.83544
Si 3.63431 10.9017 3.53999
Si 1.12883 10.8163 1.70586
Si 3.95234 15.2373 1.97186
O 0.91931 14.1663 4.83194
O 3.61077 9.75953 4.64648
O 2.21411 11.2476 2.79277
O 5.18986 15.6601 2.91479
O 1.54274 9.45044 0.980718
O 4.48667 13.9164 1.16105
O 0.928459 11.9254 0.609896
O 3.60706 16.3391 0.853644
O 2.6932 14.9056 2.88044
O 4.69223 10.5617 2.34582
O 1.90229 16.6023 4.44233
O 4.18093 12.2448 4.33034
Si 5.30124 13.0467 0.0621719
Si 7.63223 8.67878 0.109513
Si 6.46378 15.3196 3.74326
Si 8.67277 10.8795 3.82252
Si 6.15006 10.6904 1.86767
Si 8.94498 15.383 1.75866
O 6.12172 13.9723 4.57284
O 8.52625 9.731 4.90597
O 7.32428 11.0818 2.97179
O 10.2294 15.4424 2.64092
O 6.80588 9.31075 1.33573
O 9.2062 14.2821 0.621015
O 6.15538 11.9087 0.768745
O 8.63921 16.7546 0.900192
O 7.78728 15.185 2.77199
O 9.84252 10.5026 2.84159
O 7.00735 16.5197 4.69732
O 9.07805 12.1775 4.57577
Si 10.2098 13.2193 16.5217
Si 12.5434 8.87589 0.0376203
Si 11.3635 15.2549 3.6857
Si 13.7532 10.955 3.66775
Si 11.1826 10.8981 1.94117
Si 13.9555 15.1563 1.92585
O 11.0445 14.0216 4.58235
O 13.4173 9.83312 4.71762
O 12.3028 11.3075 3.00292
O 0.0682377 15.4017 2.9687
O 11.7923 9.7047 1.09986
O 14.167 13.7575 1.06391
O 10.7313 12.1113 1.02378
O 13.6328 16.3343 0.843265
O 12.7172 14.9243 2.927
O 14.8156 10.7068 2.52022
O 11.7723 16.5323 4.62573
O 14.3591 12.1978 4.50318
Si 0.274612 4.57559 5.46957
Si 2.57972 0.269333 5.49445
Si 1.16354 6.60141 9.31954
Si 3.55921 2.27143 9.3195
Si 1.02039 2.29085 7.32786
Si 3.6419 6.51554 7.34781
O 0.928368 5.31088 10.2686
O 3.45559 1.01054 10.3133
O 2.15722 2.3189 8.51595
O 4.7025 6.91978 8.45534
O 1.4627 1.09223 6.33105
O 4.2214 5.24667 6.59712
O 1.08068 3.6622 6.56166
O 3.45005 7.60252 6.232
O 2.33756 6.36435 8.20836
O 4.7478 2.1472 8.20286
O 1.6528 7.86283 10.2279
O 3.86762 3.57399 10.1541
Si 5.22198 4.55554 5.50182
Si 7.78842 0.141929 5.62881
Si 6.07388 6.53013 9.22375
Si 8.63635 2.26765 9.18899
Si 6.09779 2.23209 7.33487
Si 8.60478 6.45404 7.43235
O 5.70716 5.24787 10.1224
O 8.3287 1.23852 10.334
O 7.30047 2.4689 8.43129
O 9.70807 7.01779 8.52712
O 6.6895 1.06574 6.43344
O 9.35233 5.22159 6.71002
O 5.96192 3.40028 6.29287
O 8.27057 7.52383 6.24484
O 7.28071 6.03949 8.18183
O 9.77435 1.69706 8.20285
O 6.59735 7.68143 10.0827
O 9.17704 3.61081 9.81339
Si 10.0345 4.27708 5.57411
Si 12.886 17.3997 5.54579
Si 11.1569 6.533 9.03599
Si 13.5934 2.33976 9.15146
Si 11.1788 1.96398 7.34377
Si 13.7829 6.57879 7.40446
O 10.9266 5.33244 10.0386
O 13.4625 0.900316 9.98362
O 12.1664 2.58548 8.44002
O 14.8126 6.93452 8.59107
O 12.0899 0.770042 6.69539
O 14.3895 5.52856 6.38394
O 10.8331 3.07505 6.25465
O 13.4936 7.85102 6.41439
O 12.272 6.25332 7.89268
O 14.6458 2.25389 7.97275
O 11.889 7.67857 9.88418
O 14.0919 3.52393 10.084
Si 0.179753 12.9723 5.60333
Si 2.67217 8.74245 5.43165
Si 1.29698 15.3313 9.14483
Si 3.67932 10.8606 9.29363
Si 1.08648 10.6686 7.36088
Si 3.77699 15.3417 7.29669
O 0.941984 14.0629 10.053
O 3.71475 9.67415 10.3831
O 2.2314 10.7919 8.62413
O 4.93158 15.4727 8.38901
O 1.58934 9.50257 6.40623
O 4.27793 14.1123 6.29434
O 1.02304 11.9481 6.45829
O 3.42218 16.6578 6.43403
O 2.40086 14.9603 8.04102
O 4.69177 10.6105 8.08911
O 1.74549 16.5805 9.98679
O 4.06241 12.1583 10.0985
Si 5.03388 13.0289 5.39906
Si 7.47941 8.75152 5.5835
Si 6.24581 15.1882 9.26169
Si 8.49927 10.9819 9.23502
Si 6.11505 10.7714 7.33769
Si 8.82417 15.3736 7.41246
O 5.95265 13.9428 10.2418
O 8.04671 9.83238 10.2531
O 7.2576 11.2727 8.25859
O 9.99283 15.2927 8.4213
O 6.62249 9.43554 6.72086
O 9.11197 14.1764 6.33036
O 5.84731 11.8835 6.22667
O 8.61321 16.733 6.70059
O 7.48274 14.9034 8.18402
O 9.70116 10.5071 8.20368
O 6.80246 16.5123 9.9832
O 9.19186 12.1693 10.0216
Si 9.96345 13.1294 5.46881
Si 12.5146 8.80805 5.53037
Si 11.3558 15.2147 9.2413
Si 13.5492 10.8742 9.21264
Si 11.0226 10.8251 7.37456
Si 13.9167 15.2473 7.32853
O 11.3632 13.8309 10.1868
O 13.3677 9.75445 10.2948
O 12.1459 11.0711 8.48936
O 15.0511 15.6525 8.33185
O 11.5848 9.59038 6.56493
O 14.297 13.8498 6.66147
O 10.8028 12.1425 6.45572
O 13.8842 16.3044 6.16945
O 12.4288 15.1374 8.00303
O 14.7408 10.5017 8.11131
O 11.5737 16.511 10.0924
O 14.1875 12.1834 10.0253
Si 0.0258416 4.28411 11.065
Si 2.64361 17.3166 11.1249
Si 1.26382 6.61939 14.5837
Si 3.76523 2.12206 14.7072
Si 1.23035 2.02258 12.8898
Si 3.72825 6.33882 12.8979
O 0.97891 5.35914 15.6036
O 3.59646 0.866243 15.7002
O 2.36839 2.41088 13.9467
O 4.62426 6.74828 14.1573
O 1.7316 0.729301 12.1543
O 4.30171 4.96955 12.3742
O 0.8862 3.11071 11.7461
O 3.7568 7.34859 11.7407
O 2.17566 6.20908 13.3295
O 4.87534 1.75761 13.6526
O 1.91041 7.88709 15.3005
O 4.25721 3.5559 15.4769
Si 5.0233 4.2055 11.147
Si 7.62969 17.4157 11.0258
Si 6.15445 6.59577 14.8533
Si 8.68992 2.3291 14.6769
Si 6.20994 2.05583 12.8151
Si 8.66255 6.44325 12.84
O 6.11031 5.20079 15.6621
O 8.22271 1.17204 15.6272
O 7.30565 2.70831 13.8149
O 9.95299 6.73774 13.7773
O 6.77377 0.79466 12.114
O 9.15264 5.05597 12.0477
O 5.89683 3.05978 11.6297
O 8.56362 7.58061 11.7838
O 7.28606 6.37711 13.6337
O 9.75076 1.8241 13.5487
O 6.71015 7.80981 15.6826
O 9.42763 3.46968 15.5572
Si 10.0462 4.36666 10.9148
Si 12.6617 -0.0390861 10.9337
Si 11.2405 6.77486 14.8208
Si 13.6296 2.28774 14.74
Si 11.2002 2.09715 12.8401
Si 13.8167 6.48217 12.9397
O 11.0233 5.63002 15.8844
O 13.6281 0.976008 15.7486
O 12.3774 2.3809 13.8827
O 14.9533 6.91583 13.9332
O 11.7502 0.86503 11.9979
O 14.2146 5.19724 12.1329
O 10.8579 3.29445 11.7596
O 13.6344 7.71426 11.9007
O 12.4314 6.45997 13.7986
O 14.9068 2.02696 13.6967
O 11.5374 8.13569 15.5955
O 14.1316 3.61427 15.4952
Si 0.144147 12.9857 10.9566
Si 2.79154 8.47255 11.1417
Si 1.28435 15.284 14.7866
Si 3.75998 11.0842 14.8165
Si 1.36396 10.6724 12.8518
Si 3.81846 15.0775 12.9961
O 0.826653 14.1446 15.8191
O 3.36915 9.8517 15.8235
O 2.46166 11.3042 13.8662
O 5.00624 15.5514 13.9937
O 2.03352 9.36991 12.2507
O 4.3297 13.6875 12.2452
O 1.09064 11.8231 11.7313
O 3.49671 16.1965 11.8442
O 2.47472 14.8278 13.8263
O 4.93732 10.5732 13.8357
O 1.655 16.5697 15.6924
O 4.23471 12.3676 15.6685
Si 5.08195 12.9326 11.0708
Si 7.47714 8.63393 11.128
Si 6.37269 15.1882 14.6969
Si 8.7896 10.8846 14.8162
Si 6.26294 10.8034 12.961
Si 8.83986 15.1996 12.7041
O 6.12916 13.9434 15.6171
O 8.30134 9.89101 15.9004
O 7.46097 11.1272 13.9026
O 9.92494 15.5746 13.8224
O 6.55766 9.33486 12.2456
O 9.49067 13.9624 11.8669
O 6.01052 11.8276 11.8224
O 8.63671 16.4358 11.7809
O 7.39105 14.9062 13.446
O 9.81991 10.2836 13.6585
O 6.96397 16.3486 15.5707
O 9.39166 12.2418 15.4845
Si 10.2613 12.9323 10.9752
Si 12.564 8.54743 10.9678
Si 11.3554 15.2684 14.6532
Si 13.8974 10.9512 14.5616
Si 11.122 10.5607 12.8373
Si 13.8796 15.1636 12.814
O 11.243 14.0641 15.7308
O 13.5164 9.88518 15.8125
O 12.4271 10.9887 13.8168
O 15.1015 15.6846 13.8733
O 11.5455 9.2933 11.9277
O 14.4749 13.7856 12.1117
O 10.7806 11.7606 11.8141
O 13.5069 16.3397 11.7749
O 12.4558 14.9319 13.5851
O 15.0889 10.3912 13.7336
O 11.779 16.595 15.5564
O 14.1986 12.2765 15.3543
324
 Atoms. Timestep: 15500
Si 0.0966048 4.33209 16.5088
Si 2.47921 -0.00252692 0.0527215
Si 1.11063 6.56982 3.62558
Si 3.838 2.17414 3.64652
Si 1.17455 2.08847 1.90536
Si 3.69786 6.53757 1.82608
O 0.990308 5.50874 4.75737
O 3.39322 1.31036 4.9132
O 2.62652 2.31628 2.62135
O 4.75989 6.91444 2.99349
O 1.54582 0.77366 1.02185
O 4.21934 5.3286 1.0009
O 0.841758 3.36586 1.01046
O 3.61273 7.82337 0.797663
O 2.2243 6.28771 2.47483
O 5.0425 1.57389 2.73954
O 1.57786 7.88298 4.31367
O 4.15774 3.56094 4.3044
Si 4.98788 4.37165 0.0173855
Si 7.77921 -0.00867967 16.4086
Si 6.15271 6.65326 3.82115
Si 8.80946 2.13387 3.72081
Si 6.2861 1.95637 1.78062
Si 8.59915 6.35232 2.03859
O 5.90678 5.46643 4.88755
O 8.39289 1.21654 4.90058
O 7.48058 2.35552 2.90984
O 9.76733 6.69273 3.00966
O 6.94089 0.761292 0.937287
O 9.01663 5.08581 1.09555
O 5.72095 3.1557 0.81705
O 8.42322 7.62716 1.05819
O 7.19961 6.05356 2.72576
O 9.93924 1.61077 2.76139
O 6.76909 8.01247 4.38927
O 9.33419 3.56235 4.35561
Si 9.98629 4.38768 0.111266
Si 12.7431 0.00187499 0.037924
Si 11.151 6.63205 3.69431
Si 13.7295 2.48017 3.81916
Si 11.1753 1.88852 1.88814
Si 13.6351 6.36543 1.78369
O 11.0443 5.47525 4.82242
O 13.405 1.31282 4.93735
O 12.4849 2.4369 2.74648
O 14.77 6.60284 2.9217
O 11.7511 0.59167 1.07607
O 14.0819 5.18285 0.788603
O 10.7199 3.16176 0.936202
O 13.5683 7.62679 0.789892
O 12.1767 6.18386 2.50876
O -0.0204306 2.04394 3.03211
O 11.8232 7.97232 4.28214
O 14.0754 3.78013 4.62202
Si 0.174278 13.0653 16.4069
Si 2.61446 8.8318 16.5513
Si 1.3418 15.4077 3.56649
Si 3.47429 11.049 3.59157
Si 1.05401 10.8791 1.6949
Si 3.90322 15.3056 1.86477
O 0.855241 14.1985 4.60766
O 3.23246 9.82156 4.53852
O 2.12096 11.3635 2.79236
O 5.07733 15.8596 2.80685
O 1.61344 9.50762 1.11313
O 4.38016 14.0634 0.998344
O 0.949067 11.8958 0.504462
O 3.3699 16.3886 0.876788
O 2.59019 14.8417 2.75616
O 4.72648 10.6475 2.68057
O 1.74151 16.7266 4.43395
O 3.97017 12.23 4.49229
Si 5.20917 13.1495 0.0470158
Si 7.67058 8.68293 0.108633
Si 6.41479 15.3727 3.57228
Si 8.80965 11.0189 3.58328
Si 6.11223 10.731 1.91454
Si 9.07056 15.232 1.74684
O 6.03129 13.9045 4.25304
O 8.56263 9.83103 4.63163
O 7.3336 11.153 2.84173
O 10.1068 15.6866 2.85587
O 6.56647 9.4248 1.05151
O 9.50586 13.8855 1.01779
O 5.9248 11.9591 0.852501
O 8.78525 16.4055 0.674785
O 7.57752 15.2046 2.49391
O 9.95993 10.6777 2.52003
O 6.80888 16.4374 4.61032
O 9.43506 12.3302 4.35716
Si 10.3436 13.0791 -0.0662164
Si 12.8201 8.82103 -0.0162654
Si 11.4842 15.3487 3.70051
Si 13.776 10.9639 3.62427
Si 11.4362 10.8697 1.80912
Si 14.0067 15.2412 1.7006
O 11.122 14.2696 4.81098
O 13.6648 9.77664 4.79758
O 12.3767 11.2327 3.03149
O 0.19186 15.6992 2.58494
O 11.9845 9.5941 1.2004
O 14.4577 13.9065 0.959244
O 11.2984 12.0769 0.725123
O 13.7503 16.353 0.645882
O 12.7137 15.1525 2.63966
O 14.7386 10.6022 2.38794
O 11.8704 16.5459 4.67912
O 14.2903 12.2803 4.32474
Si 0.060182 4.45559 5.57135
Si 2.51208 0.156021 5.55518
Si 1.23359 6.62164 9.34529
Si 3.62221 2.29373 9.2371
Si 1.02814 2.16427 7.46269
Si 3.62903 6.5404 7.33496
O 0.679502 5.29255 10.1676
O 3.53552 1.12512 10.2649
O 2.21915 2.51993 8.47149
O 4.86879 6.76028 8.23332
O 1.43192 0.86096 6.57503
O 3.88407 5.22032 6.42079
O 0.801333 3.32593 6.42187
O 3.31412 7.84501 6.35097
O 2.35543 6.23241 8.3099
O 4.69985 1.79789 8.21141
O 1.7265 7.73488 10.2818
O 4.16389 3.64494 9.96781
Si 4.86464 4.40573 5.52841
Si 7.50307 0.120332 5.64099
Si 6.1474 6.62275 9.12663
Si 8.70417 2.35045 9.34678
Si 6.0581 2.24121 7.51896
Si 8.74172 6.42111 7.30538
O 6.06795 5.36051 10.1021
O 8.48431 1.0202 10.2673
O 7.26462 2.50228 8.54763
O 10.0238 6.72731 8.26913
O 6.58628 1.00719 6.55684
O 9.08409 5.08944 6.46844
O 5.68598 3.39124 6.49228
O 8.46903 7.6672 6.30394
O 7.41115 6.28108 8.16289
O 9.73241 1.96281 8.14931
O 6.46145 7.8921 10.1141
O 9.24338 3.56608 10.1663
Si 10.1412 4.37573 5.48575
Si 12.6557 0.0837226 5.6414
Si 11.3239 6.57174 9.26705
Si 13.6315 2.17487 9.39231
Si 11.1479 2.13613 7.44347
Si 13.8165 6.59731 7.49506
O 10.9928 5.38716 10.2539
O 13.3373 0.838924 10.1622
O 12.2469 2.5409 8.60599
O 15.0248 7.14593 8.46551
O 11.7095 0.858014 6.71165
O 14.3763 5.41329 6.61505
O 10.9111 3.30436 6.40339
O 13.2324 7.69303 6.49044
O 12.6741 6.08137 8.40994
O 14.8023 1.8887 8.4169
O 11.6923 7.96133 9.93469
O 14.0704 3.27954 10.4297
Si 0.0152917 13.1196 5.42383
Si 2.38416 8.79728 5.45202
Si 1.21552 15.2228 8.99203
Si 3.65476 10.8626 9.11251
Si 1.09246 10.8416 7.25739
Si 3.7926 15.301 7.19767
O 1.09402 13.976 10.1112
O 3.58788 9.55205 10.1291
O 2.25607 11.1365 8.32175
O 4.80085 15.5276 8.44351
O 1.53899 9.5789 6.38488
O 4.50128 14.1848 6.32337
O 1.03529 12.0632 6.14936
O 3.4388 16.5797 6.38309
O 2.37416 14.8876 7.86469
O 4.84195 10.5866 8.06843
O 1.8463 16.506 9.75664
O 4.00246 12.0949 10.0652
Si 5.13409 13.0958 5.33379
Si 7.72287 8.75777 5.46876
Si 6.16382 15.1788 9.2191
Si 8.59861 10.9628 9.0748
Si 6.15982 10.7928 7.1739
Si 8.715 15.2007 7.34828
O 5.81171 13.8592 10.0886
O 8.31484 9.73964 10.1373
O 7.25739 11.2035 8.28657
O 9.90562 15.1935 8.46896
O 6.64042 9.54467 6.4095
O 9.03604 14.1437 6.27718
O 5.85848 12.0073 6.15541
O 8.46091 16.5743 6.54207
O 7.32266 14.9083 8.17079
O 9.72592 10.5175 7.95522
O 6.70734 16.3568 10.2065
O 9.14862 12.2469 9.90421
Si 10.1267 13.2567 5.48544
Si 12.6255 8.77763 5.45498
Si 11.3004 15.1689 9.23511
Si 13.7201 10.9646 9.14532
Si 11.1697 10.8182 7.29975
Si 13.7736 15.0817 7.33685
O 11.0184 14.0049 10.2887
O 13.6357 9.70975 10.2165
O 12.2903 10.9719 8.39117
O 14.9177 15.4028 8.4135
O 11.4996 9.74377 6.2197
O 14.244 13.6831 6.54258
O 10.9038 12.2379 6.45938
O 13.5833 16.3654 6.4394
O 12.4933 14.9124 8.2558
O 14.789 10.703 8.03233
O 11.6812 16.4304 10.1414
O 14.2483 12.2905 9.84778
Si 15.0649 4.25345 11.199
Si 2.61628 17.3455 10.8897
Si 1.21576 6.72348 14.6178
Si 3.6918 2.22804 14.7602
Si 1.19652 1.94564 12.9013
Si 3.80004 6.40779 12.8904
O 1.02004 5.50376 15.757
O 3.48565 1.0494 15.8827
O 2.28649 2.1215 14.0564
O 5.03849 6.49614 14.0136
O 1.70131 0.787767 11.9115
O 4.34835 5.08976 12.1254
O 0.987573 3.29681 12.0082
O 3.7367 7.58616 11.9008
O 2.30684 6.27369 13.4561
O 4.80527 1.83264 13.6543
O 1.82459 7.98545 15.3757
O 4.07847 3.60338 15.409
Si 5.18697 4.35368 10.9876
Si 7.65226 17.2704 11.1182
Si 6.41253 6.36653 14.8267
Si 8.77352 2.32791 14.5461
Si 6.22949 1.93083 12.816
Si 8.90577 6.32828 12.9288
O 6.1136 5.27975 15.8757
O 8.54039 1.12302 15.6332
O 7.46055 2.38386 13.7405
O 9.85345 6.91017 14.087
O 6.67613 0.595589 12.1292
O 9.60978 5.11124 12.3056
O 5.95873 3.12766 11.7377
O 8.41014 7.6402 11.8893
O 7.50539 5.95486 13.697
O 9.98034 1.95488 13.5231
O 6.92479 7.77301 15.5301
O 9.18866 3.60588 15.3991
Si 10.3037 4.20317 11.1273
Si 12.6024 17.2106 11.1326
Si 11.2049 6.78801 14.9282
Si 13.9219 2.19124 14.6434
Si 11.4247 2.0167 12.9414
Si 13.674 6.34742 12.9948
O 10.8681 5.58053 15.9521
O 13.5503 1.19059 15.8445
O 12.5704 2.52604 13.9311
O 14.8585 6.92341 13.9616
O 11.8828 0.639837 12.2735
O 14.2286 5.04667 12.2687
O 11.2089 3.05382 11.8053
O 13.4131 7.49189 11.7139
O 12.4637 6.29947 13.9464
O 14.8879 1.61915 13.5875
O 11.7707 8.04928 15.6462
O 14.5144 3.45427 15.3548
Si 0.188969 13.0001 10.9092
Si 2.82932 8.64363 11.1471
Si 1.31676 15.3229 14.7926
Si 3.79801 11.1753 14.7745
Si 1.3291 10.7648 12.7818
Si 3.73824 15.1847 12.8095
O 1.12171 14.1074 15.7501
O 3.40127 10.1214 15.9277
O 2.50851 11.299 13.7084
O 4.91089 15.4798 13.8959
O 1.92047 9.45803 12.1412
O 4.24179 13.9275 12.0673
O 0.938812 11.8407 11.6877
O 3.48071 16.3196 11.7705
O 2.33932 15.0865 13.609
O 5.02806 10.579 13.875
O 1.74783 16.5971 15.5172
O 4.21833 12.4636 15.5065
Si 4.96954 12.9059 11.0454
Si 7.50157 8.66011 11.1506
Si 6.36094 15.3175 14.6845
Si 8.8589 11.0076 14.883
Si 6.33057 10.8718 12.9299
Si 8.89398 15.0929 12.9407
O 6.21235 14.0886 15.8161
O 8.3992 9.8588 15.8762
O 7.44649 11.2574 14.0132
O 10.0613 15.5621 13.9106
O 6.71189 9.56863 12.1309
O 9.29194 13.7186 12.1978
O 6.01808 12.0799 11.9072
O 8.71857 16.2754 11.7557
O 7.54557 14.9795 13.6987
O 9.97592 10.6118 13.876
O 6.72661 16.6439 15.4143
O 9.44233 12.3333 15.4569
Si 10.1016 12.8889 11.0088
Si 12.6267 8.71605 11.0107
Si 11.3925 15.3423 14.7146
Si 13.8863 11.0461 14.618
Si 11.2783 10.7883 12.9109
Si 13.9266 14.9725 12.938
O 11.1754 14.1725 15.7579
O 13.5007 9.92256 15.6839
O 12.5414 11.2328 13.8087
O 14.9833 15.3833 13.9484
O 11.7864 9.4368 12.1938
O 14.4663 13.7916 12.0604
O 10.9781 11.842 11.7645
O 13.6585 16.1456 11.8451
O 12.555 14.8479 13.7958
O 0.0148838 10.6028 13.6656
O 11.872 16.6483 15.4003
O 14.3622 12.463 15.2274
324
 Atoms. Timestep: 16000
Si 0.0445701 4.42886 0.0543554
Si 2.46038 0.189858 16.505
Si 1.23594 6.45886 3.71681
Si 3.72358 2.19192 3.76819
Si 1.15232 2.12405 1.91769
Si 3.70712 6.49234 1.83921
O 0.993504 5.16817 4.62231
O 3.50861 1.02368 4.86298
O 2.33383 2.37535 2.91395
O 4.97682 7.00102 2.77128
O 1.53926 0.854007 1.07343
O 4.30065 5.11625 1.15093
O 0.947269 3.33387 0.770176
O 3.52174 7.54278 0.692964
O 2.3661 6.27566 2.61384
O 4.88105 1.85208 2.68408
O 1.55017 7.78198 4.56413
O 4.3581 3.4856 4.46579
Si 5.1656 4.45471 0.0781286
Si 7.75039 0.0123109 0.0342549
Si 6.23923 6.6664 3.65272
Si 8.75205 2.28321 3.68672
Si 6.24766 2.12182 1.88016
Si 8.73898 6.33915 1.8866
O 5.88654 5.57427 4.75948
O 8.5265 1.08756 4.72256
O 7.28115 2.56515 3.00199
O 9.7783 6.8876 3.02948
O 6.93138 0.778784 1.25106
O 9.55423 5.26042 1.03824
O 5.92066 3.13986 0.660624
O 8.34858 7.49377 0.808462
O 7.37638 6.11236 2.66439
O 9.63945 1.95457 2.32525
O 6.88429 7.91885 4.41049
O 9.59947 3.49032 4.40505
Si 10.4048 4.41512 16.5294
Si 12.7145 17.4136 16.4011
Si 11.2265 6.77926 3.63396
Si 13.6092 2.28495 3.66085
Si 11.1715 2.03325 1.66799
Si 13.6828 6.4732 1.85853
O 11.3183 5.4869 4.58813
O 13.4873 1.07303 4.72593
O 12.241 2.18148 2.85088
O 14.8127 6.72908 2.9669
O 11.7273 0.803286 0.871434
O 14.1336 5.07738 1.15626
O 11.2696 3.412 0.872594
O 13.5929 7.55894 0.712179
O 12.2449 6.5729 2.48279
O 14.8771 2.05314 2.68617
O 11.7392 7.98937 4.60709
O 13.972 3.58918 4.4386
Si 0.219504 13.079 0.0560297
Si 2.72777 8.71411 0.0416341
Si 1.16967 15.5058 3.63328
Si 3.71139 10.7586 3.79723
Si 1.35172 10.8312 1.9832
Si 3.73638 15.3792 1.74086
O 0.8958 14.247 4.71371
O 3.4437 9.46992 4.74793
O 2.34932 11.1722 3.18129
O 4.87784 15.713 2.7855
O 1.88613 9.49147 1.12755
O 4.07525 14.0264 0.972269
O 1.19213 12.0553 0.916046
O 3.46858 16.5156 0.663081
O 2.37715 15.1638 2.60411
O 4.82005 10.5325 2.65653
O 1.60836 16.7915 4.47027
O 4.50898 11.8491 4.65798
Si 5.00425 13.2509 16.5231
Si 7.59284 8.71667 16.6227
Si 6.22383 15.321 3.61863
Si 8.77902 11.1701 3.4252
Si 6.14195 10.9906 1.83799
Si 8.79352 15.1047 1.82953
O 5.78838 14.1794 4.725
O 8.54924 9.99886 4.5616
O 7.39385 11.4367 2.78831
O 9.97066 15.7696 2.79952
O 6.79557 9.73859 1.04184
O 9.4696 13.7967 1.28646
O 5.74172 12.2147 0.910908
O 8.5079 16.0623 0.570879
O 7.46446 14.9171 2.73634
O 9.89927 10.7311 2.34661
O 6.66265 16.6915 4.40946
O 9.26027 12.4554 4.21534
Si 10.2109 13.0356 0.0513596
Si 12.7335 8.59294 16.477
Si 11.2577 15.4476 3.61995
Si 13.834 11.0533 3.68588
Si 11.3388 10.7574 1.73807
Si 13.8489 15.1523 1.75347
O 10.8749 14.2263 4.66568
O 13.518 9.95918 4.83381
O 12.4731 11.0808 2.8326
O 14.9006 15.655 2.74227
O 11.7654 9.38215 0.914143
O 14.338 13.8132 1.10542
O 11.3062 11.9274 0.629119
O 13.6229 16.3159 0.623802
O 12.4498 15.1258 2.54445
O 14.9945 10.6247 2.66782
O 11.7271 16.7059 4.44649
O 14.2659 12.4532 4.40428
Si 15.079 4.20839 5.44656
Si 2.55049 -0.0649559 5.63136
Si 1.13 6.59271 9.34472
Si 3.56939 2.42969 9.19409
Si 1.0809 1.98865 7.41214
Si 3.64645 6.35903 7.46644
O 0.969431 5.36168 10.224
O 3.233 1.06718 10.0565
O 2.21364 2.71912 8.33738
O 4.86041 6.80022 8.37582
O 1.70521 0.684153 6.78089
O 4.16171 5.06733 6.56864
O 0.711905 2.99764 6.15637
O 3.22773 7.4867 6.44119
O 2.33927 6.21881 8.43914
O 4.67258 2.09803 8.01892
O 1.53237 7.99233 10.1317
O 4.14858 3.70258 9.97505
Si 5.13864 4.35013 5.49918
Si 7.55117 0.0784946 5.4933
Si 6.25977 6.57715 9.12305
Si 8.52632 2.27562 9.24748
Si 6.13453 2.15772 7.27399
Si 8.77886 6.56358 7.30795
O 6.02179 5.39857 10.1859
O 8.53256 0.947452 10.2041
O 7.08357 2.53432 8.52593
O 9.96531 6.88593 8.27478
O 6.72249 0.847819 6.63915
O 9.41331 5.41128 6.35145
O 6.11262 3.319 6.15214
O 8.60654 7.76335 6.16694
O 7.39793 6.19097 8.05682
O 9.67691 2.12528 8.14801
O 6.85946 7.81025 9.9442
O 8.92653 3.53584 10.184
Si 10.4126 4.5242 5.42982
Si 12.4438 0.159829 5.57598
Si 11.2855 6.44359 9.10926
Si 13.6117 2.158 9.26277
Si 11.0308 2.33341 7.37197
Si 13.849 6.44568 7.31507
O 10.8062 5.18387 10.0485
O 13.5986 1.07072 10.4033
O 12.3304 2.26216 8.35783
O 14.9352 6.82396 8.42042
O 11.3746 1.0778 6.3425
O 14.4366 5.17411 6.54133
O 11.2265 3.62834 6.44111
O 13.6107 7.7742 6.42878
O 12.3985 6.23696 8.04671
O 14.8749 1.82062 8.19819
O 11.8372 7.52175 10.206
O 14.0033 3.5652 9.95055
Si 15.0137 13.2406 5.55649
Si 2.47218 8.60231 5.58538
Si 1.16991 15.1133 9.3041
Si 3.68958 10.8455 9.06506
Si 1.05848 10.8497 7.4206
Si 3.72354 14.9635 7.3656
O 0.855781 13.9946 10.2749
O 3.53964 9.6413 10.1254
O 2.29739 11.2346 8.37309
O 4.87397 15.4878 8.37009
O 1.61033 9.60801 6.60558
O 4.23755 13.6729 6.67537
O 0.711247 12.1494 6.51337
O 3.30557 16.0791 6.20442
O 2.36786 14.7945 8.2814
O 4.82486 10.5003 7.93643
O 1.70697 16.3518 10.1277
O 4.33486 12.0195 9.93039
Si 5.2411 12.9456 5.65302
Si 7.77884 8.86633 5.33788
Si 6.23784 15.3005 9.14485
Si 8.72742 10.8141 9.09338
Si 6.2439 10.7619 7.26533
Si 8.75125 15.1331 7.36117
O 6.09361 14.0141 10.0858
O 8.77854 9.56003 10.1318
O 7.25269 10.7826 8.54423
O 9.90028 15.5213 8.44232
O 6.79725 9.59941 6.29619
O 9.21613 13.7999 6.58036
O 6.34049 12.1736 6.54737
O 8.41848 16.3766 6.28365
O 7.3246 15.0295 8.0164
O 9.88911 10.7004 8.03508
O 6.82157 16.4826 9.98026
O 9.28263 12.101 10.03
Si 10.08 13.1283 5.41008
Si 12.6461 8.81016 5.63476
Si 11.152 15.2097 9.36071
Si 13.5832 10.972 9.19981
Si 11.2689 10.9472 7.25818
Si 13.7024 15.3005 7.49965
O 10.9653 13.9638 10.2877
O 13.0606 9.83177 10.2509
O 12.3698 11.4923 8.32088
O 14.9386 15.5342 8.4401
O 11.7718 9.4756 6.76889
O 13.9944 14.1717 6.41623
O 11.0615 11.9788 5.99466
O 13.2599 16.7042 6.61758
O 12.3681 14.889 8.25704
O 14.7825 10.5238 8.20095
O 11.6961 16.4131 10.1493
O 14.2062 12.0484 10.1268
Si 0.108915 4.15147 10.8333
Si 2.61833 17.3575 10.9824
Si 1.25746 6.66576 14.8338
Si 3.73398 2.47262 14.7317
Si 1.23547 2.01972 12.7536
Si 3.70468 6.42602 12.9563
O 1.04194 5.68007 16.0551
O 3.22688 1.39008 15.7877
O 2.4955 2.61924 13.6482
O 4.87683 6.75482 14.0855
O 1.73011 0.636637 12.0724
O 4.22526 5.20259 12.0414
O 0.945581 2.99281 11.5317
O 3.41753 7.58658 11.9218
O 2.35981 6.1989 13.7849
O 5.0038 1.87462 13.9221
O 1.74269 8.11864 15.4601
O 4.25294 3.7587 15.4148
Si 5.15298 4.36812 11.0495
Si 7.65078 17.3428 11.0191
Si 6.23626 6.66737 14.8002
Si 8.81132 2.31606 14.7823
Si 6.1994 2.11641 13.0052
Si 8.79881 6.37458 12.9473
O 6.01219 5.58402 15.9768
O 8.58911 1.10894 15.8755
O 7.47184 2.50763 13.9388
O 9.97535 6.87327 13.9918
O 6.69495 0.772471 12.0501
O 9.2733 5.11985 12.1902
O 5.92999 3.20489 11.8512
O 8.56229 7.5092 11.8229
O 7.45909 6.21293 13.7585
O 9.97668 1.85726 13.8538
O 6.7467 7.97067 15.4567
O 9.33884 3.65335 15.6542
Si 10.022 4.22669 11.059
Si 12.6479 17.3081 11.0598
Si 11.437 6.6133 14.5616
Si 13.8953 2.32496 14.684
Si 11.3094 2.07348 12.9158
Si 13.9651 6.29674 12.7569
O 11.3187 5.32582 15.612
O 13.6024 1.17927 15.7088
O 12.4773 2.61212 13.8857
O 14.9516 6.69496 14.0407
O 11.8578 0.795054 12.1115
O 14.5138 4.96177 12.0955
O 10.9494 3.17985 11.7916
O 13.8444 7.54232 11.7318
O 12.3876 6.22766 13.2921
O -0.00404123 1.935 13.714
O 11.9591 7.84183 15.3142
O 14.3964 3.73296 15.4046
Si 0.0628463 12.8417 11.1764
Si 2.59669 8.6559 11.078
Si 1.15437 15.4254 14.5889
Si 3.88239 11 14.8161
Si 1.35101 10.7986 12.9542
Si 3.71302 15.1267 12.7772
O 0.960476 14.2125 15.7213
O 3.68521 9.82795 15.9059
O 2.42375 11.2187 14.1239
O 4.78311 15.5586 13.9346
O 1.92671 9.51049 12.2134
O 4.32675 13.856 11.9992
O 1.10068 11.937 11.8716
O 3.64394 16.4116 11.7628
O 2.37556 14.9457 13.59
O 4.90562 10.6146 13.5926
O 1.52123 16.7628 15.4835
O 4.3456 12.4219 15.352
Si 5.17692 12.9453 10.8945
Si 7.75031 8.53684 11.0217
Si 6.18306 15.4548 14.7221
Si 8.79715 10.8756 14.8213
Si 6.33974 10.7 12.8122
Si 8.76324 15.0404 12.8459
O 5.9379 14.4229 15.8638
O 8.66159 9.72035 15.9124
O 7.38001 11.1733 13.9719
O 9.9966 15.5583 13.7578
O 6.84215 9.39532 12.0836
O 9.16307 13.7743 12.0682
O 6.04369 11.915 11.7108
O 8.39271 16.2178 11.8652
O 7.46382 14.9385 13.795
O 9.94165 10.4643 13.7303
O 6.86004 16.8247 15.4102
O 9.20779 12.1866 15.6833
Si 10.0601 12.9504 11.1402
Si 12.7291 8.54642 11.1758
Si 11.2862 15.3053 14.6955
Si 13.9008 10.9139 14.7931
Si 11.3617 10.7639 12.9549
Si 13.7676 15.0169 12.9283
O 10.9694 14.2079 15.7808
O 13.6677 9.67598 15.7217
O 12.4859 11.2995 14.0587
O 14.8513 15.5831 13.8855
O 11.9553 9.46293 12.3118
O 14.2413 13.6561 12.2768
O 10.8595 11.8226 11.9686
O 13.4701 16.1367 11.7601
O 12.4736 14.7543 13.7154
O 14.9882 10.5883 13.6752
O 11.7784 16.5669 15.4857
O 14.4926 12.1135 15.6169
324
 Atoms. Timestep: 16500
Si 0.213964 4.36738 0.0371401
Si 2.7572 0.0375463 16.4888
Si 1.39189 6.64315 3.76076
Si 3.59814 2.29055 3.78484
Si 1.24128 2.06072 1.9153
Si 3.78905 6.37032 1.848
O 0.796007 5.55097 4.82805
O 3.5136 0.972746 4.65078
O 2.22056 2.37107 3.07916
O 5.05469 6.56304 2.78821
O 1.82689 0.939034 0.921905
O 3.95763 5.08768 0.951211
O 1.06399 3.33871 0.937544
O 3.46654 7.64244 0.919338
O 2.53017 6.07843 2.87825
O 4.76917 2.19523 2.7334
O 2.02711 7.92561 4.56824
O 3.88595 3.64903 4.68082
Si 5.01641 4.38121 16.5144
Si 7.51158 0.0902241 0.142185
Si 6.50197 6.55277 3.68991
Si 8.72747 2.30705 3.61556
Si 6.14634 2.33824 1.85588
Si 8.88615 6.64755 1.74966
O 6.13475 5.1955 4.57394
O 8.46165 1.03816 4.5685
O 7.30054 2.58187 2.86469
O 10.1204 6.98905 2.73042
O 6.46377 0.948169 1.07506
O 9.34057 5.36857 0.976747
O 6.08995 3.55008 0.783215
O 8.46843 7.80121 0.765502
O 7.65253 6.29859 2.66238
O 9.94393 1.92089 2.63551
O 6.78011 7.81214 4.52361
O 9.17876 3.5846 4.35504
Si 10.3055 4.43603 16.515
Si 12.6102 0.0508842 16.5413
Si 11.4324 6.67886 3.64779
Si 13.8077 2.1946 3.59473
Si 11.2994 2.18128 1.84204
Si 13.9465 6.53536 1.89386
O 10.9061 5.57186 4.65676
O 13.5451 1.0886 4.72536
O 12.4182 2.46116 2.93142
O 0.105454 6.96207 2.88511
O 11.7347 0.966762 0.924428
O 14.4527 5.23282 1.11318
O 11.1876 3.42339 0.847545
O 13.5293 7.75107 0.850795
O 12.6678 6.16026 2.75007
O 14.9943 1.681 2.63276
O 11.8197 7.9672 4.50455
O 14.495 3.48502 4.36208
Si 0.181765 13.1992 -0.0306761
Si 2.57765 8.70939 0.00550626
Si 0.990439 15.4306 3.74741
Si 3.86892 10.9695 3.6859
Si 1.2971 10.9328 1.87922
Si 3.52479 15.1998 1.91473
O 0.900621 14.2016 4.69228
O 3.55038 9.90303 4.85001
O 2.57151 11.3255 2.81476
O 4.57228 15.3105 3.14126
O 1.71799 9.71302 0.960312
O 3.9828 13.925 1.05716
O 0.933542 12.1379 0.933227
O 3.58131 16.4475 0.884461
O 2.03357 15.1884 2.50369
O 5.01405 10.4021 2.73593
O 1.67364 16.5268 4.58519
O 4.4539 12.2936 4.55247
Si 4.89236 13.0994 0.0134331
Si 7.66773 8.83325 16.3567
Si 5.98899 15.1091 3.76157
Si 8.89891 10.8489 3.70988
Si 6.29726 10.9044 1.85224
Si 8.44313 15.1581 1.9171
O 5.95149 14.2103 5.07069
O 8.5394 9.81042 4.8557
O 7.54149 11.1736 2.83172
O 9.63891 15.4314 2.95947
O 6.72137 9.68976 0.835303
O 9.00829 13.9056 0.979407
O 5.82485 12.1539 0.980924
O 8.20239 16.4351 1.09084
O 7.12201 14.5992 2.67116
O 9.99747 10.3077 2.75799
O 6.65539 16.5539 4.20521
O 9.44344 12.1555 4.44146
Si 10.016 13.1162 -0.0301953
Si 12.7049 8.88375 -0.0290063
Si 11.0887 15.2777 3.59677
Si 13.806 10.9241 3.63691
Si 11.1779 10.7957 1.9066
Si 13.6183 15.3003 1.8094
O 11.1208 14.1159 4.70796
O 13.6155 9.75952 4.71681
O 12.4741 11.1921 2.78177
O 14.5733 15.5279 3.18665
O 11.7019 9.60679 0.939908
O 14.3728 14.1219 0.952598
O 10.7406 12.0987 0.981371
O 13.6029 16.6156 0.819558
O 12.1826 14.9475 2.43597
O -0.0427783 10.5803 2.67847
O 11.6332 16.6452 4.20985
O 14.3197 12.2473 4.51856
Si 0.0428642 4.34213 5.52331
Si 2.69633 17.3292 5.53716
Si 1.20807 6.58026 8.9879
Si 3.75889 2.06842 9.20181
Si 1.27728 2.08463 7.40256
Si 3.81722 6.39944 7.40595
O 0.901459 5.53748 10.2086
O 3.52218 0.786082 10.0751
O 2.33458 2.40642 8.63119
O 4.81936 6.90837 8.6169
O 1.84191 0.738966 6.62028
O 4.53072 5.37383 6.5816
O 1.00838 3.36818 6.42859
O 3.50305 7.69027 6.57353
O 2.42902 5.99713 8.0978
O 4.70531 1.7854 7.88266
O 1.81366 7.88986 9.76651
O 4.4197 3.25841 9.96768
Si 5.14177 4.30909 5.49828
Si 7.57282 17.3117 5.2639
Si 6.23066 6.62252 9.23836
Si 8.63443 2.10764 9.09205
Si 6.17099 1.92106 7.2471
Si 8.64738 6.39316 7.39484
O 6.04424 5.50547 10.3361
O 8.49448 0.835118 10.1327
O 7.32601 2.20419 8.29589
O 9.86661 6.59836 8.45487
O 6.64528 0.68465 6.44262
O 9.05635 5.20611 6.405
O 5.98646 3.10593 6.19278
O 8.37727 7.72507 6.62843
O 7.23574 6.06895 8.14124
O 9.76021 1.77151 7.98743
O 6.92489 7.87608 9.94527
O 8.96065 3.35864 10.0764
Si 9.98005 4.39593 5.35694
Si 12.5401 -0.0107209 5.33283
Si 11.2505 6.42856 9.25635
Si 13.7322 2.28747 9.02783
Si 11.1566 2.08865 7.24037
Si 13.7678 6.34759 7.27687
O 10.8201 5.13747 10.1127
O 13.4055 1.05915 10.0496
O 12.3499 2.50813 8.22485
O 15.0493 6.86333 8.13592
O 11.5553 0.834856 6.38155
O 14.0726 4.97838 6.58041
O 10.8692 3.34662 6.24397
O 13.6193 7.48224 6.18044
O 12.4687 6.18264 8.24832
O 14.9518 1.86002 8.14568
O 11.5718 7.82009 10.0688
O 14.3237 3.57666 9.85775
Si 0.113624 13.0899 5.52486
Si 2.71892 8.76022 5.69773
Si 1.03321 15.4624 9.17599
Si 3.69066 11.0462 9.23551
Si 1.27254 10.9057 7.42534
Si 3.58701 15.1655 7.38631
O 0.742641 14.1522 10.1773
O 3.40753 9.89045 10.3213
O 2.27946 11.3323 8.6497
O 4.71161 15.376 8.5065
O 1.8384 9.64073 6.64726
O 3.92629 13.6792 6.70728
O 0.961686 12.0357 6.29502
O 3.58658 16.2928 6.27141
O 2.23925 15.1813 8.1858
O 4.8708 10.5971 8.29278
O 1.44041 16.592 10.1955
O 4.28234 12.3713 9.96534
Si 5.05675 13.068 5.72174
Si 7.56219 8.71926 5.58884
Si 6.18583 15.424 9.15034
Si 8.83324 10.9294 9.31272
Si 6.26961 10.8264 7.52644
Si 8.68976 15.1494 7.33063
O 6.11951 14.3004 10.323
O 8.70581 9.79352 10.3926
O 7.56989 11.0672 8.37817
O 9.80179 15.6128 8.4091
O 6.63274 9.51943 6.65131
O 9.35304 13.8574 6.61061
O 6.02408 12.121 6.57137
O 8.54251 16.2475 6.1033
O 7.34693 14.9635 8.07361
O 10.1039 10.6116 8.32442
O 6.52532 16.7827 9.84535
O 9.12226 12.251 10.13
Si 10.2492 13.0942 5.5379
Si 12.7283 8.61992 5.61688
Si 11.1968 15.3549 9.17806
Si 13.8543 10.8375 9.21138
Si 11.4333 10.8322 7.46386
Si 13.5923 15.13 7.33103
O 10.8729 14.2532 10.3437
O 13.5222 9.56758 10.0361
O 12.502 11.3171 8.55173
O 14.7618 15.7325 8.34362
O 12.1499 9.5163 6.79728
O 14.2475 13.9121 6.6103
O 11.0681 11.9537 6.45816
O 13.2672 16.2456 6.17326
O 12.2463 14.929 8.10237
O 14.9901 10.6424 8.15517
O 11.8126 16.6245 10.025
O 14.3988 12.1417 10.032
Si 0.0893138 4.43292 10.9704
Si 2.59027 17.3739 11.0107
Si 1.27264 6.61606 14.7408
Si 3.84089 2.17879 14.5148
Si 1.25307 2.19301 12.8375
Si 3.78844 6.38041 12.8048
O 1.11134 5.45631 15.8261
O 3.63969 1.02023 15.6353
O 2.45989 2.56762 13.791
O 4.8943 6.89924 13.8003
O 1.81859 0.919374 12.1313
O 4.176 4.98958 12.0892
O 0.916934 3.34526 11.8043
O 3.38361 7.5064 11.7181
O 2.42486 6.26153 13.6169
O 4.95939 1.83743 13.4645
O 1.64084 7.90086 15.653
O 4.2425 3.58366 15.3813
Si 5.18199 4.29459 10.963
Si 7.50493 17.2717 10.9985
Si 6.29394 6.63364 14.6407
Si 8.70753 2.22867 14.9152
Si 6.42037 2.05166 12.8506
Si 8.79335 6.36421 13.0196
O 5.92983 5.56455 15.8656
O 8.44883 1.21608 16.0214
O 7.42662 2.46967 13.9894
O 9.8192 6.68631 14.1695
O 6.891 0.719405 12.1572
O 9.24439 5.06164 12.1778
O 6.17737 3.30247 11.7891
O 8.65384 7.63089 12.0066
O 7.34266 6.0375 13.6137
O 10.0053 1.97082 14.0354
O 6.82663 8.00189 15.2917
O 9.23474 3.58672 15.6633
Si 9.94493 4.28005 11.1387
Si 12.731 17.436 11.0904
Si 11.2797 6.68465 14.8229
Si 13.9146 2.30673 14.6294
Si 11.2051 2.07937 13.0235
Si 13.8093 6.41257 12.8431
O 11.2434 5.44637 15.7566
O 13.4768 1.0641 15.62
O 12.542 2.55959 13.7473
O 14.8645 6.84464 13.9351
O 11.8399 0.766298 12.2766
O 14.3137 5.15487 12.121
O 10.7219 3.12821 11.8631
O 13.4228 7.5069 11.7649
O 12.4143 6.28567 13.6715
O 15.0716 1.82437 13.6739
O 11.7987 7.98687 15.5786
O 14.3957 3.54728 15.5041
Si 0.0792778 13.0245 11.0691
Si 2.60392 8.6593 10.9178
Si 1.16173 15.2542 14.7214
Si 3.84099 10.7965 14.5909
Si 1.32071 10.7336 12.7111
Si 3.66633 15.1708 12.9555
O 1.13227 14.1867 15.79
O 3.58864 9.62301 15.6581
O 2.56459 10.9342 13.648
O 4.80436 15.6878 13.9512
O 1.56051 9.36 11.9532
O 4.36684 13.8194 12.2716
O 1.22236 12.0521 11.77
O 3.45986 16.3303 11.8427
O 2.16055 14.8698 13.4927
O 4.99713 10.4253 13.5441
O 1.83761 16.5413 15.4396
O 4.24438 12.1261 15.5576
Si 5.23686 13.1467 11.069
Si 7.86641 8.65259 11.0718
Si 6.08347 15.3455 14.6639
Si 8.84672 10.9817 14.5257
Si 6.25143 10.6791 12.7162
Si 8.62533 15.0931 12.9844
O 5.77876 14.1612 15.6556
O 8.59493 9.84627 15.6529
O 7.43333 11.0989 13.7358
O 9.80794 15.7429 13.9359
O 6.75856 9.3588 12.0073
O 9.24199 13.7826 12.2912
O 6.01306 11.8388 11.7085
O 8.3122 16.0185 11.7427
O 7.21037 14.8946 13.6969
O 10.0142 10.5797 13.5125
O 6.7654 16.6043 15.5384
O 9.32272 12.2942 15.4089
Si 10.0849 13.0982 11.0909
Si 12.5342 8.67981 10.9386
Si 11.1379 15.4119 14.6703
Si 13.8992 11.0844 14.7763
Si 11.4713 10.8969 12.7946
Si 13.7875 15.0504 12.9281
O 10.8426 14.1126 15.6424
O 13.6267 9.97178 15.8512
O 12.5509 11.2404 13.9248
O 14.8596 15.4055 14.0981
O 11.9299 9.56672 12.0222
O 14.2951 13.6794 12.2226
O 11.1168 12.1309 11.8926
O 13.6677 16.398 11.8916
O 12.3605 15.0193 13.6825
O -0.00463188 10.6624 13.6145
O 11.6639 16.5715 15.6889
O 14.3768 12.4968 15.4183
324
 Atoms. Timestep: 17000
Si -0.00273019 4.39078 16.5359
Si 2.62695 17.3968 16.6196
Si 1.36163 6.72148 3.73902
Si 3.54017 2.39528 3.71853
Si 1.189 2.13189 1.76646
Si 3.86265 6.49395 1.85254
O 0.915101 5.46008 4.74415
O 3.22287 1.18088 4.63337
O 2.2632 2.74444 2.84034
O 5.16448 6.70445 2.74782
O 1.93524 0.85679 1.19026
O 4.14349 5.22385 1.01657
O 0.719636 3.19272 0.73242
O 3.24909 7.69322 0.919557
O 2.7002 6.26615 2.88259
O 4.76843 2.07795 2.68414
O 1.73888 7.98873 4.55441
O 4.04632 3.49609 4.73718
Si 4.98791 4.39109 16.5112
Si 7.46318 -0.0311596 0.0749659
Si 6.38323 6.47772 3.73066
Si 8.84347 2.10327 3.72661
Si 6.18713 2.17835 1.81398
Si 8.71599 6.53588 1.65563
O 6.27263 5.20958 4.68221
O 8.42799 1.05468 4.8493
O 7.48387 2.32499 2.81684
O 10.1518 6.66824 2.47296
O 6.38351 0.918157 0.770169
O 8.86735 5.06349 0.921632
O 6.02441 3.44007 0.786132
O 8.55894 7.62401 0.571546
O 7.64902 6.51036 2.82624
O 10.0838 1.70246 2.81381
O 6.42802 7.77275 4.75141
O 9.24321 3.46493 4.44747
Si 9.96 4.30924 0.137465
Si 12.6724 0.0521915 16.4868
Si 11.3606 6.49884 3.52695
Si 13.8754 2.08664 3.63131
Si 11.3174 2.09971 1.97973
Si 13.9333 6.63896 1.86651
O 10.9533 5.32775 4.62156
O 13.4318 0.774833 4.43712
O 12.5691 2.5845 2.88802
O 0.158132 7.00307 2.71823
O 11.9044 0.998658 0.994441
O 14.3803 5.37113 0.980187
O 10.7387 3.35704 1.11201
O 13.4225 7.86029 0.975147
O 12.6926 6.13747 2.75738
O 14.8782 1.71326 2.50256
O 11.6912 7.73568 4.4939
O 14.4482 3.24314 4.60024
Si -0.0210122 13.076 0.0900899
Si 2.46773 8.66855 -0.0652412
Si 1.04437 15.4159 3.68943
Si 3.80644 10.962 3.57931
Si 1.20592 10.7869 1.77013
Si 3.60053 14.988 1.84539
O 0.838916 14.3412 4.95348
O 3.65393 9.83538 4.72419
O 2.48631 10.9803 2.64561
O 4.68538 15.6096 2.85408
O 1.43238 9.59952 0.753526
O 4.37603 13.6926 1.30292
O 0.918936 12.1755 0.946803
O 3.29496 16.1564 0.736446
O 2.21347 14.7782 2.61916
O 5.02177 10.6215 2.58074
O 1.62931 16.7553 4.37538
O 4.23631 12.3209 4.32651
Si 5.17423 12.9819 0.0344834
Si 7.68748 8.76367 16.4121
Si 6.05956 15.2664 3.55485
Si 8.78976 10.8461 3.84142
Si 6.36914 10.8395 1.75751
Si 8.55979 15.1121 1.84425
O 5.91645 14.2408 4.69412
O 8.33629 9.54739 4.73488
O 7.56994 11.218 2.79247
O 9.71345 15.3514 2.8088
O 6.8652 9.42645 1.05513
O 8.93514 14.0702 0.643152
O 6.18779 11.8784 0.587517
O 8.24342 16.5293 1.07222
O 7.16359 14.7292 2.51307
O 10.0078 10.5718 2.92583
O 6.57457 16.6334 4.34237
O 9.0547 11.9961 4.85313
Si 10.1462 13.1727 0.00788326
Si 12.6422 8.85242 0.00285041
Si 10.983 15.1652 3.75836
Si 13.8505 11.015 3.69294
Si 11.2317 11.0918 1.98349
Si 13.5546 15.0476 1.90412
O 10.7697 13.9003 4.5902
O 13.3374 9.75536 4.65446
O 12.583 11.3554 2.8421
O 14.7912 15.5038 2.89507
O 11.6696 9.86542 0.953137
O 14.0944 13.6794 1.24592
O 10.7239 12.3878 1.20741
O 13.3329 16.1642 0.775766
O 12.1506 14.9475 2.70501
O 15.0494 10.5491 2.69779
O 11.4226 16.4798 4.566
O 14.336 12.2743 4.56165
Si 0.0219288 4.35612 5.57665
Si 2.4141 0.0995946 5.50953
Si 1.20139 6.63661 9.1027
Si 3.93121 2.18233 9.25797
Si 1.22841 2.1439 7.37729
Si 3.85075 6.55413 7.34413
O 1.14012 5.48013 10.2283
O 3.5919 1.09493 10.4285
O 2.62413 2.44198 8.28307
O 5.05327 6.89745 8.36241
O 1.50942 0.914648 6.51679
O 4.48816 5.21755 6.53651
O 0.942852 3.4669 6.62284
O 3.57575 7.72965 6.30733
O 2.48918 6.33175 8.0954
O 5.04324 1.66125 8.32467
O 1.42303 7.98875 9.86703
O 4.39221 3.50504 10.0008
Si 5.29139 4.30112 5.49773
Si 7.5123 17.3345 5.49219
Si 6.31481 6.66276 9.23893
Si 9.02502 2.17515 9.12616
Si 6.3138 2.04094 7.42356
Si 8.85601 6.32814 7.43517
O 6.06626 5.46707 10.3226
O 8.74657 1.00549 10.3257
O 7.56084 2.34781 8.42746
O 9.97818 6.72508 8.50892
O 6.73825 0.612153 6.63922
O 9.38781 5.02142 6.65227
O 6.10578 3.18705 6.32364
O 8.33753 7.53317 6.4318
O 7.55224 6.05021 8.29609
O 10.1735 1.76321 8.06017
O 6.82679 7.9296 9.99746
O 9.59257 3.46512 9.83408
Si 10.1964 4.2299 5.48519
Si 12.5522 17.2272 5.39504
Si 11.3021 6.46802 9.34457
Si 13.9023 2.27182 9.27991
Si 11.5133 2.1024 7.28486
Si 13.625 6.37867 7.30191
O 11.2315 5.39301 10.4527
O 13.4925 1.2535 10.4249
O 12.6519 2.65876 8.28586
O 14.8912 6.64829 8.26419
O 11.9968 0.718239 6.54727
O 13.9818 5.12847 6.38556
O 11.0709 3.0914 6.06894
O 13.5549 7.61844 6.29259
O 12.4181 6.1006 8.2009
O 14.9873 1.74397 8.2974
O 11.8765 7.86886 9.86653
O 14.4673 3.63336 9.96278
Si 0.187836 13.0518 5.58907
Si 2.73438 8.78279 5.54215
Si 1.1113 15.3765 9.13672
Si 3.72347 11.0963 9.31296
Si 1.35668 10.9277 7.35167
Si 3.61895 15.2783 7.39059
O 0.766013 14.2387 10.2149
O 3.31013 9.84099 10.187
O 2.43205 11.4684 8.434
O 4.83818 15.6339 8.46681
O 1.8799 9.59467 6.61336
O 4.09795 13.944 6.565
O 1.26998 12.0705 6.22474
O 3.2944 16.5066 6.4515
O 2.25893 14.9934 8.06657
O 4.99081 10.7853 8.42997
O 1.79113 16.6537 9.86811
O 4.03703 12.3619 10.2187
Si 5.06314 13.0837 5.52417
Si 7.40312 8.62373 5.66263
Si 6.2197 15.3112 9.18976
Si 8.73155 11.1007 9.16062
Si 6.2674 10.9096 7.44314
Si 8.64243 15.2171 7.3152
O 5.85048 14.2277 10.3367
O 8.47298 9.84515 10.1765
O 7.38635 11.4796 8.38455
O 9.66447 15.8391 8.35269
O 6.70458 9.55564 6.74692
O 9.28155 13.8403 6.76063
O 5.84545 11.9453 6.36107
O 8.47196 16.1727 6.08295
O 7.19564 14.9159 7.97949
O 9.879 10.6387 8.12825
O 7.05113 16.4237 10.0256
O 9.30962 12.4121 9.90351
Si 10.0187 12.8979 5.65389
Si 12.5791 8.58292 5.49581
Si 11.0935 15.5702 9.06772
Si 13.8572 10.9439 9.21775
Si 11.3204 10.7459 7.33254
Si 13.6693 15.0499 7.33753
O 10.7942 14.5171 10.2302
O 13.6922 9.70977 10.1761
O 12.4086 11.1243 8.43968
O 14.8666 15.7277 8.33903
O 11.5819 9.40923 6.53988
O 14.3325 13.673 6.78734
O 11.0194 11.9662 6.3548
O 13.4178 15.9398 6.05858
O 12.3037 15.048 8.16147
O -0.0633169 10.7358 8.05671
O 11.8213 16.82 9.69619
O 14.3232 12.1757 10.1369
Si 0.32711 4.42592 11.0479
Si 2.54353 -0.0439871 11.0403
Si 1.2007 6.50618 14.5847
Si 3.76418 2.18809 14.7496
Si 1.25451 2.05231 12.909
Si 3.73321 6.49904 12.6233
O 0.916427 5.18521 15.5383
O 3.58201 0.998631 15.7993
O 2.48723 2.36807 13.9026
O 4.86313 7.00884 13.6947
O 1.44776 0.664929 12.0112
O 4.2778 5.17901 11.9894
O 0.998825 3.25223 11.9113
O 3.42493 7.61973 11.5756
O 2.29985 6.40174 13.4527
O 4.98525 1.79963 13.8598
O 1.72488 7.68726 15.4671
O 4.02348 3.53166 15.6641
Si 5.24562 4.31869 11.0523
Si 7.91767 17.3701 11.0556
Si 6.1758 6.65089 14.5544
Si 8.79397 2.05517 14.8418
Si 6.33108 2.0161 12.9855
Si 8.81789 6.39173 12.7593
O 5.70697 5.53079 15.5405
O 8.57512 0.902878 15.8712
O 7.33834 2.28388 14.1249
O 9.86269 6.91892 13.9115
O 6.7591 0.713011 12.0456
O 9.32527 5.05603 12.0589
O 6.0762 3.20473 11.8987
O 8.67617 7.56084 11.7026
O 7.36618 6.36207 13.5341
O 9.75241 1.61341 13.5938
O 6.75006 7.91898 15.4377
O 9.30626 3.34335 15.5507
Si 10.3353 4.20459 11.0244
Si 12.7397 -0.0247177 10.8983
Si 11.19 6.59298 14.8605
Si 13.6235 2.29257 14.7097
Si 11.1172 1.79645 12.8359
Si 13.7469 6.46094 12.9742
O 10.8179 5.37279 15.8253
O 13.5838 1.06874 15.7405
O 12.2488 2.30792 13.9701
O 14.9089 6.83175 13.9539
O 11.6718 0.49677 12.0276
O 14.4249 5.22622 12.0951
O 10.9992 2.95346 11.7541
O 13.4505 7.59539 11.8478
O 12.3707 6.19075 13.8835
O 14.9586 2.07067 13.7756
O 11.7622 7.87717 15.6738
O 13.9641 3.64879 15.5863
Si 0.0932112 13.1931 11.128
Si 2.46856 8.78719 10.9354
Si 1.05706 15.4352 14.7482
Si 3.77459 10.8535 14.8238
Si 1.30498 10.8547 12.8621
Si 3.561 15.2109 13.0439
O 0.664714 14.289 15.8519
O 3.48303 9.66223 15.8311
O 2.44147 11.0494 13.9382
O 4.75221 15.8321 13.8711
O 1.55053 9.49761 12.059
O 4.18079 13.8562 12.4023
O 1.16231 12.1421 11.8265
O 3.26732 16.3053 11.9549
O 2.25727 14.9043 13.8125
O 4.99859 10.6239 13.8188
O 1.73833 16.7076 15.4351
O 4.10462 12.1236 15.7231
Si 5.00067 13.1691 11.1551
Si 7.75497 8.75936 11.0291
Si 6.1298 15.284 14.5791
Si 8.87694 11.0579 14.55
Si 6.37529 10.89 12.9701
Si 8.76573 15.0909 12.9826
O 5.55398 14.1286 15.6204
O 8.63955 9.86433 15.6418
O 7.49764 11.4161 13.8813
O 9.93014 15.3083 14.0196
O 7.03537 9.53867 12.2566
O 9.24204 13.8203 12.1213
O 5.9448 11.9396 11.7905
O 8.63174 16.3623 11.9901
O 7.33548 14.7756 13.626
O 10.0732 10.7382 13.4133
O 6.82884 16.5336 15.3693
O 9.54039 12.1606 15.4171
Si 10.2117 13.2434 10.9443
Si 12.7491 8.67689 10.9166
Si 11.3721 15.3153 14.8333
Si 13.804 10.9693 14.6929
Si 11.447 11.0002 12.6159
Si 13.7951 15.3693 12.8152
O 11.22 14.2364 16.0166
O 13.4974 9.76691 15.7027
O 12.5269 11.3603 13.7261
O 14.8903 15.8213 13.827
O 11.9004 9.72676 11.8864
O 14.284 13.8829 12.2739
O 11.1979 12.2124 11.544
O 13.5593 16.1721 11.5353
O 12.5307 15.1511 13.7688
O 14.9896 10.6126 13.6925
O 11.6338 16.7746 15.436
O 14.2899 12.2198 15.5559
324
 Atoms. Timestep: 17500
Si 0.137583 4.28786 16.4628
Si 2.52479 0.0451112 16.5032
Si 1.26294 6.43928 3.66712
Si 3.79796 2.3122 3.6078
Si 1.23649 2.24522 1.87647
Si 3.82842 6.47613 1.80507
O 0.51389 5.25001 4.36182
O 3.42277 1.07479 4.62884
O 2.33831 2.58051 2.99155
O 5.01488 6.55127 2.98041
O 1.76226 0.983984 0.959265
O 4.16019 5.29199 0.767816
O 1.02509 3.42832 0.815036
O 3.71189 7.86696 1.00149
O 2.48618 6.2099 2.63038
O 4.84968 2.04104 2.40834
O 1.75733 7.50455 4.71725
O 4.36639 3.559 4.44679
Si 5.12414 4.45964 16.4137
Si 7.70842 0.187991 16.4034
Si 6.33845 6.44263 3.86861
Si 8.71902 2.27966 3.8117
Si 6.33534 2.28484 1.76688
Si 8.81112 6.41913 1.88934
O 6.16626 5.22188 4.85127
O 8.39873 0.987383 4.66945
O 7.31339 2.48289 2.98355
O 10.1047 6.60892 2.78014
O 6.92559 1.055 0.934049
O 9.16677 5.05937 0.909165
O 6.03945 3.58118 0.852131
O 8.4663 7.60947 0.887828
O 7.59614 6.25039 2.8216
O 9.8715 1.96298 2.69611
O 6.57966 7.81882 4.74942
O 9.10034 3.57117 4.66224
Si 10.1568 4.34378 16.4697
Si 12.6024 17.3021 16.5295
Si 11.4044 6.44199 3.66491
Si 13.7281 2.13545 3.60446
Si 11.2324 2.09129 1.71541
Si 13.9287 6.5311 1.81751
O 11.0636 5.30622 4.75308
O 13.3541 0.798042 4.47048
O 12.4189 2.44748 2.70194
O 0.0972537 7.05029 2.65295
O 11.7225 0.717334 1.01497
O 14.4689 5.32325 0.866335
O 10.9677 3.12034 0.579932
O 13.4068 7.67103 0.771365
O 12.6226 6.08942 2.69895
O 14.9578 1.97584 2.64639
O 11.8429 7.75185 4.40565
O 14.1742 3.12241 4.75576
Si 14.9419 13.1014 16.5375
Si 2.59156 8.72174 0.135899
Si 1.19001 15.2555 3.63882
Si 3.6781 10.8838 3.62015
Si 1.1299 10.9415 1.72493
Si 3.61707 15.1099 1.75136
O 0.967891 14.1911 4.84848
O 3.25555 9.59308 4.4861
O 2.39462 11.2488 2.78744
O 4.86701 15.509 2.69511
O 1.53197 9.58498 0.967431
O 4.19497 13.789 0.99113
O 0.795079 12.0209 0.661171
O 3.28585 16.2597 0.736476
O 2.23832 14.6802 2.59061
O 4.82619 10.5406 2.57794
O 1.74944 16.6193 4.33602
O 4.20918 12.0582 4.47423
Si 5.26273 13.1442 0.0353059
Si 7.74445 8.68663 16.5343
Si 6.16331 15.3011 3.61569
Si 8.69755 10.8542 3.73867
Si 6.28586 10.6813 1.85698
Si 8.73811 15.2931 1.80649
O 5.89867 14.0783 4.64571
O 8.54464 9.68891 4.84648
O 7.29413 10.9707 3.07794
O 9.83666 15.6434 3.06808
O 6.74619 9.50592 0.946736
O 9.39212 13.9971 1.10345
O 6.12182 12.0817 0.883247
O 8.54946 16.5048 0.722614
O 7.34526 15.1227 2.58851
O 9.87268 10.6603 2.55119
O 6.6593 16.5196 4.49726
O 9.22061 12.0915 4.65817
Si 10.1467 13.0907 0.0471513
Si 12.5298 8.65632 16.4341
Si 11.1496 15.2532 3.86791
Si 13.8473 10.8959 3.67275
Si 11.248 10.7463 1.80174
Si 13.6327 15.0531 1.9754
O 10.8404 13.9978 4.854
O 13.6145 9.64438 4.66266
O 12.3993 11.014 2.90657
O 14.8056 15.542 2.90026
O 11.5752 9.41983 0.914527
O 14.0126 13.7602 1.15265
O 11.1069 11.9389 0.779005
O 13.3169 16.1294 0.771277
O 12.3976 14.8823 2.921
O 14.9692 10.6621 2.67523
O 11.6024 16.5002 4.83204
O 14.2177 12.2495 4.4259
Si 0.118265 4.16583 5.5149
Si 2.58296 0.0383249 5.44553
Si 1.19511 6.63014 9.1872
Si 3.86369 2.30201 9.27832
Si 1.3552 2.10736 7.38977
Si 3.86079 6.43735 7.44144
O 0.729441 5.62291 10.273
O 3.40869 1.13887 10.3359
O 2.54044 2.42599 8.34096
O 5.04902 6.82337 8.37946
O 1.6123 0.796755 6.48045
O 4.22599 5.12459 6.51501
O 1.18434 3.35554 6.36127
O 3.55486 7.65183 6.44404
O 2.55452 6.18308 8.40077
O 5.11445 1.81614 8.42983
O 1.7297 8.02415 9.85526
O 4.22421 3.64473 10.0246
Si 5.12004 4.20739 5.59071
Si 7.57573 17.3108 5.54289
Si 6.38482 6.59567 9.26977
Si 8.85377 2.3291 9.24866
Si 6.32706 1.99937 7.5126
Si 8.88593 6.47304 7.44657
O 5.89726 5.54557 10.3321
O 8.33945 1.16772 10.0737
O 7.5827 2.71136 8.3398
O 9.93308 6.86482 8.56968
O 6.82058 0.780377 6.66338
O 9.49781 5.11332 6.78919
O 5.81284 3.03885 6.4242
O 8.63591 7.6186 6.34207
O 7.4743 6.1745 8.18222
O 9.9906 1.82945 8.29137
O 7.0058 7.94876 9.97464
O 9.46244 3.56161 10.0452
Si 10.1742 4.27424 5.58892
Si 12.6884 17.3108 5.59977
Si 11.4014 6.66021 9.2134
Si 14.0445 2.32705 9.27576
Si 11.4133 2.10943 7.47178
Si 13.845 6.34299 7.28475
O 11.2648 5.47176 10.3227
O 13.7948 1.07291 10.1967
O 12.6154 2.57953 8.44233
O 14.9722 6.88641 8.25622
O 12.108 0.856728 6.73227
O 14.3889 4.99639 6.6351
O 11.0614 3.1783 6.40417
O 13.6205 7.49509 6.23306
O 12.4443 6.1736 8.10816
O 0.0960078 2.05574 8.25632
O 11.959 7.96748 9.91665
O 14.3381 3.58398 10.2189
Si 0.0848794 12.9846 5.56593
Si 2.73054 8.55297 5.4936
Si 1.24916 15.2828 9.2493
Si 3.79399 10.9565 9.20849
Si 1.3246 10.6931 7.35772
Si 3.7347 15.1077 7.24455
O 1.18699 14.1267 10.4054
O 3.64845 9.80707 10.2976
O 2.39754 11.1678 8.41249
O 4.85667 15.5146 8.26403
O 1.94907 9.43429 6.64769
O 4.23188 13.7555 6.52249
O 0.872492 11.7428 6.23092
O 3.49679 16.3817 6.22461
O 2.35921 14.9831 8.15379
O 4.89978 10.5632 8.07911
O 1.56579 16.63 10.0908
O 4.24968 12.3015 9.96942
Si 5.10055 13.0325 5.48328
Si 7.65657 8.66011 5.65658
Si 6.11763 15.4133 9.25909
Si 8.69215 11.1308 9.14871
Si 6.24921 10.8402 7.35426
Si 8.73871 15.0904 7.51991
O 5.80639 14.3455 10.4908
O 8.48937 10.0549 10.2931
O 7.31136 11.3323 8.45454
O 9.905 15.4693 8.53387
O 6.85193 9.46536 6.82792
O 9.11487 13.7986 6.68027
O 6.03503 11.966 6.21551
O 8.46028 16.2728 6.37638
O 7.31386 14.855 8.31393
O 9.7822 10.5752 8.06019
O 6.56427 16.7716 9.90384
O 9.23404 12.4306 9.93889
Si 10.0576 12.9138 5.75447
Si 12.7498 8.56544 5.46387
Si 11.3373 15.4261 9.15622
Si 13.8872 10.8658 9.15063
Si 11.24 10.6614 7.33543
Si 13.8414 15.0135 7.32302
O 11.207 14.2061 10.1923
O 13.7017 9.82209 10.3268
O 12.4625 10.8844 8.39446
O 14.8731 15.3132 8.54508
O 11.772 9.47024 6.38519
O 14.2906 13.6801 6.60861
O 11.0957 11.9638 6.431
O 13.7255 16.2989 6.41397
O 12.3102 14.8393 7.92502
O 14.9777 10.4118 8.10285
O 11.8636 16.7828 9.8295
O 14.2554 12.3077 9.74228
Si 0.0526686 4.55583 11.1915
Si 2.50547 0.0818204 11.1691
Si 1.24456 6.56309 14.7678
Si 3.64089 2.25343 14.6451
Si 1.03811 2.19893 12.9893
Si 3.64671 6.58024 12.8627
O 1.09038 5.15139 15.4249
O 3.38978 1.02801 15.6128
O 2.28232 2.63796 13.944
O 4.7743 7.02822 13.942
O 1.65508 0.839772 12.2677
O 4.17957 5.15483 12.1872
O 0.95398 3.47683 11.9778
O 3.6429 7.65656 11.5863
O 2.23337 6.4844 13.5717
O 4.72144 1.86212 13.5634
O 1.71429 7.63116 15.8423
O 4.32231 3.40794 15.4286
Si 5.11378 4.40169 11.0744
Si 7.49109 0.0405643 11.0261
Si 6.23394 6.75353 14.5333
Si 8.56324 2.39674 14.5001
Si 6.13087 2.08994 12.8629
Si 8.72318 6.5604 12.767
O 5.91667 5.49522 15.5417
O 8.61118 1.16691 15.6082
O 7.11431 2.63962 14.0777
O 9.76902 6.6432 14.003
O 6.73099 0.840912 12.1837
O 9.16325 5.40642 11.7845
O 5.90593 3.2178 11.802
O 8.6446 7.87064 11.8551
O 7.28069 6.38886 13.4038
O 9.53901 2.06464 13.2253
O 6.92292 7.94573 15.3914
O 9.21174 3.67661 15.2904
Si 10.2715 4.52078 11.0129
Si 12.7356 0.121103 10.9463
Si 11.1842 6.60252 14.6725
Si 13.5442 2.22345 14.7985
Si 11.1194 2.16529 12.7817
Si 13.8246 6.5966 13.0851
O 11.0649 5.5003 15.8675
O 13.5584 1.00508 15.8307
O 12.0727 2.3407 14.0536
O 14.8161 7.00347 14.2471
O 11.7437 0.970877 11.9108
O 14.4532 5.30631 12.3825
O 11.0202 3.5562 12.0148
O 13.6436 7.76438 11.9496
O 12.4211 6.31576 13.6723
O 14.7108 1.87005 13.6955
O 11.55 7.94938 15.3675
O 14.1385 3.4848 15.5537
Si 0.0568121 12.9839 10.9481
Si 2.73977 8.73078 10.9616
Si 0.961571 15.37 14.7339
Si 3.68901 11.0157 14.7123
Si 1.18387 10.675 12.897
Si 3.53124 15.0674 12.9378
O 0.58184 14.2188 15.7754
O 3.29883 9.73049 15.6533
O 2.28312 11.1447 13.9846
O 4.83003 15.5492 13.8986
O 1.80658 9.39836 12.046
O 3.94667 13.777 12.1245
O 0.76388 11.8475 11.8723
O 3.27306 16.2947 11.8816
O 2.14416 14.9059 13.7375
O 4.82863 10.7312 13.6228
O 1.43913 16.6264 15.6188
O 4.33675 12.195 15.5473
Si 5.02464 13.1175 11.1304
Si 7.70289 8.8643 11.0621
Si 6.30626 15.4009 14.6523
Si 8.88182 10.8773 14.6947
Si 6.27082 10.8912 12.9559
Si 8.7585 15.3205 12.8185
O 6.14322 14.2499 15.8293
O 8.68642 9.72615 15.7583
O 7.4726 11.0956 14.0727
O 9.83822 15.7316 13.8661
O 6.75483 9.60295 12.11
O 9.19392 14.0477 11.8998
O 6.04556 12.2775 12.0643
O 8.54709 16.5408 11.781
O 7.43305 14.9372 13.6282
O 9.92065 10.6864 13.5843
O 6.80179 16.7143 15.4516
O 9.30818 12.1289 15.6496
Si 10.2253 13.1718 10.9808
Si 12.8324 8.7622 11.0189
Si 11.1793 15.3437 14.6186
Si 13.736 10.9406 14.6731
Si 11.2725 10.8085 12.7688
Si 13.6421 15.1318 12.7622
O 10.8534 14.2179 15.6759
O 13.4732 9.75603 15.7546
O 12.4706 11.0399 13.7599
O 14.737 15.4842 13.8143
O 11.7662 9.5242 11.9258
O 14.1491 13.8944 11.8527
O 11.0494 12.0141 11.7749
O 13.3943 16.3537 11.796
O 12.214 14.8451 13.4788
O 14.9351 10.4376 13.7192
O 11.7535 16.6195 15.3343
O 14.0092 12.2339 15.5331
324
 Atoms. Timestep: 18000
Si 0.186383 4.23814 16.5233
Si 2.55953 17.4168 16.5215
Si 1.15312 6.50983 3.45303
Si 3.7148 2.08438 3.6362
Si 1.1707 1.91129 1.74709
Si 3.84984 6.44156 1.8185
O 1.03899 5.11216 4.25545
O 3.44197 1.04321 4.84226
O 2.3773 2.26674 2.70316
O 4.89699 6.75065 2.96696
O 1.47607 0.497923 1.10787
O 4.41149 5.08008 1.19343
O 1.0697 3.14142 0.743469
O 3.73134 7.60332 0.677819
O 2.34355 6.4309 2.46916
O 4.90195 1.86024 2.60852
O 1.61756 7.67476 4.45862
O 4.12493 3.42524 4.41102
Si 5.14647 4.21316 0.0553937
Si 7.56526 0.0141952 0.0379152
Si 6.27232 6.41579 3.84586
Si 8.78549 2.2206 3.78524
Si 6.38532 2.03415 1.88398
Si 8.72386 6.31777 1.93785
O 5.93541 5.33269 4.90758
O 8.48082 1.06683 4.88979
O 7.40079 2.58116 2.97971
O 9.83705 6.75455 2.98805
O 6.69949 0.691541 1.17711
O 9.30478 5.14499 1.09697
O 6.13692 3.02206 0.54337
O 8.35518 7.5411 0.932112
O 7.28928 6.00742 2.66785
O 9.74753 1.82873 2.58412
O 6.89448 7.82633 4.32603
O 9.37359 3.53292 4.46969
Si 10.2031 4.34584 16.476
Si 12.5829 17.261 16.4858
Si 11.2449 6.52878 3.72455
Si 13.7064 2.26274 3.65986
Si 11.1806 1.84705 1.71812
Si 13.6694 6.36078 1.70995
O 11.0395 5.42084 4.84671
O 13.6031 1.09422 4.72809
O 12.3183 2.23881 2.84102
O 14.8015 6.77515 2.81841
O 11.6337 0.554019 1.01037
O 14.2588 4.98655 1.02267
O 11.0741 3.12389 0.676932
O 13.3435 7.49947 0.728662
O 12.3458 6.11736 2.5715
O 14.9107 1.91434 2.54126
O 11.9101 7.78507 4.53252
O 14.0227 3.68355 4.39307
Si 0.135404 13.102 0.0945271
Si 2.75453 8.7299 0.0732921
Si 1.33184 15.2377 3.63108
Si 3.5908 10.8927 3.72442
Si 1.07763 10.7145 1.88997
Si 3.7652 15.2148 1.67538
O 1.16183 14.0813 4.78477
O 3.55328 9.52894 4.59234
O 2.07386 11.1869 3.10423
O 4.8178 15.6824 2.78684
O 1.74501 9.44099 1.14002
O 4.29811 13.9753 0.893388
O 0.803192 11.8713 0.865423
O 3.55195 16.3832 0.644661
O 2.45905 14.9124 2.55105
O 4.60915 10.6055 2.4887
O 1.69366 16.5178 4.5025
O 4.21832 12.104 4.56224
Si 5.22119 13.0511 16.5064
Si 7.552 8.61652 0.120267
Si 6.17569 15.3407 3.60303
Si 8.55434 11.1016 3.67616
Si 6.02086 10.7343 1.84868
Si 8.74331 15.2791 1.9213
O 5.78932 14.1273 4.5188
O 8.64264 9.80505 4.69379
O 7.08942 11.1524 3.0152
O 9.81223 15.675 3.02677
O 6.66751 9.48079 1.15438
O 9.22606 14.0115 1.07798
O 5.92202 11.8926 0.748329
O 8.5764 16.41 0.886412
O 7.32117 15.0305 2.52925
O 9.71637 10.8507 2.59403
O 6.65972 16.6006 4.5491
O 8.96724 12.3948 4.50179
Si 9.88466 13.0262 16.4716
Si 12.5789 8.75662 0.155321
Si 11.2497 15.3335 3.68729
Si 13.6266 11.1267 3.6879
Si 11.1649 11.0107 1.79123
Si 13.7386 15.1024 1.87529
O 10.8822 14.05 4.73523
O 13.4979 9.93864 4.71457
O 12.2745 11.4096 2.83662
O 14.9609 15.4528 2.8776
O 11.7205 9.61826 1.15661
O 14.2032 13.902 0.932173
O 10.901 11.9665 0.567715
O 13.5207 16.3519 0.812503
O 12.3448 14.9025 2.59197
O 14.7117 10.6083 2.54748
O 11.8753 16.5002 4.5086
O 14.2228 12.4839 4.39914
Si 0.184251 4.26989 5.2568
Si 2.62394 17.2594 5.59168
Si 1.35098 6.71254 9.31365
Si 3.63953 2.35508 9.23057
Si 1.22578 2.00037 7.32222
Si 3.80844 6.45321 7.38149
O 1.29021 5.48077 10.369
O 3.41237 1.15437 10.2229
O 2.38989 2.59284 8.28871
O 5.12526 6.82045 8.23024
O 1.83121 0.722742 6.66642
O 4.05007 5.05937 6.63967
O 0.950026 3.1283 6.07194
O 3.4929 7.47843 6.25952
O 2.50918 6.38316 8.3133
O 4.87177 1.98068 8.27981
O 1.73969 8.05908 10.1329
O 4.19894 3.60883 10.0997
Si 4.98689 4.19352 5.55386
Si 7.62019 17.3105 5.62468
Si 6.39352 6.69307 9.13703
Si 8.93576 2.29005 9.21736
Si 6.28417 2.10569 7.4506
Si 8.85631 6.49663 7.34945
O 5.89432 5.59261 10.3092
O 8.40589 1.12029 10.3004
O 7.54592 2.48267 8.30663
O 10.0486 6.91602 8.25363
O 6.80005 0.610775 6.89766
O 9.19611 5.09241 6.62753
O 6.03701 3.18388 6.26258
O 8.52314 7.60435 6.33324
O 7.56741 6.26176 8.25686
O 10.1467 1.77773 8.2658
O 6.78387 8.05732 9.80699
O 9.34334 3.62331 10.0601
Si 10.2002 4.29766 5.64311
Si 12.8449 17.3241 5.53784
Si 11.4409 6.74838 9.00482
Si 13.8871 2.409 9.23367
Si 11.4461 2.03815 7.4002
Si 14.0257 6.38088 7.33072
O 11.1368 5.65048 10.1601
O 13.6645 1.27212 10.2997
O 12.5145 2.61453 8.45801
O 15.1285 6.84444 8.44798
O 11.9734 0.684923 6.69192
O 14.5427 5.1495 6.45908
O 11.0381 3.13505 6.34358
O 13.7948 7.68563 6.31439
O 12.5764 6.22496 8.02461
O 15.084 1.72149 8.2465
O 11.8376 8.12056 9.75203
O 14.551 3.6306 9.91598
Si 0.135474 12.9866 5.56889
Si 2.57187 8.53259 5.44701
Si 1.36606 15.3263 9.18644
Si 3.80986 11.0428 9.14752
Si 1.21264 10.6329 7.36806
Si 3.77325 15.02 7.23909
O 1.28327 14.1126 10.2664
O 3.61396 9.83034 10.1467
O 2.38187 11.2122 8.3675
O 4.87638 15.4186 8.34129
O 1.64567 9.37103 6.54126
O 4.30055 13.7867 6.51576
O 0.910155 11.7629 6.21115
O 3.63009 16.2313 6.22089
O 2.363 14.902 7.99061
O 5.00933 10.7544 8.067
O 1.89513 16.6116 9.95336
O 4.28121 12.3992 9.8952
Si 5.14123 12.9994 5.46177
Si 7.75506 8.69738 5.38804
Si 6.24077 15.3624 9.10633
Si 8.87077 10.9667 9.24492
Si 6.39224 10.7769 7.24558
Si 8.87289 15.0243 7.36023
O 6.07493 14.3011 10.2203
O 8.48103 9.91985 10.3751
O 7.55575 10.9388 8.33525
O 10.0799 15.3814 8.36663
O 6.67111 9.47879 6.28558
O 9.29229 13.628 6.69282
O 6.19357 12.0218 6.24923
O 8.559 16.1695 6.26957
O 7.54241 14.9802 8.24109
O 10.0409 10.4423 8.19794
O 6.55821 16.7351 9.85686
O 9.40088 12.2784 9.94778
Si 10.1033 12.9461 5.50547
Si 12.8357 8.73494 5.50421
Si 11.4239 15.3674 9.29739
Si 13.7637 11.0862 9.20287
Si 11.373 10.7395 7.30458
Si 13.919 15.1665 7.37114
O 11.0113 14.206 10.3061
O 13.3278 10.1547 10.4117
O 12.4647 11.3201 8.31507
O 15.0073 15.5258 8.39666
O 11.895 9.3595 6.60853
O 14.4535 13.8349 6.67802
O 11.0091 11.7781 6.10505
O 13.7233 16.2819 6.22066
O 12.5852 14.9008 8.32416
O 14.9864 10.5575 8.28139
O 11.9464 16.7454 9.91612
O 14.4651 12.4532 9.83171
Si 0.260302 4.43341 11.0789
Si 2.62317 0.0735976 11.0344
Si 1.07019 6.65799 14.8743
Si 3.62406 2.31529 14.7363
Si 1.12609 2.02061 12.9577
Si 3.64077 6.54059 13.0639
O 0.958846 5.47748 15.8968
O 3.28636 1.18175 15.883
O 2.22269 2.4551 13.9626
O 4.74268 6.81049 14.1247
O 1.60462 0.857901 12.013
O 4.10497 5.19806 12.2783
O 0.942343 3.28412 11.9773
O 3.60489 7.7635 12.0395
O 2.23049 6.37961 13.6959
O 4.84253 1.8358 13.7661
O 1.80824 7.93776 15.6049
O 4.10565 3.55694 15.5713
Si 5.03346 4.45921 11.1737
Si 7.43309 0.010541 10.9723
Si 6.16686 6.54369 14.8528
Si 8.7109 2.16557 14.6863
Si 6.09199 2.04408 12.9418
Si 8.73017 6.57425 12.9167
O 6.07087 5.27279 15.8114
O 8.44717 1.03926 15.7605
O 7.35727 2.34816 13.8701
O 9.93505 6.95242 13.8345
O 6.57284 0.730129 12.0748
O 9.25857 5.29075 12.0825
O 5.8314 3.29595 11.9651
O 8.44851 7.65847 11.7377
O 7.29409 6.30886 13.6322
O 9.85139 1.94542 13.6214
O 6.6018 7.77572 15.708
O 9.29916 3.50789 15.471
Si 10.2172 4.55855 11.0205
Si 12.7375 0.169043 11.0034
Si 11.2585 6.71556 14.6809
Si 13.7139 2.23134 14.6933
Si 11.2569 2.31421 12.8708
Si 13.8454 6.60344 12.8278
O 11.0749 5.43166 15.6578
O 13.3832 1.03735 15.723
O 12.2984 2.72052 14.0134
O 14.8798 6.86598 13.9655
O 11.8937 1.11215 11.9955
O 14.3994 5.3523 11.9795
O 11.1366 3.58812 11.8888
O 13.5546 7.75379 11.7319
O 12.5095 6.39109 13.698
O 14.7922 1.66794 13.6726
O 11.6177 8.03146 15.5739
O 14.4192 3.42203 15.445
Si 0.183942 13.1871 10.9413
Si 2.67452 8.81982 11.1105
Si 1.17376 15.3237 14.6756
Si 3.6509 11.0532 14.8153
Si 1.09067 10.8954 12.9756
Si 3.71302 15.2934 12.9895
O 1.07681 14.1801 15.8464
O 3.50192 9.95638 15.9569
O 2.26363 11.2158 14.0896
O 4.9417 15.4286 14.0238
O 1.7422 9.72932 12.1033
O 4.22468 14.1365 11.995
O 0.908894 12.1322 11.9184
O 3.43977 16.5646 12.0834
O 2.37986 14.97 13.797
O 4.70784 10.5889 13.6427
O 1.72014 16.7052 15.3494
O 4.31111 12.4735 15.301
Si 5.06632 13.2579 11.0346
Si 7.63523 8.77323 11.0118
Si 6.33334 15.2599 14.7417
Si 8.49533 10.8755 14.8616
Si 6.0129 10.8317 12.8507
Si 8.61744 15.2004 12.7205
O 6.22702 14.1423 15.8311
O 8.40714 9.63331 15.9134
O 7.1842 11.1157 13.9706
O 9.84994 15.6245 13.7291
O 6.63755 9.55138 12.099
O 9.06636 13.9047 11.8953
O 5.79011 12.017 11.7727
O 8.36712 16.361 11.7431
O 7.30014 14.9031 13.4916
O 9.65463 10.6617 13.7598
O 6.75378 16.6451 15.4679
O 8.82604 12.2567 15.6857
Si 10.1878 13.0988 11.072
Si 12.578 8.84976 11.0058
Si 11.1094 15.2032 14.6381
Si 13.7028 11.0241 14.7379
Si 11.096 10.7736 12.9637
Si 13.6495 15.2169 12.8459
O 10.6631 14.0155 15.5356
O 13.5178 9.91387 15.8681
O 12.3031 11.0595 14.0056
O 14.9028 15.3908 13.9166
O 11.6478 9.51453 12.1503
O 14.2507 14.034 11.8891
O 10.9413 12.0121 11.9664
O 13.4879 16.5241 11.8866
O 12.3245 14.8838 13.618
O 14.8143 10.6419 13.6924
O 11.7496 16.4126 15.4868
O 14.3537 12.369 15.4864
324
 Atoms. Timestep: 18500
Si -0.144103 4.39464 -0.00474191
Si 2.73314 17.3804 0.140891
Si 1.11526 6.5358 3.84156
Si 3.72091 2.09782 3.63287
Si 1.10506 2.11409 1.82936
Si 3.51358 6.45379 1.77968
O 1.05479 5.53702 5.0752
O 3.53835 1.04185 4.81077
O 2.30186 2.36342 2.98379
O 4.7211 6.93025 2.73269
O 1.75706 0.924843 0.983346
O 4.14489 5.14279 1.02623
O 0.813907 3.3604 0.831819
O 3.02404 7.57787 0.741147
O 2.24337 6.04831 2.69956
O 4.69209 1.56518 2.49509
O 1.64943 8.00552 4.38028
O 4.35816 3.46379 4.20525
Si 4.86977 4.17574 0.00191208
Si 7.72686 17.401 0.0045277
Si 6.05983 6.77202 3.61821
Si 8.69184 2.23863 3.47934
Si 6.07538 1.89031 1.79866
Si 8.73639 6.51814 1.9028
O 5.88073 5.56023 4.76659
O 8.54537 1.16594 4.71918
O 7.20835 2.33301 2.85817
O 9.80233 6.93696 3.06296
O 6.70769 0.584435 1.08241
O 9.28721 5.14508 1.28115
O 5.6752 3.07117 0.790627
O 8.72062 7.65966 0.799322
O 7.2522 6.41989 2.694
O 9.83271 1.80036 2.29834
O 6.49891 8.0767 4.44555
O 9.27622 3.43336 4.27938
Si 10.1327 4.36153 0.170642
Si 12.7408 17.4354 0.0119751
Si 11.1859 6.60196 3.83772
Si 13.7364 2.29689 3.78461
Si 11.3422 2.11604 1.86825
Si 13.6682 6.44334 1.90101
O 11.1137 5.24417 4.66604
O 13.401 1.16706 4.93651
O 12.2489 2.54699 3.10398
O 14.807 6.59596 3.04779
O 12.0065 0.795845 1.19317
O 14.0292 5.20237 1.05044
O 11.1217 3.3417 0.830973
O 13.7147 7.72618 0.901496
O 12.1987 6.44753 2.54554
O 14.7522 1.84927 2.66453
O 11.7462 7.82044 4.68002
O 14.3892 3.58801 4.55601
Si 0.281263 13.0078 -0.134129
Si 2.35077 8.73163 -0.0159446
Si 1.21676 15.3232 3.69313
Si 3.60549 10.9782 3.76336
Si 1.09192 10.8314 1.84414
Si 3.75751 15.1018 1.97424
O 0.901663 14.0981 4.69392
O 3.47306 9.77207 4.76312
O 2.20425 11.0898 2.97016
O 4.85094 15.4346 3.08956
O 1.48539 9.50601 1.07346
O 4.13881 13.7202 1.29702
O 1.18255 11.9903 0.700918
O 3.53046 16.2895 0.923874
O 2.33728 14.8727 2.61221
O 4.75556 10.6668 2.70852
O 1.92192 16.5923 4.34419
O 4.13452 12.3494 4.44794
Si 4.93669 13.0734 0.0787382
Si 7.6367 8.69718 0.100016
Si 6.33131 15.2234 3.71468
Si 8.65071 11.0049 3.67957
Si 6.16706 10.7027 1.91404
Si 8.75868 15.0523 1.7428
O 6.19346 13.9534 4.72942
O 8.42758 9.83978 4.71766
O 7.25582 11.311 2.89921
O 9.8942 15.4108 2.88621
O 6.76262 9.42599 1.1971
O 9.34973 13.7174 1.04278
O 5.82294 11.8157 0.740247
O 8.56893 16.3084 0.719076
O 7.3399 14.8972 2.5094
O 9.70896 10.5589 2.58373
O 6.87162 16.5142 4.49385
O 9.28953 12.2507 4.40466
Si 10.2206 13.0026 16.5137
Si 12.6879 8.57106 0.0740564
Si 11.3683 15.2593 3.5975
Si 13.6439 10.8913 3.65806
Si 11.1445 10.7043 1.8736
Si 13.9355 15.076 1.74576
O 11.2821 14.0444 4.52342
O 13.4816 9.66764 4.59847
O 12.2001 11.0863 3.00051
O 15.0148 15.5487 2.8634
O 11.7712 9.38884 1.22577
O 14.5376 13.8229 0.984133
O 11.0022 11.8027 0.673479
O 13.6144 16.2359 0.70952
O 12.4896 14.7963 2.50461
O 14.7738 10.8242 2.55704
O 11.8118 16.5383 4.46909
O 14.2217 12.1375 4.59183
Si 0.125204 4.39705 5.71047
Si 2.59275 17.3526 5.56882
Si 1.32015 6.6269 9.21286
Si 3.89755 2.36598 9.0339
Si 1.23947 1.94923 7.49114
Si 3.80754 6.2671 7.3374
O 0.845352 5.52825 10.2408
O 3.7186 1.22479 10.1875
O 2.45593 2.31429 8.42567
O 5.04068 6.75704 8.20446
O 1.68393 0.61215 6.67524
O 4.32473 4.99011 6.53462
O 0.945553 3.16636 6.45207
O 3.3975 7.4048 6.14241
O 2.56498 6.16198 8.32697
O 4.9238 1.82943 7.91841
O 1.74994 7.96499 10.1464
O 4.26117 3.71054 9.66734
Si 5.18427 4.31981 5.3642
Si 7.71519 17.4745 5.53416
Si 6.38938 6.55865 9.06009
Si 8.59083 2.36053 9.15692
Si 6.31965 2.13212 7.2148
Si 8.99576 6.49637 7.24657
O 6.23795 5.42043 10.1465
O 8.50854 1.18664 10.2511
O 7.21267 2.57004 8.44704
O 10.3023 6.81717 8.19726
O 6.79235 0.824586 6.50825
O 9.35755 5.14435 6.3901
O 6.20105 3.24327 6.05207
O 8.59781 7.62766 6.13215
O 7.67599 6.24851 8.08804
O 9.78713 2.02443 8.08025
O 6.705 7.84677 9.92751
O 9.22091 3.62147 9.84314
Si 10.1431 4.1852 5.37962
Si 12.5438 17.4346 5.62389
Si 11.4433 6.53304 9.215
Si 13.6378 2.39576 9.25299
Si 11.1882 2.08752 7.35532
Si 13.8874 6.55398 7.38075
O 11.1457 5.21688 10.0767
O 13.5007 1.24464 10.3785
O 12.3513 2.49915 8.37351
O 0.161082 6.99821 8.17934
O 11.5122 0.710826 6.62704
O 14.1959 5.17329 6.71824
O 10.9828 3.17953 6.20534
O 13.6682 7.601 6.19916
O 12.8297 6.42952 8.46124
O 14.841 2.01695 8.19425
O 11.6637 7.77839 10.2899
O 14.199 3.74874 9.8411
Si 0.127524 12.9825 5.49231
Si 2.62002 8.60273 5.44853
Si 1.39122 15.3875 9.26083
Si 3.73737 10.9545 9.25418
Si 1.26878 10.7284 7.28869
Si 3.83802 15.0142 7.34328
O 1.00886 14.3298 10.3411
O 3.49344 9.96565 10.428
O 2.54034 10.8934 8.21931
O 5.07356 15.4941 8.23713
O 1.6966 9.27293 6.52253
O 4.38222 13.6925 6.62678
O 1.04124 11.9932 6.33587
O 3.44285 16.1902 6.33613
O 2.44188 14.7457 8.19918
O 5.03937 10.5651 8.44744
O 2.01335 16.74 9.82746
O 4.20916 12.3926 9.93284
Si 5.17665 12.9673 5.42288
Si 7.59162 8.70538 5.54568
Si 6.44553 15.359 9.12388
Si 8.76405 10.9573 9.1688
Si 6.26355 10.7721 7.38643
Si 9.00929 15.2274 7.2607
O 6.17188 14.1413 10.1416
O 8.37092 9.68487 10.1623
O 7.535 11.2355 8.15461
O 10.1566 15.6261 8.2923
O 6.7168 9.40289 6.7017
O 9.68721 14.0191 6.5262
O 5.89638 11.7405 6.13737
O 8.69786 16.3923 6.19232
O 7.57399 15.0494 8.00802
O 9.94826 10.5577 8.1547
O 6.92237 16.6003 10.0518
O 9.21859 12.0953 10.1557
Si 10.2792 13.0683 5.41837
Si 12.7146 8.63645 5.52995
Si 11.4211 15.3106 9.20604
Si 13.794 11.0955 9.17674
Si 11.3053 10.86 7.36287
Si 13.9038 15.1764 7.33045
O 10.9328 14.1149 10.2482
O 13.4343 9.83871 10.1966
O 12.4357 11.3755 8.38627
O 15.0551 15.6023 8.48807
O 11.9582 9.59763 6.60708
O 14.4001 13.8401 6.66648
O 11.0954 11.9186 6.21639
O 13.6614 16.4449 6.3176
O 12.5859 15.0266 8.14804
O 14.9666 10.6626 8.10892
O 11.9791 16.5391 10.0789
O 14.3118 12.3507 9.99373
Si -0.0547151 4.45172 11.0086
Si 2.79124 0.195541 10.8921
Si 1.1833 6.66315 14.646
Si 3.75012 2.13689 14.6573
Si 1.19929 2.17148 12.7911
Si 3.72875 6.49525 12.8666
O 0.809374 5.49745 15.8297
O 3.6271 0.9079 15.5984
O 2.43383 2.43681 13.7892
O 4.87679 6.63842 14.069
O 1.67538 0.925216 11.8773
O 4.16507 5.47354 11.7486
O 0.710215 3.41778 11.9353
O 3.46346 7.84331 12.0907
O 2.40781 6.14939 13.7929
O 4.95906 1.88973 13.7323
O 1.46277 8.11265 15.3331
O 3.92621 3.50111 15.5311
Si 5.15079 4.49639 10.8769
Si 7.64191 0.0990211 11.0773
Si 6.27925 6.40336 14.7595
Si 8.73088 2.31803 14.8016
Si 6.26184 2.32832 12.8627
Si 8.80266 6.46383 12.8833
O 5.93369 5.11516 15.6874
O 8.39653 1.20087 15.7687
O 7.49883 2.55403 13.7944
O 9.92411 6.75464 13.9449
O 6.67424 1.04698 11.935
O 9.44199 5.33599 11.9034
O 5.8805 3.51526 11.8573
O 8.4411 7.61159 11.918
O 7.48872 6.10857 13.7266
O 10.0067 2.00618 13.9297
O 6.78863 7.69168 15.6028
O 9.15589 3.56401 15.7442
Si 10.1348 4.32692 10.9771
Si 12.7676 0.0260157 11.1396
Si 11.1919 6.53496 14.7884
Si 13.8881 2.16389 14.6574
Si 11.2214 2.06331 12.8636
Si 13.6756 6.52382 12.7939
O 11.0332 5.36086 15.8118
O 13.6256 1.00983 15.7381
O 12.5582 2.42761 13.7869
O 15.0414 6.57884 13.6689
O 11.6358 0.74855 12.0981
O 13.8807 5.30443 11.7855
O 10.9119 3.12434 11.714
O 13.4834 7.88946 12.0111
O 12.3869 6.35545 13.7897
O 15.0705 1.70605 13.6793
O 11.6844 7.81873 15.6612
O 14.2019 3.56942 15.4108
Si 0.141696 13.234 10.9985
Si 2.62651 8.84903 11.1708
Si 1.28792 15.3392 14.6915
Si 3.5986 11.0654 14.8019
Si 1.10385 10.9063 12.9209
Si 3.73306 15.3203 12.8008
O 1.21341 13.9775 15.531
O 3.3983 9.85222 15.8245
O 2.29041 11.2355 13.9459
O 4.86167 15.5567 13.923
O 1.56724 9.6273 12.1284
O 4.33329 14.1173 11.927
O 0.957104 12.1504 11.8662
O 3.52767 16.5259 11.7683
O 2.40691 15.0884 13.5537
O 4.71397 10.7097 13.7267
O 1.79105 16.5463 15.6558
O 4.04027 12.4524 15.4977
Si 5.24442 13.0794 10.9894
Si 7.46819 8.65868 11.0785
Si 6.2216 15.2461 14.7881
Si 8.64555 10.9297 14.7444
Si 6.04713 10.8093 12.943
Si 8.64888 15.2146 12.9347
O 5.81907 14.2006 15.874
O 8.4803 9.75045 15.751
O 7.11437 10.9896 14.1727
O 9.80788 15.3529 14.1265
O 6.53563 9.47077 12.0949
O 9.04329 14.1149 11.8783
O 6.03223 11.9766 11.8178
O 8.56303 16.562 11.995
O 7.26101 14.8372 13.6894
O 9.623 10.537 13.5164
O 6.92352 16.5344 15.4352
O 9.19399 12.2246 15.4486
Si 10.0167 13.1151 11.1047
Si 12.4942 8.81293 11.1076
Si 11.2825 15.3667 14.8182
Si 13.6548 10.9719 14.7812
Si 11.0665 10.8804 12.9898
Si 13.7857 15.2397 12.9807
O 11.168 14.1132 15.8797
O 13.4514 9.59309 15.6684
O 12.1493 11.1443 14.1226
O 14.9038 15.4473 14.0519
O 11.5757 9.72462 12.0513
O 14.2514 13.973 12.0342
O 10.9011 12.3406 12.2355
O 13.6654 16.4909 12.0091
O 12.3785 15.0753 13.7443
O 14.7926 10.7607 13.6595
O 11.6691 16.7764 15.5297
O 14.2185 12.214 15.6243
324
 Atoms. Timestep: 19000
Si 0.123551 4.28838 0.0412634
Si 2.57107 -0.0109977 0.0824646
Si 1.13792 6.62917 3.88156
Si 3.69218 2.15195 3.75552
Si 1.18997 2.09012 1.85054
Si 3.7089 6.40256 2.00377
O 0.897832 5.46964 4.93387
O 3.37827 0.999762 4.77126
O 2.32418 2.44646 2.92094
O 4.74583 6.83452 3.135
O 1.61123 0.660545 1.16171
O 4.33596 5.21499 1.19521
O 1.0317 3.18311 0.708446
O 3.42685 7.43193 0.849735
O 2.30977 6.22558 2.79036
O 4.81354 1.73603 2.61058
O 1.64193 7.87406 4.54494
O 4.34214 3.50975 4.38159
Si 5.03347 4.44452 16.5781
Si 7.62978 17.3386 16.5953
Si 6.19845 6.71842 3.64246
Si 8.70446 2.2898 3.61369
Si 6.19138 2.12482 1.81287
Si 8.77825 6.60238 1.78378
O 6.10976 5.41354 4.45131
O 8.54392 1.07124 4.70245
O 7.31552 2.5444 2.86248
O 9.78546 6.75825 2.985
O 6.73911 0.872423 1.036
O 9.08398 5.19573 1.05738
O 5.97075 3.26755 0.737422
O 8.70566 7.72078 0.705856
O 7.27951 6.60934 2.35073
O 9.95794 2.03987 2.63432
O 6.70704 8.04646 4.40633
O 9.18576 3.6607 4.34321
Si 10.1055 4.47334 0.103533
Si 12.6974 0.121189 0.00731748
Si 11.2509 6.71675 3.62837
Si 13.7561 2.20032 3.84822
Si 11.3562 2.2969 1.84147
Si 13.8302 6.45109 1.8311
O 10.9582 5.43663 4.67147
O 13.5936 0.989253 4.77854
O 12.4416 2.47548 2.99966
O 14.7901 6.75209 3.10035
O 11.8642 1.01076 1.04809
O 14.3877 5.2524 1.0205
O 11.0661 3.46402 0.798703
O 13.6514 7.61302 0.686486
O 12.3547 6.21189 2.56957
O 14.8794 1.99244 2.67883
O 11.7106 7.90279 4.46258
O 14.3929 3.43905 4.58587
Si 0.154399 12.9908 -0.0132634
Si 2.53171 8.48677 16.5595
Si 1.2312 15.3339 3.80879
Si 3.79088 10.8623 3.61533
Si 1.14401 10.6381 1.85448
Si 3.78158 15.1491 1.8876
O 0.812347 14.0896 4.67387
O 3.50837 9.67717 4.66918
O 2.40638 11.0942 2.78163
O 4.92448 15.2753 3.02803
O 1.65237 9.36731 1.00521
O 4.13367 13.9014 0.988894
O 0.746496 11.8534 0.883858
O 3.62179 16.4066 0.795947
O 2.42546 15.0557 2.75624
O 5.02319 10.4024 2.68433
O 1.6407 16.4771 4.80829
O 4.24328 12.0631 4.53526
Si 4.86336 12.9519 16.5503
Si 7.67613 8.70461 16.4445
Si 6.29828 15.0875 3.80951
Si 8.85926 10.8764 3.72645
Si 6.32743 10.7096 1.77776
Si 8.73922 15.1342 1.80835
O 6.29574 13.8082 4.76051
O 8.4864 9.79467 4.85191
O 7.57069 10.9865 2.79244
O 9.90828 15.4357 2.91157
O 6.69 9.40101 0.865119
O 9.3063 13.8998 0.909051
O 5.93721 11.8993 0.710644
O 8.46413 16.301 0.799278
O 7.39859 14.7966 2.66766
O 10.0239 10.3436 2.77168
O 6.7903 16.4254 4.58879
O 9.40393 12.2786 4.3461
Si 10.2534 13.0519 0.0173755
Si 12.7464 8.79843 -0.000575081
Si 11.3094 15.2439 3.58916
Si 13.848 10.8264 3.81042
Si 11.3331 10.7496 2.03834
Si 13.9375 15.2434 1.77507
O 11.1722 14.1707 4.72211
O 13.6514 9.65099 4.86011
O 12.415 11.0342 3.19638
O 14.9883 15.7225 2.90934
O 12.0507 9.5609 1.21549
O 14.5127 13.977 1.04218
O 10.9085 11.8808 0.892241
O 13.5986 16.4831 0.822687
O 12.446 14.8548 2.4486
O 14.9231 10.3262 2.75041
O 11.8678 16.6439 4.16919
O 14.2675 12.1571 4.57301
Si 0.0451457 4.31803 5.6671
Si 2.61704 17.3224 5.68774
Si 1.32048 6.58628 9.04367
Si 3.63553 2.27987 9.03794
Si 1.11241 1.99405 7.4542
Si 3.90148 6.48208 7.34478
O 0.756345 5.35377 9.979
O 3.65128 0.938552 9.87921
O 2.13166 2.56853 8.51451
O 5.05457 6.9648 8.39848
O 1.75482 0.721095 6.77646
O 4.42538 5.19576 6.4441
O 0.886932 3.1781 6.41083
O 3.37582 7.63733 6.39346
O 2.63081 6.05407 8.19101
O 4.63653 2.15076 7.76642
O 1.8816 7.70116 9.95953
O 4.42193 3.45442 9.87406
Si 5.20461 4.38582 5.3186
Si 7.56033 17.4721 5.54961
Si 6.42625 6.74238 9.15425
Si 8.77103 2.16838 9.06864
Si 6.12283 2.22182 7.19366
Si 8.95259 6.38752 7.35671
O 6.05114 5.39668 10.0367
O 8.60049 1.10383 10.243
O 7.35059 2.30989 8.33323
O 10.194 6.99114 8.0921
O 6.47788 0.854275 6.37461
O 9.32424 5.02354 6.69122
O 6.25192 3.50832 6.24175
O 8.43189 7.50769 6.216
O 7.68235 6.35626 8.29374
O 9.75337 1.72714 7.85444
O 6.84893 8.04333 9.94124
O 9.18018 3.5908 9.82438
Si 10.1165 4.32053 5.43148
Si 12.6794 17.3167 5.36323
Si 11.3871 6.76732 9.22871
Si 13.5268 2.26668 9.09456
Si 11.1921 1.92943 7.09632
Si 13.9473 6.498 7.48168
O 10.7346 5.64836 10.2054
O 13.1368 1.09721 10.1609
O 12.2637 2.43533 8.19364
O 0.130734 6.99997 8.09525
O 11.7709 0.644638 6.45759
O 14.2912 5.12883 6.70998
O 11.0231 3.23112 6.13021
O 13.4377 7.5721 6.41744
O 12.7608 6.39208 8.53464
O 14.7645 1.82136 8.19787
O 11.6501 8.0371 10.1064
O 14.0301 3.48647 9.99278
Si 0.145813 13.0117 5.55134
Si 2.60904 8.70723 5.56715
Si 1.28993 15.2602 9.20436
Si 3.73008 11.0631 9.26441
Si 1.26282 10.9134 7.42406
Si 3.83102 15.1139 7.43808
O 0.798201 14.0269 10.1731
O 3.51538 9.82534 10.4672
O 2.34543 11.3447 8.56702
O 5.02094 15.4494 8.51007
O 1.74733 9.65065 6.58112
O 4.34945 13.9556 6.40548
O 1.19987 12.0228 6.24869
O 3.59929 16.3594 6.41898
O 2.53701 14.7576 8.19839
O 4.82778 10.4639 8.35012
O 1.72443 16.5583 9.97159
O 4.28048 12.3512 9.89485
Si 5.14837 12.8846 5.52976
Si 7.54986 8.69622 5.53218
Si 6.42968 15.2853 9.26461
Si 8.73945 11.0568 9.33204
Si 6.19618 10.6493 7.55901
Si 8.82853 15.1749 7.26948
O 6.19878 13.9777 10.2441
O 8.52148 9.93634 10.4693
O 7.32935 11.0358 8.60671
O 10.0614 15.3214 8.24836
O 6.62404 9.37272 6.66888
O 9.22079 13.9887 6.25604
O 5.85715 11.784 6.48645
O 8.41228 16.4958 6.50596
O 7.60221 14.8795 8.20318
O 9.88433 10.7257 8.2376
O 6.82938 16.5036 10.1992
O 9.28769 12.4339 9.99484
Si 10.2226 13.0631 5.38273
Si 12.677 8.69959 5.5102
Si 11.3358 15.3957 9.22441
Si 13.7844 10.8886 9.21646
Si 11.2624 10.7005 7.34629
Si 13.8479 15.1019 7.25779
O 11.2371 14.1735 10.179
O 13.623 9.59785 10.1541
O 12.38 11.1995 8.39869
O 0.119514 15.5201 8.13223
O 11.6773 9.38521 6.6074
O 14.2774 13.6298 6.66073
O 11.0075 11.9031 6.16851
O 13.52 16.0554 6.0347
O 12.6114 15.237 8.22178
O 14.9219 10.7585 8.14229
O 11.3431 16.7158 10.1175
O 14.0684 12.0749 10.2181
Si 15.0254 4.35481 10.8976
Si 2.70379 0.0629896 10.9094
Si 1.22601 6.40345 14.628
Si 3.56698 2.43421 14.7215
Si 1.24865 2.26435 12.7075
Si 3.72194 6.48319 12.8278
O 1.04276 5.31362 15.7737
O 3.26579 1.21065 15.8476
O 2.34294 2.65533 13.8431
O 4.97919 6.73162 13.807
O 1.8217 1.0999 11.7395
O 4.16981 5.24723 11.835
O 0.886343 3.43841 11.7254
O 3.35442 7.74713 11.8969
O 2.42107 6.0594 13.6696
O 4.78408 2.05281 13.6694
O 1.59414 7.78352 15.3477
O 4.04462 3.75355 15.4918
Si 5.11038 4.43842 10.8604
Si 7.76632 0.0859437 11.1783
Si 6.33549 6.55416 14.641
Si 8.67572 2.32337 14.8008
Si 6.19688 2.23992 12.8453
Si 8.84403 6.45197 12.9034
O 5.98164 5.45513 15.7679
O 8.45974 0.981432 15.7848
O 7.37152 2.55141 13.9536
O 9.9895 7.07728 13.8793
O 6.65584 0.946437 12.057
O 9.24166 5.00947 12.1626
O 5.93099 3.54306 11.8853
O 8.34894 7.63138 11.8816
O 7.50669 6.02853 13.7529
O 10.006 2.15743 13.7813
O 6.74305 7.93901 15.4078
O 9.12619 3.56586 15.6881
Si 10.0438 4.4028 10.9088
Si 12.4165 0.0346658 11.0445
Si 11.1841 6.74898 14.8458
Si 13.8719 2.34418 14.518
Si 11.2715 2.24558 12.8177
Si 13.6342 6.28025 12.8115
O 10.7499 5.63669 15.8679
O 13.4271 1.16586 15.5701
O 12.5996 2.75432 13.6191
O 14.9935 6.35429 13.7461
O 11.7401 0.75164 12.2999
O 14.0158 5.12281 11.8025
O 10.9053 3.19166 11.5566
O 13.4649 7.65752 11.9735
O 12.4569 6.19031 13.9117
O 15.0318 1.94259 13.5469
O 11.7744 7.98669 15.6072
O 14.3738 3.48299 15.5321
Si 15.0267 13.0368 11.1866
Si 2.53825 8.7482 11.0578
Si 1.25032 15.3065 14.7659
Si 3.62486 10.7431 14.8213
Si 1.12435 10.7454 12.86
Si 3.60201 15.3057 12.836
O 1.11875 14.0145 15.7817
O 3.5216 9.47556 15.835
O 2.21802 10.7697 13.925
O 4.75405 15.4781 13.8972
O 1.3723 9.50149 11.8252
O 4.07627 14.0336 11.8795
O 0.978761 12.0895 12.0119
O 3.50917 16.5181 11.8597
O 2.22943 14.9245 13.5918
O 4.72875 10.4428 13.6989
O 1.71475 16.5946 15.5539
O 3.81912 12.0731 15.7041
Si 5.1321 13.1648 10.9783
Si 7.58385 8.74423 11.0926
Si 6.10318 15.2247 14.6568
Si 8.72365 11.0504 14.719
Si 6.13809 10.8551 12.9419
Si 8.82742 15.3034 12.9497
O 5.72287 13.8791 15.5983
O 8.51698 9.88571 15.7472
O 7.2918 11.2646 13.9284
O 9.86684 15.5331 14.1785
O 6.62985 9.54518 12.0575
O 9.32946 14.0034 12.0777
O 5.82615 12.0771 11.9552
O 8.75023 16.6301 11.9793
O 7.28984 15.1236 13.498
O 9.78722 10.6091 13.5515
O 6.61906 16.4172 15.673
O 9.35753 12.3401 15.3981
Si 10.2856 13.1836 11.0385
Si 12.6975 8.77171 11.1635
Si 11.3374 15.3533 14.9094
Si 13.6876 11.0927 14.7127
Si 11.1614 10.9506 12.8908
Si 13.6836 15.2651 12.9203
O 11.2208 14.1049 15.8754
O 13.5732 9.85135 15.7497
O 12.2764 11.2872 14.0216
O 14.8936 15.6234 13.996
O 11.895 9.69805 12.1168
O 14.2015 13.9368 12.2466
O 11.0674 12.0083 11.729
O 13.4258 16.3104 11.7167
O 12.3649 15.0986 13.738
O 14.8086 10.6604 13.6667
O 11.7165 16.6564 15.6288
O 14.1412 12.3385 15.555
324
 Atoms. Timestep: 19500
Si 0.299626 4.16503 0.0598025
Si 2.49441 0.0466212 -0.00334345
Si 1.11745 6.57835 3.72423
Si 3.90407 2.27821 3.62377
Si 1.35475 1.99694 1.96998
Si 3.69268 6.35206 1.86858
O 0.83728 5.52575 4.86227
O 3.94213 1.09462 4.82923
O 2.35131 2.32743 3.18502
O 4.83028 6.86782 2.89663
O 1.88613 0.707951 1.29315
O 4.21109 5.0063 1.15686
O 1.25357 3.17782 0.871456
O 3.39897 7.50729 0.747201
O 2.34986 6.13479 2.79282
O 4.87208 1.85868 2.45514
O 1.52793 7.88708 4.59628
O 4.2995 3.68838 4.36001
Si 5.11786 4.32251 0.0677588
Si 7.69366 17.3252 16.4921
Si 6.24078 6.72697 3.76148
Si 8.75502 2.19152 3.74315
Si 6.3153 1.95799 1.63349
Si 8.59921 6.51358 1.68853
O 6.10977 5.42873 4.6869
O 8.46456 1.07646 4.84514
O 7.3409 2.3788 2.85789
O 9.91554 6.74936 2.6021
O 6.78547 0.643232 1.00497
O 8.97978 5.12624 0.877032
O 5.98643 3.24102 0.701277
O 8.55018 7.69902 0.523262
O 7.31684 6.62534 2.58667
O 9.87564 1.79354 2.72706
O 6.51933 8.01115 4.73073
O 9.21511 3.44356 4.54204
Si 10.0553 4.34701 -0.0215836
Si 12.557 -0.0304215 16.5023
Si 11.2045 6.575 3.51043
Si 13.7471 2.18905 3.66012
Si 11.2415 2.04609 1.79741
Si 13.8354 6.2757 1.6709
O 11.0236 5.29712 4.46024
O 13.3975 1.23396 4.85048
O 12.5107 2.35393 2.69769
O 14.9559 6.75889 2.70736
O 11.5577 0.703268 1.01123
O 14.4256 4.82762 1.12299
O 10.864 3.32227 0.938833
O 13.5068 7.38122 0.495703
O 12.4443 6.25478 2.46954
O 15.0253 1.72483 2.57306
O 11.5952 7.87767 4.39214
O 14.0882 3.64357 4.34197
Si 0.122709 13.2356 0.0878162
Si 2.67396 8.68569 0.0454465
Si 1.27478 15.6008 3.6118
Si 3.73468 10.8813 3.71257
Si 1.25519 10.9117 1.8407
Si 3.67174 15.1713 1.66325
O 1.10786 14.2882 4.61669
O 3.32655 9.70388 4.65892
O 2.51376 11.3025 2.83246
O 4.78735 15.7307 2.76099
O 1.77232 9.54712 1.13894
O 4.10409 13.7316 1.10059
O 1.00687 12.0822 0.859797
O 3.44031 16.1885 0.48957
O 2.23106 15.1426 2.44151
O 4.94484 10.4973 2.70594
O 1.90293 16.7699 4.41094
O 4.24351 12.0445 4.6255
Si 5.08368 12.9896 0.0472603
Si 7.64633 8.81543 16.4736
Si 6.10588 15.4366 3.62769
Si 8.81169 10.9606 3.65823
Si 6.23942 10.8111 1.86315
Si 8.67315 15.0228 1.87409
O 5.843 14.1615 4.59423
O 8.51473 9.6657 4.58249
O 7.43581 11.2846 2.84052
O 9.79148 15.5675 2.9676
O 6.72388 9.63002 1.01751
O 9.34159 13.744 1.20294
O 5.92391 12.0343 0.860328
O 8.49661 16.17 0.787641
O 7.29883 14.9724 2.60359
O 9.94054 10.4828 2.54269
O 6.61162 16.7181 4.34244
O 9.35947 12.2107 4.47285
Si 10.2659 13.0309 16.5661
Si 12.5889 8.53097 16.3196
Si 11.2714 15.4114 3.72835
Si 13.8665 10.9959 3.6571
Si 11.3056 10.7155 1.72442
Si 13.7898 15.4385 1.91675
O 10.9245 14.1784 4.75055
O 13.5497 9.81331 4.67497
O 12.4307 11.0337 2.86175
O 14.8797 15.8002 2.97832
O 11.8363 9.37815 0.953252
O 14.3573 14.2487 0.975447
O 11.2616 11.8328 0.648352
O 13.5625 16.569 0.770159
O 12.3867 15.0876 2.6076
O 15.0082 10.5953 2.61549
O 11.8585 16.6257 4.50645
O 14.4257 12.2639 4.40212
Si 14.9776 4.42977 5.47976
Si 2.90904 0.0492402 5.47591
Si 1.23224 6.72397 9.08573
Si 3.65174 2.38265 9.20653
Si 1.21234 2.09308 7.23459
Si 3.84778 6.45338 7.47764
O 0.979923 5.53085 10.1186
O 3.25989 1.29444 10.3293
O 2.39155 2.71373 8.24217
O 4.96799 6.8822 8.40979
O 1.92852 0.807461 6.53005
O 4.36148 5.22093 6.58993
O 0.751544 3.28027 6.2114
O 3.37482 7.7079 6.48076
O 2.48667 6.15484 8.20592
O 4.67164 1.75207 8.1416
O 1.68309 8.02964 9.89422
O 4.3055 3.62478 9.94467
Si 5.19285 4.36411 5.52032
Si 7.54204 17.376 5.45952
Si 6.32867 6.68103 9.21209
Si 8.69511 2.07696 9.27484
Si 6.12442 1.94674 7.37653
Si 8.88518 6.47699 7.31105
O 6.02076 5.44159 10.2009
O 8.5689 1.00313 10.4778
O 7.23227 2.1625 8.50429
O 10.1013 6.92026 8.28516
O 6.57293 0.664604 6.6031
O 9.26237 5.24638 6.42549
O 5.89327 3.10663 6.26875
O 8.57126 7.5529 6.19625
O 7.51269 6.21982 8.24077
O 9.79611 1.78147 8.22855
O 6.75867 7.92366 10.1488
O 9.36517 3.42953 9.86743
Si 10.0758 4.3457 5.4418
Si 12.5762 0.0650968 5.5808
Si 11.3497 6.62481 9.29321
Si 13.8577 2.16183 9.22773
Si 11.1408 2.07004 7.42122
Si 13.7131 6.61126 7.26699
O 11.0293 5.3998 10.3659
O 13.7759 1.01015 10.3164
O 12.3455 2.35095 8.49701
O -0.00760121 6.78614 8.11262
O 11.5642 0.797796 6.55128
O 13.9729 5.33533 6.31859
O 10.9875 3.23618 6.35955
O 13.3606 7.80589 6.28672
O 12.5759 6.35827 8.32199
O 14.9993 1.75282 8.11361
O 11.7895 7.90203 10.2236
O 14.3943 3.51499 9.93278
Si 0.126195 13.1738 5.44898
Si 2.49153 8.7388 5.54519
Si 1.2596 15.3733 9.29232
Si 3.67157 11.057 9.21366
Si 1.16931 10.8744 7.48975
Si 3.9469 15.2298 7.43926
O 0.989407 14.1469 10.345
O 3.58371 9.85959 10.2681
O 2.20333 11.2908 8.6086
O 5.03379 15.7427 8.48167
O 1.58489 9.58254 6.68621
O 4.35312 13.8345 6.71085
O 0.915062 12.1303 6.49823
O 3.76257 16.2807 6.22639
O 2.51958 15.1042 8.30608
O 4.78872 10.6666 8.1156
O 1.65511 16.6929 10.1038
O 4.21449 12.3935 9.95892
Si 5.18242 13.0595 5.51013
Si 7.71614 8.72053 5.57714
Si 6.3727 15.3485 9.34201
Si 8.52577 11.01 9.26369
Si 6.19292 10.8528 7.40005
Si 8.68686 15.1442 7.35378
O 6.07812 14.2173 10.4083
O 8.50728 9.74582 10.2407
O 7.131 11.3046 8.65779
O 9.98176 15.5369 8.23677
O 6.96616 9.62331 6.73511
O 9.08521 13.7724 6.60675
O 6.02905 12.0241 6.32061
O 8.27774 16.2624 6.30667
O 7.41237 14.9685 8.27835
O 9.57787 10.6074 8.03682
O 6.86375 16.6374 10.0329
O 9.15763 12.2728 10.0528
Si 10.1665 13.1083 5.57198
Si 12.5304 8.78148 5.41803
Si 11.3272 15.3637 9.04271
Si 13.6405 10.8652 9.14062
Si 11.087 10.8107 7.3655
Si 13.9005 15.1914 7.3072
O 11.048 14.1316 10.1189
O 13.6358 9.63264 10.1429
O 12.2173 11.0227 8.53796
O 14.9212 15.5119 8.47492
O 11.4992 9.60086 6.36194
O 14.2076 13.9957 6.35806
O 11.1535 12.1286 6.42903
O 13.6255 16.5611 6.41678
O 12.4288 15.0945 7.96714
O 14.8125 10.656 8.13268
O 11.8635 16.6738 9.91129
O 14.1491 12.2552 9.98564
Si 0.344697 4.37071 10.8757
Si 2.61681 0.0369238 11.1149
Si 1.20678 6.60732 14.8199
Si 3.66127 2.3729 14.7787
Si 1.20713 2.15009 12.8697
Si 3.70253 6.45617 12.9504
O 1.05592 5.4317 15.865
O 3.33802 1.26199 15.913
O 2.27327 2.47161 13.9915
O 4.88655 6.9471 13.9514
O 1.63052 0.731765 12.1606
O 4.29126 5.17933 12.1027
O 1.19215 3.2366 11.7464
O 3.30607 7.50834 11.8255
O 2.39374 6.11813 13.7963
O 4.72737 1.86233 13.6246
O 1.6679 8.02495 15.5046
O 4.31478 3.6046 15.3463
Si 5.15514 4.3868 11.0609
Si 7.62455 0.0141196 11.1485
Si 6.16874 6.6044 14.814
Si 8.67518 2.20586 14.6342
Si 6.19837 2.17309 12.8956
Si 8.65952 6.16676 12.9575
O 5.87622 5.49331 15.9229
O 8.57727 1.00218 15.7883
O 7.24098 2.3535 14.0626
O 9.93524 6.52372 13.8286
O 6.64553 0.866249 12.0357
O 8.96956 4.94726 12.0841
O 6.11968 3.42568 11.9773
O 8.49714 7.51372 11.9793
O 7.37326 6.11279 13.8292
O 9.67606 1.61469 13.4888
O 6.6741 7.99259 15.3875
O 9.26214 3.52293 15.3945
Si 10.0393 4.28838 11.0143
Si 12.7519 17.4099 11.0774
Si 11.3413 6.4551 14.6347
Si 13.6523 2.34769 14.6779
Si 11.1474 2.04217 12.8077
Si 13.8916 6.24375 12.9128
O 11.0822 5.33253 15.7949
O 13.3415 1.20554 15.7661
O 12.1435 2.49134 13.9587
O 14.8645 6.69217 14.0415
O 11.7874 0.889983 11.9548
O 14.4767 5.01181 12.0222
O 10.8734 3.36098 11.9605
O 13.616 7.54906 11.9288
O 12.4776 5.94686 13.6045
O 14.8001 2.13017 13.4687
O 11.6184 7.82659 15.2623
O 14.3155 3.50495 15.5001
Si 0.00243821 13.0113 11.0299
Si 2.67164 8.76941 11.0567
Si 1.19607 15.4237 14.6789
Si 3.70285 10.9239 14.732
Si 1.14486 10.748 12.8407
Si 3.76449 15.1655 12.8177
O 1.0739 14.165 15.7186
O 3.51005 9.77743 15.8234
O 2.37645 11.1404 13.936
O 4.85968 15.4475 13.9557
O 1.74543 9.49352 12.1231
O 4.18607 13.8486 12.0813
O 0.851496 11.8874 11.7659
O 3.61279 16.4199 11.7596
O 2.33504 15.0936 13.5795
O 4.96818 10.602 13.7874
O 1.36769 16.8081 15.4837
O 4.21995 12.2665 15.4592
Si 5.14794 13.0278 11.0886
Si 7.71406 8.71145 11.1864
Si 6.25704 15.2086 14.6949
Si 8.87094 10.951 14.5529
Si 6.31151 10.8088 13.0009
Si 8.70184 15.0515 12.9121
O 5.99615 14.1417 15.8616
O 8.5692 9.79869 15.6716
O 7.39444 11.2432 14.0567
O 9.8943 15.3645 13.8846
O 6.93118 9.61838 12.2967
O 9.31917 13.774 12.1661
O 6.05728 11.9328 11.8547
O 8.39389 16.2801 11.9744
O 7.33677 14.6639 13.6105
O 9.91427 10.5845 13.5014
O 6.74574 16.5559 15.4114
O 9.55621 12.2885 15.3762
Si 10.211 13.0751 10.9757
Si 12.8292 8.73335 11.1835
Si 11.2905 15.2366 14.6889
Si 13.7674 11.0075 14.8914
Si 11.3593 10.9049 12.8835
Si 13.7812 15.1247 12.9596
O 11.031 14.3037 15.9615
O 13.4851 9.69318 15.6708
O 12.3936 11.3679 14.0628
O 14.9011 15.5499 13.969
O 12.0124 9.66416 12.1746
O 14.2542 13.818 12.0889
O 11.1416 11.9613 11.7542
O 13.4315 16.3037 11.9352
O 12.4404 14.7528 13.7203
O 14.9154 10.664 13.7407
O 11.8323 16.6067 15.4143
O 14.2283 12.337 15.7305
324
 Atoms. Timestep: 20000
Si -0.0391968 4.37907 16.3978
Si 2.64371 17.35 16.4615
Si 1.27019 6.81688 3.58196
Si 3.74231 2.2519 3.58744
Si 1.18479 2.22134 1.7133
Si 3.87073 6.56076 1.85667
O 0.87116 5.60021 4.55505
O 3.32094 1.00403 4.45069
O 2.46035 2.65972 2.7375
O 5.02096 6.78627 2.91924
O 1.81816 0.849246 0.999615
O 4.34327 5.26038 1.09269
O 0.851111 3.27124 0.619106
O 3.78607 7.83838 0.807554
O 2.33301 6.44068 2.42777
O 4.95346 1.97369 2.4807
O 1.8826 8.11815 4.27124
O 4.39076 3.41813 4.32612
Si 5.21276 4.43006 -0.0259157
Si 7.80721 0.000820017 16.5337
Si 6.37628 6.49642 3.74784
Si 8.84476 2.27592 3.70358
Si 6.38862 2.21362 1.77002
Si 8.78102 6.36071 1.90021
O 6.09219 5.41985 4.9242
O 8.44733 1.2553 4.89192
O 7.50211 2.64617 2.89038
O 9.93886 6.74115 3.01086
O 6.96384 0.900603 0.986793
O 9.237 5.13937 1.04454
O 6.15907 3.40914 0.732572
O 8.55729 7.58907 0.95289
O 7.4034 6.01453 2.72026
O 9.91299 1.65093 2.6626
O 6.96765 7.84247 4.32364
O 9.42659 3.59584 4.47473
Si 10.1627 4.21797 -0.0745412
Si 12.7552 17.2656 16.4669
Si 11.3571 6.55611 3.7986
Si 13.786 2.22237 3.61044
Si 11.2421 1.79702 1.75033
Si 13.7594 6.48834 1.94668
O 11.1177 5.4735 4.90385
O 13.4062 1.00604 4.64866
O 12.3698 2.37542 2.82269
O 14.9129 7.02233 2.91472
O 11.7763 0.430856 1.06678
O 14.3271 5.29419 0.967204
O 10.8184 2.95323 0.646475
O 13.4611 7.64192 0.939048
O 12.4161 6.14303 2.68405
O 14.9961 1.9774 2.65034
O 11.8328 7.98557 4.46151
O 14.3004 3.59188 4.34671
Si 0.144042 13.105 0.178253
Si 2.7188 8.7858 0.0395802
Si 1.1403 15.3752 3.5435
Si 3.8267 11.0713 3.68157
Si 1.289 10.8363 1.92369
Si 3.67522 15.1043 1.71245
O 0.838422 14.0912 4.46432
O 3.64915 9.87677 4.73457
O 2.41366 11.3996 2.95832
O 4.82055 15.5394 2.82508
O 1.82399 9.54568 1.1231
O 4.24694 13.738 1.14422
O 1.10509 12.1197 0.920345
O 3.4931 16.1701 0.510715
O 2.32251 15.0851 2.45061
O 4.94736 10.7973 2.59137
O 1.58707 16.6203 4.40381
O 4.32842 12.3714 4.55096
Si 5.2277 13.0741 -0.0505535
Si 7.7051 8.66573 0.149289
Si 6.20447 15.3927 3.66235
Si 8.84768 11.0821 3.6912
Si 6.32733 11.0155 1.82069
Si 8.75756 15.1587 1.8705
O 6.156 14.3169 4.90105
O 8.65529 9.79995 4.6692
O 7.47192 11.3619 2.96081
O 9.78279 15.5125 3.10115
O 6.85786 9.56991 1.16861
O 9.43256 13.809 1.29004
O 6.16372 12.1176 0.715015
O 8.70592 16.3748 0.751498
O 7.34266 14.9896 2.63173
O 9.82539 10.7276 2.55578
O 6.65785 16.7552 4.38007
O 9.4033 12.332 4.49202
Si 10.1067 13.0832 0.00681939
Si 12.6663 8.61653 16.5358
Si 11.193 15.3532 3.78238
Si 13.7151 11.0321 3.58287
Si 11.176 10.6638 1.72137
Si 13.6579 15.0628 1.79141
O 11.203 14.224 4.97795
O 13.6175 9.80106 4.72673
O 12.3204 11.1199 2.74301
O 14.8481 15.6421 2.71187
O 11.6102 9.38455 0.881159
O 14.208 13.6485 1.26761
O 10.8684 11.8212 0.568329
O 13.6171 16.1139 0.596985
O 12.3154 14.9698 2.68356
O 14.9733 10.7037 2.67427
O 11.5694 16.7301 4.49028
O 14.0049 12.3741 4.53587
Si 15.0612 4.48257 5.34944
Si 2.43991 0.0891096 5.38104
Si 1.09175 6.5495 9.31091
Si 3.58575 2.17593 9.21285
Si 1.17454 2.22824 7.23812
Si 3.53291 6.35755 7.32467
O 1.15501 5.38005 10.3642
O 3.31055 0.996494 10.2625
O 2.38465 2.4907 8.22855
O 4.73157 6.67622 8.43032
O 1.4975 0.963556 6.34543
O 4.15265 5.05224 6.55071
O 0.931372 3.49871 6.22913
O 3.53571 7.60386 6.26041
O 2.1161 6.2784 8.12831
O 4.84147 1.86489 8.29351
O 1.65637 7.91988 10.1401
O 4.00367 3.50692 10.142
Si 5.18121 4.1971 5.53055
Si 7.47656 0.0577863 5.5198
Si 6.12847 6.54094 9.22019
Si 8.80319 2.26723 9.37388
Si 6.18271 2.03431 7.4874
Si 8.67935 6.55716 7.50028
O 5.80187 5.45052 10.2633
O 8.53715 1.11126 10.4768
O 7.44112 2.23484 8.45614
O 9.90183 6.79615 8.54258
O 6.48519 0.659963 6.62527
O 9.22848 5.21878 6.61887
O 5.90102 3.16326 6.43517
O 8.34005 7.73866 6.54563
O 7.29655 6.0912 8.18583
O 10.0604 1.95474 8.40775
O 6.63316 7.83816 10.0054
O 9.17927 3.61062 10.1182
Si 10.1228 4.42529 5.64871
Si 12.5421 0.0283189 5.56411
Si 11.22 6.48763 9.3006
Si 13.9056 2.34775 9.22081
Si 11.3602 2.17701 7.54487
Si 13.6729 6.3702 7.40339
O 11.057 5.42709 10.3738
O 13.7173 1.10372 10.2725
O 12.5263 2.5391 8.58733
O 14.7301 6.68683 8.63989
O 11.7937 0.88209 6.62859
O 14.0414 5.15976 6.44416
O 10.9046 3.34917 6.53635
O 13.6942 7.6288 6.38231
O 12.2686 6.20584 8.13561
O 14.9049 1.98365 8.04862
O 11.7853 7.82153 10.0717
O 14.3471 3.6317 10.0061
Si 0.0892499 13.0473 5.42345
Si 2.7519 8.76029 5.43544
Si 0.944916 15.418 9.30356
Si 3.59765 11.0435 9.00904
Si 1.10084 10.752 7.22146
Si 3.51229 15.3737 7.35483
O 0.737263 14.1202 10.2145
O 3.32685 9.87692 10.0615
O 2.30717 11.16 8.13419
O 4.71656 15.5264 8.46633
O 1.70854 9.38353 6.49025
O 4.06154 14.1534 6.48828
O 0.87174 11.8057 6.01902
O 3.26514 16.5415 6.32521
O 2.0843 15.1718 8.17259
O 4.97728 10.7132 8.21411
O 1.5821 16.5877 10.1136
O 3.90841 12.325 9.98349
Si 5.11903 13.3253 5.57795
Si 7.69957 8.80988 5.48036
Si 6.11491 15.2788 9.16457
Si 8.81634 10.8711 9.16303
Si 6.23776 10.9571 7.29175
Si 8.70521 15.1202 7.35613
O 5.89174 14.1697 10.282
O 8.58916 9.67345 10.1666
O 7.48922 11.0115 8.27713
O 9.85514 15.5601 8.37648
O 6.63483 9.72205 6.31136
O 9.22297 13.7706 6.6197
O 5.97788 12.2829 6.47003
O 8.44465 16.3751 6.29405
O 7.32946 14.9246 8.13877
O 10.0112 10.405 8.18647
O 6.6678 16.552 10.0117
O 9.35417 12.1745 9.90093
Si 10.2558 13.0833 5.66237
Si 12.8355 8.6267 5.5206
Si 11.189 15.3471 9.15321
Si 13.7756 10.7479 9.17872
Si 11.3325 10.7105 7.4066
Si 13.755 15.1347 7.28173
O 10.9662 14.1344 10.2429
O 13.5025 9.70676 10.3116
O 12.4203 11.0925 8.4533
O 14.671 15.6494 8.43981
O 11.9098 9.44027 6.55191
O 14.5433 13.9358 6.60488
O 11.0142 11.8902 6.44404
O 13.5267 16.3065 6.14233
O 12.2893 14.8498 8.03939
O 14.882 10.3102 8.08433
O 11.8051 16.6423 9.91215
O 14.3351 12.0796 9.92892
Si 0.187753 4.31671 11.1395
Si 2.53503 17.3319 11.1209
Si 1.2457 6.61345 14.7069
Si 3.71354 2.27066 14.7279
Si 1.17348 1.95868 12.9551
Si 3.732 6.56544 12.8901
O 1.02114 5.30985 15.675
O 3.58357 1.01747 15.7466
O 2.38449 2.52707 13.8694
O 4.75988 7.03144 13.9239
O 1.60461 0.649474 12.2148
O 4.28241 5.13161 12.2964
O 0.881718 3.15677 11.8776
O 3.47009 7.61509 11.7989
O 2.34751 6.20276 13.6364
O 4.87586 2.00575 13.6535
O 1.93234 7.84029 15.5308
O 4.20421 3.53976 15.6184
Si 4.97217 4.30268 11.1573
Si 7.59658 17.2643 11.072
Si 6.19437 6.6932 14.6652
Si 8.7263 2.30816 14.6391
Si 6.15223 2.02464 12.7718
Si 8.8356 6.5658 12.8838
O 5.95742 5.43553 15.6053
O 8.56277 1.17364 15.6743
O 7.34975 2.50425 13.7089
O 9.89048 6.91451 14.0345
O 6.53686 0.641986 12.0704
O 9.40665 5.22897 12.2349
O 5.99223 3.21805 11.6795
O 8.53664 7.69027 11.7659
O 7.36448 6.40797 13.5824
O 9.80035 1.83095 13.6113
O 6.72727 7.88952 15.691
O 9.17105 3.64532 15.3897
Si 10.1657 4.37564 11.1491
Si 12.765 17.3793 10.9853
Si 11.241 6.51313 14.7452
Si 13.6678 2.22341 14.7096
Si 11.2075 2.00732 12.8757
Si 13.7237 6.40729 12.9876
O 11.0275 5.31404 15.7429
O 13.5555 1.12476 15.8926
O 12.2107 2.25538 14.0303
O 14.929 6.81268 14.01
O 11.7915 0.724146 12.0587
O 14.2981 5.23122 12.0991
O 11.0437 3.23189 11.8569
O 13.5944 7.67866 12.0531
O 12.3781 6.17019 13.712
O 14.8804 1.8911 13.8362
O 11.8643 7.80129 15.4966
O 14.0477 3.66645 15.3789
Si 0.0779954 12.8972 10.946
Si 2.60637 8.74638 11.0156
Si 1.10912 15.3239 14.7243
Si 3.76376 11.1055 14.6452
Si 1.35122 10.8415 12.8998
Si 3.70083 15.0191 12.9519
O 0.837133 14.2525 15.8279
O 3.49563 9.87859 15.6513
O 2.41083 11.4691 13.9636
O 4.79099 15.4613 14.0567
O 1.88789 9.55609 12.171
O 4.19485 13.7226 12.249
O 1.08219 11.8873 11.7086
O 3.43884 16.2312 11.9179
O 2.32431 14.989 13.7178
O 4.90578 10.6288 13.5303
O 1.55986 16.7048 15.4964
O 4.39976 12.2635 15.4719
Si 4.90977 13.1229 11.029
Si 7.69518 8.67367 10.9808
Si 6.24472 15.371 14.7201
Si 8.80395 11.0611 14.7879
Si 6.31497 10.8028 12.7805
Si 8.77221 14.9646 12.9294
O 6.13041 14.2646 15.83
O 8.4667 9.85362 15.9147
O 7.45598 11.1929 13.9363
O 9.90766 15.5775 13.9904
O 6.81692 9.54335 11.9692
O 9.39426 13.6803 12.1459
O 5.92759 11.9507 11.6349
O 8.43882 16.0596 11.8107
O 7.35701 14.8416 13.7174
O 10.1126 10.6363 13.9767
O 6.87325 16.6948 15.3954
O 9.0558 12.551 15.4679
Si 10.231 12.9748 11.0312
Si 12.6845 8.6306 11.1386
Si 11.2905 15.2336 14.5932
Si 13.9778 10.9656 14.7573
Si 11.45 10.8569 12.9601
Si 13.7772 14.9567 12.7972
O 11.0653 14.0825 15.7279
O 13.6225 9.74419 15.8012
O 12.6154 11.3017 13.9592
O 14.8791 15.451 13.8314
O 11.889 9.51795 12.2499
O 14.4186 13.6683 12.1265
O 11.1563 11.8945 11.7668
O 13.4313 16.0888 11.6659
O 12.3774 14.7185 13.5481
O 0.0185511 10.5908 13.7324
O 11.9482 16.5608 15.2527
O 14.5093 12.2327 15.5694
324
 Atoms. Timestep: 20500
Si 0.106424 4.4744 16.4082
Si 2.64959 17.3432 0.0356169
Si 1.36421 6.59864 3.64588
Si 3.54981 2.3571 3.67196
Si 1.22895 2.11571 1.67872
Si 3.79804 6.3935 1.81055
O 1.09407 5.61693 4.87482
O 3.09939 1.18578 4.64358
O 2.40517 2.5995 2.60855
O 4.97217 6.73463 2.8635
O 1.62151 0.766204 0.956059
O 4.46073 5.10007 1.06894
O 0.872607 3.29593 0.680657
O 3.49719 7.49111 0.724568
O 2.46774 6.14988 2.57044
O 4.91978 2.00958 2.84928
O 1.94998 7.95323 4.24394
O 3.97732 3.64816 4.60972
Si 5.37743 4.37568 0.0242917
Si 7.51775 0.176266 16.5499
Si 6.31414 6.60312 3.72513
Si 8.84518 2.38112 3.70237
Si 6.23982 2.12682 1.98363
Si 8.84009 6.31442 1.92661
O 5.84612 5.37458 4.70757
O 8.70566 1.15422 4.76275
O 7.46009 2.37901 2.97724
O 10.0448 6.65552 2.95913
O 6.57656 0.866976 1.10222
O 9.29081 5.0321 1.10376
O 6.37035 3.37297 0.926044
O 8.61517 7.587 0.970505
O 7.50239 6.19423 2.79204
O 10.0953 2.23717 2.66792
O 6.69494 8.00354 4.55002
O 9.12455 3.68315 4.53921
Si 10.2391 4.38227 -0.00636489
Si 12.4943 17.3168 0.177885
Si 11.4333 6.55638 3.70037
Si 14.0088 2.31413 3.75415
Si 11.4029 2.29026 1.95894
Si 13.8979 6.60276 1.85536
O 11.1662 5.37368 4.85093
O 13.6421 1.20956 4.85094
O 12.6361 2.57389 2.92216
O 15.0822 6.87901 2.91912
O 11.7078 0.931544 1.06527
O 14.4666 5.47444 0.87524
O 11.3143 3.49367 0.834468
O 13.4059 7.82114 0.94791
O 12.5986 6.11131 2.72074
O 14.9722 1.85977 2.62419
O 11.9816 7.85754 4.41741
O 14.5672 3.68031 4.42063
Si 0.0500014 12.9255 16.5165
Si 2.61487 8.69325 0.1285
Si 1.14751 15.0163 3.75641
Si 3.7456 11.0058 3.67627
Si 1.18711 10.8487 1.94535
Si 3.73032 15.0878 2.0111
O 0.877509 14.0724 5.01537
O 3.63757 9.82568 4.71104
O 2.22987 11.1503 3.06965
O 4.7846 15.7663 3.06068
O 1.77379 9.53547 1.19801
O 4.43832 13.8755 1.16138
O 0.943253 11.9374 0.793987
O 3.27174 16.1459 0.874803
O 2.45245 14.5835 2.89384
O 4.79944 10.5443 2.60053
O 1.54614 16.5054 4.35434
O 4.17277 12.3688 4.32043
Si 5.20567 12.9799 0.0271241
Si 7.69173 8.63711 0.0984132
Si 6.18833 15.4832 3.76213
Si 8.78217 10.9891 3.81772
Si 6.27014 10.7096 1.95527
Si 8.67706 15.3553 1.83691
O 6.05705 14.1854 4.67197
O 8.54466 9.96791 4.92766
O 7.33735 11.1446 3.08842
O 9.86708 15.687 2.81445
O 6.89545 9.47732 1.16911
O 9.03396 14.0152 0.904966
O 6.0778 11.8668 0.87284
O 8.34883 16.4999 0.769312
O 7.26067 15.2699 2.61866
O 9.84535 10.5152 2.71217
O 6.76243 16.7682 4.55863
O 9.48005 12.3077 4.41233
Si 10.0375 13.1364 -0.0761601
Si 12.7775 8.92869 16.609
Si 11.2349 15.4763 3.65886
Si 13.7528 10.9396 3.67758
Si 11.1393 10.9492 1.91603
Si 13.6523 14.8972 1.87207
O 10.8665 14.4805 4.81907
O 13.759 9.75579 4.70016
O 12.3522 11.1218 3.04485
O 14.9875 15.1576 2.73559
O 11.7789 9.88226 0.893465
O 14.0733 13.6813 0.912995
O 10.7806 12.2863 1.05427
O 13.3756 16.1105 0.854439
O 12.3896 14.72 2.787
O 14.7376 10.5841 2.44483
O 11.9587 16.7885 4.19828
O 14.4238 12.2032 4.34147
Si 0.253424 4.51372 5.5784
Si 2.33486 -0.055125 5.41584
Si 1.11868 6.46142 9.18343
Si 3.69243 2.14153 9.3112
Si 1.10684 2.0319 7.37806
Si 3.57967 6.47762 7.3531
O 1.00147 5.24305 10.2434
O 3.47725 1.02542 10.4707
O 2.28729 2.05714 8.49565
O 4.70919 6.92589 8.41191
O 1.39364 0.675078 6.53068
O 4.23781 5.14013 6.73831
O 1.07889 3.3419 6.42983
O 3.523 7.59535 6.1833
O 2.17602 6.22002 8.04423
O 4.96807 1.84912 8.29716
O 1.6629 7.70203 10.0851
O 4.04012 3.45498 10.0861
Si 5.04098 4.44141 5.56097
Si 7.84636 0.0746566 5.57445
Si 6.10066 6.47689 9.08591
Si 8.70037 2.33273 9.08883
Si 6.23778 2.2146 7.38675
Si 8.56203 6.47299 7.4285
O 5.82581 5.27254 10.1861
O 8.24684 1.1983 10.0969
O 7.40862 2.81657 8.35374
O 9.63242 6.62451 8.60275
O 6.92555 0.88359 6.65274
O 9.23944 5.34946 6.54108
O 5.95442 3.27921 6.22405
O 8.41737 7.79476 6.49681
O 7.15269 6.1523 7.92754
O 9.83341 1.78864 8.10162
O 6.77753 7.70639 9.95599
O 9.42975 3.49548 9.96572
Si 10.1461 4.39298 5.49422
Si 12.694 0.0813477 5.47386
Si 11.1676 6.57872 9.02717
Si 13.7056 2.30274 9.26497
Si 11.2906 2.14762 7.3637
Si 13.6704 6.47242 7.35225
O 11.1523 5.45335 10.2044
O 13.5169 0.951204 10.0867
O 12.3664 2.53246 8.46584
O 14.7854 6.64875 8.45018
O 11.774 0.847 6.59914
O 14.3291 5.23682 6.58065
O 11.0568 3.37988 6.28373
O 13.6239 7.71196 6.3656
O 12.1612 6.17069 7.84147
O 14.8536 1.98792 8.17421
O 11.5737 7.96824 9.65105
O 14.2137 3.44529 10.3233
Si 15.0088 12.9672 5.62946
Si 2.71196 8.67642 5.37162
Si 1.06576 15.2322 9.11596
Si 3.80016 10.9599 9.18323
Si 1.289 10.6448 7.3218
Si 3.61147 15.3585 7.21839
O 1.27624 14.0929 10.1757
O 3.51925 9.66328 10.1214
O 2.43964 11.2546 8.28315
O 4.62501 15.6452 8.44978
O 1.81165 9.49088 6.37663
O 4.08977 13.9614 6.45324
O 0.678692 11.9451 6.53025
O 3.44888 16.4907 6.14625
O 2.16656 15.2206 7.87206
O 4.94221 10.7723 8.09617
O 1.39584 16.6366 9.98233
O 4.11666 12.2586 10.0791
Si 5.0461 13.1296 5.40286
Si 7.58797 8.78835 5.55843
Si 6.06409 15.4203 9.10601
Si 8.7834 10.9805 9.06666
Si 6.28308 10.9237 7.29991
Si 8.56806 15.1352 7.3186
O 5.8999 14.1166 10.0839
O 8.4004 9.73711 10.0653
O 7.50236 11.2555 8.20171
O 9.60937 15.3775 8.47113
O 6.6419 9.58213 6.55187
O 9.14717 13.8622 6.60498
O 5.91078 12.1018 6.25692
O 8.6408 16.3392 6.32535
O 7.1827 15.0201 8.072
O 10.03 10.5536 8.08947
O 6.49609 16.6766 9.99786
O 9.18689 12.2644 9.94776
Si 10.1748 13.171 5.56443
Si 12.7684 8.70824 5.4647
Si 11.0727 15.3518 9.20507
Si 13.9866 10.8924 9.14433
Si 11.4071 10.8765 7.23431
Si 13.5163 15.1028 7.28465
O 10.8951 14.1997 10.326
O 13.4518 9.71266 10.1264
O 12.631 11.2468 8.24321
O 14.6481 15.0799 8.55311
O 11.8455 9.62888 6.44063
O 13.9485 13.7242 6.50037
O 11.1083 12.1154 6.23917
O 13.4913 16.3079 6.25583
O 12.1271 15.0629 8.01891
O 0.167073 10.2761 8.43722
O 11.6374 16.6117 9.93234
O 14.4282 12.1779 9.91474
Si 0.165744 4.3087 11.2456
Si 2.42527 17.3555 11.0894
Si 1.18508 6.78532 14.621
Si 3.80808 2.23123 14.8677
Si 1.24736 2.03072 13.0806
Si 3.76092 6.44704 12.8921
O 0.915677 5.44068 15.5073
O 3.65745 1.04364 15.8904
O 2.40112 2.36265 14.0715
O 4.98906 6.81384 13.8449
O 1.66252 0.81917 12.1758
O 4.17745 5.06647 12.2311
O 0.995247 3.29581 12.1133
O 3.4952 7.60998 11.8413
O 2.28149 6.35199 13.6484
O 4.93269 1.80922 13.8671
O 1.64122 7.99184 15.5836
O 4.44953 3.59232 15.613
Si 5.04909 4.30116 11.1616
Si 7.52709 17.4407 10.958
Si 6.28764 6.62913 14.659
Si 8.77879 2.26489 14.6475
Si 6.19485 1.94588 12.9584
Si 8.89552 6.42467 12.7937
O 6.18145 5.39618 15.66
O 8.51408 1.20835 15.8016
O 7.39421 2.39706 13.9044
O 9.99503 6.84147 13.8252
O 6.75806 0.636325 12.2061
O 9.47899 5.11026 12.0398
O 5.9438 3.15628 11.8867
O 8.50209 7.52029 11.6503
O 7.47425 6.38506 13.6141
O 10.0031 1.9049 13.6029
O 6.8178 7.83167 15.5946
O 9.39343 3.51126 15.5095
Si 10.3455 4.32023 11.0044
Si 12.6808 17.3692 10.8984
Si 11.3015 6.79628 14.8047
Si 13.7591 2.11269 14.8434
Si 11.3216 2.05186 12.7862
Si 13.768 6.53705 12.8626
O 10.9944 5.5726 15.8077
O 13.4484 0.880224 15.8161
O 12.5598 2.38326 13.897
O 14.956 7.23365 13.7809
O 11.7305 0.709823 12.0331
O 14.3607 5.20325 12.2119
O 11.2413 3.212 11.7133
O 13.3233 7.56446 11.6596
O 12.4524 6.40165 13.734
O 15.0016 1.79848 13.8443
O 11.8863 8.06185 15.5778
O 14.1715 3.53877 15.5679
Si 0.335323 13.0487 11.0228
Si 2.62054 8.622 10.9342
Si 1.2915 15.1567 14.7386
Si 3.78042 10.8953 14.8156
Si 1.35194 10.6954 12.8699
Si 3.7008 15.1081 12.9783
O 0.887459 14.1916 15.9553
O 3.59956 9.75863 15.9764
O 2.32991 11.084 14.033
O 4.77519 15.6667 14.0126
O 1.80311 9.48135 12.026
O 4.38953 13.9135 12.1566
O 1.14367 11.9186 11.7685
O 3.23216 16.2247 11.9105
O 2.41769 14.5495 13.7956
O 4.87369 10.5305 13.7219
O 1.91979 16.6021 15.3325
O 4.32881 12.1763 15.6
Si 5.13878 13.0571 11.0235
Si 7.65247 8.63469 10.8761
Si 6.18295 15.373 14.761
Si 8.80339 10.8282 14.7588
Si 6.28943 10.6676 12.8358
Si 8.59276 15.1187 12.7427
O 6.05031 14.1131 15.8328
O 8.53577 9.57247 15.6827
O 7.3996 11.1139 13.9369
O 9.82893 15.4775 13.7117
O 6.78182 9.4497 11.9673
O 9.00091 13.7368 12.1751
O 6.06778 12.0332 11.8839
O 8.44755 16.2466 11.5261
O 7.18321 15.1609 13.5078
O 10.0544 10.481 13.7126
O 6.60353 16.6818 15.5759
O 9.3111 12.1126 15.4834
Si 9.98577 13.0607 11.0795
Si 12.4785 8.65551 10.8097
Si 11.1941 15.4017 14.6507
Si 13.8328 10.9076 14.5418
Si 11.2518 10.7668 12.8057
Si 13.9163 15.2044 12.8043
O 10.9439 14.1528 15.6175
O 13.7658 9.83216 15.7702
O 12.5005 10.9879 13.7541
O 15.106 15.5272 13.8495
O 11.6026 9.44878 11.8476
O 14.4853 13.8487 12.1098
O 10.7598 12.0482 11.9629
O 13.6818 16.3406 11.7222
O 12.5032 15.1174 13.6302
O 15.02 10.4538 13.5828
O 11.469 16.5805 15.655
O 14.3878 12.196 15.3091
324
 Atoms. Timestep: 21000
Si 0.115986 4.28492 16.4571
Si 2.55092 17.4255 16.5413
Si 1.29369 6.60314 3.71982
Si 3.60452 2.26971 3.73549
Si 1.1905 2.15376 1.73979
Si 3.75959 6.41489 1.83599
O 0.938696 5.38086 4.67369
O 3.50232 1.17709 4.86694
O 2.2017 2.47648 2.89675
O 5.0819 6.78451 2.7523
O 1.71619 0.887209 0.928127
O 4.15303 5.18928 0.954895
O 1.15129 3.34608 0.607965
O 3.40548 7.64138 0.878264
O 2.4955 6.19785 2.76391
O 4.77429 1.78022 2.7372
O 1.72993 7.87334 4.5781
O 4.17659 3.58896 4.56344
Si 5.122 4.31661 0.00486038
Si 7.64818 0.109496 0.00305541
Si 6.24112 6.52616 3.77174
Si 8.7612 2.21722 3.64145
Si 6.17652 1.97594 2.00873
Si 8.63674 6.35265 1.81239
O 5.92506 5.49794 4.85668
O 8.7817 0.950018 4.65399
O 7.32431 2.39307 2.93974
O 9.86103 6.9139 2.7832
O 6.63311 0.592809 1.26249
O 9.27718 5.12351 0.994372
O 5.94722 3.16494 0.842158
O 8.25004 7.54113 0.819191
O 7.40982 5.95801 2.70291
O 9.76618 1.76409 2.48449
O 6.71962 7.81728 4.50277
O 9.2113 3.48388 4.52096
Si 10.2588 4.35643 0.0986329
Si 12.879 17.4026 0.0205594
Si 11.1408 6.71766 3.73129
Si 13.7195 2.38985 3.64612
Si 11.2676 2.04798 1.88807
Si 13.7887 6.49072 1.80558
O 10.793 5.54397 4.67698
O 13.5592 1.08797 4.67694
O 12.166 2.55079 3.15515
O -0.037181 6.79409 2.78562
O 12.0115 0.870375 1.13543
O 14.326 5.18421 0.93957
O 11.0691 3.19368 0.819941
O 13.561 7.68121 0.776948
O 12.3954 6.40367 2.6723
O 14.859 2.03669 2.46323
O 11.6023 7.97574 4.50812
O 14.3084 3.53412 4.52239
Si 15.0305 13.0533 16.3707
Si 2.56566 8.69229 16.4939
Si 1.28246 15.4281 3.72951
Si 3.6772 11.0629 3.52623
Si 1.14616 10.8969 1.64662
Si 3.83638 15.178 1.94063
O 0.805286 14.382 4.87768
O 3.50627 9.85769 4.63526
O 2.31651 11.2697 2.74586
O 4.98146 15.4911 2.91781
O 1.57123 9.55458 0.829591
O 4.2578 13.8929 0.99553
O 0.90138 11.988 0.577374
O 3.35631 16.2649 0.849687
O 2.51996 14.8323 2.90739
O 4.77131 10.6154 2.4792
O 1.79654 16.7473 4.3681
O 4.26144 12.3304 4.25045
Si 5.10172 13.0813 -0.0895784
Si 7.53361 8.61588 16.4587
Si 6.38193 15.4635 3.70245
Si 8.59357 11.0089 3.64572
Si 6.17323 10.7559 1.70061
Si 8.8766 15.379 1.84086
O 6.02137 14.3128 4.86718
O 8.46261 9.73412 4.72262
O 7.29586 10.9746 2.77566
O 10.2178 15.7895 2.55923
O 6.62247 9.5647 0.824796
O 9.27564 13.8977 1.23562
O 5.93383 12.0121 0.752476
O 8.66653 16.4236 0.698348
O 7.62374 15.1859 2.72716
O 9.93522 10.7981 2.67488
O 6.8203 16.7133 4.52378
O 8.82161 12.2829 4.61968
Si 10.0765 13.168 0.141716
Si 12.7594 8.82421 -0.0282516
Si 11.2908 15.2333 3.58837
Si 13.8316 11.007 3.7004
Si 11.2914 10.8873 1.86067
Si 13.9087 14.9986 1.87833
O 10.6749 14.0902 4.53041
O 13.5899 9.70096 4.69383
O 12.4544 11.2056 2.90976
O 15.2098 15.4916 2.67024
O 11.7789 9.53205 1.09617
O 14.2479 13.6746 1.07579
O 11.1115 12.0251 0.728383
O 13.4952 16.302 0.956727
O 12.5449 14.7446 2.74096
O 14.937 10.6837 2.58006
O 11.6946 16.6052 4.45957
O 14.2317 12.2925 4.60987
Si 0.10971 4.31568 5.65412
Si 2.64235 17.4592 5.55721
Si 1.13561 6.64463 9.28306
Si 3.90507 2.08307 9.15851
Si 1.31402 2.00681 7.43107
Si 3.62086 6.58401 7.39165
O 0.675507 5.38158 10.1747
O 3.81935 0.969225 10.2876
O 2.4688 2.17329 8.4845
O 4.81492 6.86714 8.50198
O 1.63036 0.698977 6.58536
O 4.05382 5.35715 6.52125
O 1.16293 3.32027 6.4326
O 3.64591 7.78776 6.33824
O 2.2575 6.32231 8.11153
O 4.86606 1.78152 7.98671
O 1.73503 7.76565 10.0872
O 4.45311 3.44244 9.82653
Si 5.03327 4.43885 5.61224
Si 7.81125 0.0424937 5.52097
Si 6.18916 6.66163 9.16655
Si 8.74258 2.25741 9.06286
Si 6.28433 2.21155 7.28013
Si 8.70909 6.44688 7.37029
O 5.93267 5.44613 10.2128
O 8.46347 0.896119 9.97535
O 7.34656 2.67453 8.39218
O 9.76938 6.74648 8.45288
O 6.89754 1.01761 6.46493
O 9.06282 5.11687 6.55693
O 5.89752 3.43873 6.3983
O 8.60233 7.63922 6.23718
O 7.19565 6.24479 8.03142
O 9.81418 1.96334 7.89921
O 6.60709 7.93157 10.021
O 9.27989 3.44848 9.97872
Si 10.0394 4.36542 5.56786
Si 12.6173 0.0229388 5.47285
Si 11.2384 6.4655 9.25217
Si 13.7822 2.13507 9.28491
Si 11.2608 2.17433 7.29898
Si 13.7227 6.46857 7.45214
O 11.0569 5.24877 10.2725
O 13.4252 0.933406 10.336
O 12.328 2.36021 8.45084
O 14.8085 6.92135 8.52666
O 11.7356 0.895756 6.46845
O 14.3126 5.17189 6.66694
O 11.0675 3.3878 6.36962
O 13.4492 7.63782 6.31121
O 12.3278 6.14386 8.04461
O 14.8951 1.9005 8.12987
O 11.7113 7.75228 10.0156
O 14.3161 3.38548 10.1015
Si 0.146328 13.1259 5.63043
Si 2.72792 8.81084 5.53725
Si 1.06936 15.3145 9.3363
Si 3.82884 10.8852 9.20606
Si 1.29911 10.9253 7.4553
Si 3.52536 15.0299 7.39376
O 0.839886 14.2378 10.5194
O 3.47713 9.62464 10.0837
O 2.49022 11.3152 8.46485
O 4.70194 15.4069 8.38773
O 1.90982 9.60705 6.74285
O 4.22699 13.7361 6.55207
O 1.09793 12.0738 6.40911
O 3.34548 16.1872 6.23729
O 2.12243 14.7751 8.13362
O 4.9337 10.6915 8.13449
O 1.83752 16.707 9.69747
O 4.51899 11.935 10.1734
Si 5.08558 13.0351 5.38972
Si 7.61814 8.65294 5.54737
Si 6.08488 15.2494 9.19157
Si 8.73177 10.9991 9.17675
Si 6.27678 10.8691 7.29197
Si 8.64747 15.0952 7.38377
O 5.928 14.1068 10.3189
O 8.31897 9.80308 10.1102
O 7.41304 11.375 8.33048
O 9.78805 15.4624 8.49602
O 6.75441 9.46714 6.65081
O 9.16031 13.763 6.68013
O 6.06338 11.8817 6.08037
O 8.52026 16.2205 6.22843
O 7.21235 15.0113 8.09857
O 10.0846 10.6913 8.30139
O 6.60914 16.5084 10.0127
O 9.2134 12.3146 10.0598
Si 9.90336 13.0531 5.46683
Si 12.6538 8.7543 5.4702
Si 11.1326 15.2512 9.22956
Si 13.7723 11.1285 9.19767
Si 11.356 10.9232 7.2956
Si 13.7288 15.2541 7.39037
O 11.0788 14.0453 10.3164
O 13.2779 9.90644 10.1596
O 12.558 11.3942 8.2312
O 14.7848 15.6475 8.58419
O 11.9257 9.61743 6.5959
O 14.1867 13.8734 6.75978
O 10.9642 11.9778 6.15632
O 13.5731 16.3295 6.20701
O 12.2716 15.0538 8.02238
O 15.0057 10.7354 8.22558
O 11.5767 16.5211 10.1228
O 14.1158 12.415 10.073
Si 0.0352823 4.27805 11.1206
Si 2.7504 17.3089 10.9005
Si 1.27642 6.62711 14.5223
Si 3.82376 2.19081 14.6885
Si 1.28052 2.00501 12.7417
Si 3.83525 6.36476 12.7241
O 1.02823 5.4442 15.5924
O 3.60067 0.892432 15.7246
O 2.44787 2.26154 13.8885
O 5.09072 6.54729 13.6968
O 1.67093 0.707543 11.8177
O 3.98263 5.08266 11.7773
O 1.09623 3.33192 11.9088
O 3.68305 7.71419 11.8755
O 2.49943 6.14982 13.4595
O 5.00891 1.85107 13.6485
O 1.77221 7.8357 15.3814
O 4.2576 3.47337 15.4534
Si 5.11952 4.34103 10.9196
Si 7.6699 17.3597 10.9142
Si 6.37957 6.46413 14.6551
Si 8.70514 2.40405 14.8
Si 6.38272 2.14232 12.8678
Si 8.86899 6.4595 12.895
O 5.96447 5.40485 15.8036
O 8.2412 1.37732 15.9902
O 7.47573 2.71627 13.9144
O 9.95886 6.96197 14.0523
O 6.97738 0.889163 12.0549
O 9.2832 5.21122 12.0557
O 5.9339 3.30692 11.8453
O 8.59942 7.61746 11.8111
O 7.59295 6.1728 13.7228
O 9.77138 1.68759 13.8694
O 6.6634 7.85502 15.3563
O 9.42163 3.59757 15.5236
Si 10.1446 4.21437 11.0695
Si 12.5166 17.3172 11.1403
Si 11.3432 6.72323 14.8064
Si 13.8474 2.14749 14.7018
Si 11.1672 2.01583 13.0429
Si 13.7335 6.42651 12.8169
O 11.2143 5.45287 15.8857
O 13.731 1.01229 15.7964
O 12.3654 2.24171 14.0111
O 15.0226 6.91984 13.7149
O 11.6053 0.801297 12.0465
O 14.1167 5.01626 12.104
O 10.984 3.26419 12.0518
O 13.3662 7.60912 11.7502
O 12.4422 6.23391 13.7268
O 14.9783 1.80754 13.5781
O 11.8479 8.04139 15.465
O 14.2403 3.5396 15.3825
Si 0.0764232 13.0112 11.0913
Si 2.71187 8.69307 11.0434
Si 1.23596 15.3639 14.6636
Si 3.7804 10.8431 14.6502
Si 1.3293 10.7901 12.8341
Si 3.80193 15.1288 12.8307
O 0.873497 14.1482 15.6293
O 3.53733 9.67415 15.6823
O 2.40432 11.0897 13.9352
O 4.98107 15.7487 13.7576
O 1.89724 9.5515 12.0264
O 4.25396 13.7281 12.1684
O 1.02384 11.9509 11.7394
O 3.32623 16.013 11.5907
O 2.51376 15.0593 13.777
O 4.84633 10.6326 13.4876
O 1.58364 16.742 15.4084
O 4.26689 12.1465 15.433
Si 5.25245 12.9972 11.1009
Si 7.62733 8.70698 11.0472
Si 6.22125 15.407 14.7096
Si 8.68307 10.9917 14.959
Si 6.37304 10.8122 12.9584
Si 8.85508 15.2892 12.9557
O 5.85621 14.2515 15.7257
O 8.60771 9.75245 15.9358
O 7.31568 11.2033 14.1684
O 9.89904 15.8252 14.0371
O 6.77443 9.51974 12.1647
O 9.31442 13.9188 12.262
O 6.27147 12.0837 12.0121
O 8.62055 16.3794 11.7908
O 7.50337 15.1449 13.7674
O 9.73657 10.5867 13.7906
O 6.78088 16.7083 15.5315
O 9.21858 12.3044 15.6665
Si 10.1047 13.1074 11.168
Si 12.5157 8.76454 10.9975
Si 11.2086 15.5057 14.9026
Si 13.776 10.9666 14.6612
Si 11.1807 10.6281 12.9177
Si 13.6784 15.0338 13.0334
O 10.8901 14.359 16.0553
O 13.6529 9.90698 15.8354
O 12.4666 10.9526 13.7635
O 14.8707 15.5412 13.9621
O 11.5727 9.41034 12.1078
O 14.2171 13.7296 12.2487
O 10.813 11.8376 11.9902
O 13.285 16.1343 11.8909
O 12.2833 14.8718 13.826
O 15.0647 10.5149 13.6577
O 11.9393 16.7063 15.5658
O 14.0986 12.3828 15.2696
324
 Atoms. Timestep: 21500
Si 0.294351 4.38643 0.155345
Si 2.53721 0.231584 -0.0808589
Si 1.08693 6.51015 3.75955
Si 3.70464 2.20297 3.84168
Si 1.11089 2.13368 2.04995
Si 3.59901 6.39865 1.83226
O 1.01105 5.21944 4.77462
O 3.4965 0.920336 4.84067
O 2.3363 2.33165 3.09112
O 4.85435 6.76843 2.82672
O 1.75093 0.955495 1.17257
O 3.95842 5.08332 1.05214
O 1.11651 3.48222 1.13582
O 3.50629 7.66297 0.718438
O 2.3124 6.43555 2.74832
O 4.90159 1.83902 2.79606
O 1.34995 7.7419 4.802
O 4.22381 3.3735 4.71275
Si 5.00136 4.40621 0.100439
Si 7.66998 17.3732 -0.0232238
Si 6.21233 6.62273 3.67652
Si 8.80174 2.20949 3.46166
Si 6.16588 2.0156 1.81932
Si 8.72155 6.46026 1.80359
O 5.94952 5.40632 4.69563
O 8.4252 1.01518 4.52355
O 7.44096 2.4143 2.69328
O 9.69319 6.97687 2.88046
O 6.62421 0.68865 1.00262
O 9.28548 5.2863 0.916947
O 5.84755 3.28723 0.789484
O 8.32407 7.62871 0.718292
O 7.34878 6.03817 2.55764
O 9.82941 1.794 2.36424
O 6.64748 7.89921 4.51447
O 9.50351 3.39515 4.31931
Si 10.1846 4.428 16.4185
Si 12.7981 0.0017378 0.0406398
Si 11.1585 6.8134 3.57678
Si 13.5726 2.25133 3.68079
Si 11.2949 2.19163 1.71439
Si 13.6992 6.34207 1.80744
O 10.8069 5.66711 4.69734
O 13.3413 1.1489 4.76953
O 12.2237 2.6017 2.96979
O 14.812 6.58327 2.93908
O 12.0091 0.892453 1.12968
O 14.2668 5.02735 1.07546
O 11.1333 3.36447 0.66696
O 13.6773 7.58873 0.778274
O 12.2489 6.21626 2.47932
O 14.7318 1.9092 2.57815
O 11.9432 8.05787 4.25292
O 14.1307 3.54581 4.44954
Si 0.207901 13.0629 16.5126
Si 2.67618 8.73653 16.5198
Si 1.28031 15.3602 3.63783
Si 3.6029 11.0383 3.73625
Si 1.25085 10.7403 1.87815
Si 3.86154 15.316 1.63649
O 1.232 14.1173 4.61681
O 3.12007 9.76125 4.62322
O 2.28231 11.3393 2.89782
O 5.08613 15.5863 2.61492
O 1.7226 9.41898 1.15914
O 4.19504 13.9823 0.878328
O 0.902957 11.8451 0.711037
O 3.59967 16.5786 0.589665
O 2.47705 15.1625 2.48237
O 4.83127 10.7073 2.66778
O 1.79577 16.5518 4.52447
O 4.11065 12.1047 4.76142
Si 5.18046 13.2062 16.3985
Si 7.53543 8.63033 16.4063
Si 6.21448 15.3093 3.64928
Si 8.78984 10.9351 3.51236
Si 6.11338 10.7344 1.74388
Si 8.79222 15.047 1.87804
O 5.90023 14.036 4.72017
O 8.6068 9.7335 4.59221
O 7.40091 11.0189 2.69235
O 9.99769 15.5158 2.88776
O 6.5689 9.40219 0.885315
O 9.22225 13.7538 1.06957
O 5.89909 11.879 0.573247
O 8.4124 16.2461 0.866043
O 7.46176 14.7549 2.78421
O 10.0094 10.7216 2.48511
O 6.57677 16.6793 4.4312
O 9.21297 12.2148 4.31765
Si 10.2234 12.9846 0.00407895
Si 12.8323 8.64933 -0.0188602
Si 11.3344 15.2196 3.67194
Si 13.9003 10.9908 3.76076
Si 11.5111 10.8094 1.8342
Si 13.8585 15.2007 1.8351
O 11.1018 13.9187 4.57681
O 13.5958 10.0055 4.92617
O 12.4891 11.178 2.97081
O 14.9136 15.581 3.01299
O 11.8412 9.39464 1.12633
O 14.5149 14.015 0.982065
O 11.4081 12.0438 0.826838
O 13.6414 16.3012 0.746327
O 12.5153 14.8897 2.62422
O 14.9844 10.4331 2.68144
O 11.7977 16.4291 4.61292
O 14.4542 12.3644 4.34689
Si -0.00306736 4.22899 5.5082
Si 2.66034 17.272 5.70672
Si 1.07259 6.74985 9.07644
Si 3.78869 2.44509 9.11067
Si 1.20511 2.0141 7.42353
Si 3.73222 6.70764 7.41715
O 0.901885 5.43548 9.93203
O 3.35067 1.25994 10.1702
O 2.42758 2.73998 8.23271
O 5.04826 7.09638 8.28272
O 1.80091 0.715563 6.72193
O 4.14214 5.32989 6.62485
O 0.743652 2.9914 6.17209
O 3.4023 7.82106 6.32318
O 2.37513 6.55696 8.23214
O 4.83643 1.81876 8.05827
O 1.4506 7.95947 10.082
O 4.44787 3.62413 9.86105
Si 5.07864 4.43697 5.69306
Si 7.5463 -0.0171185 5.43459
Si 6.37592 6.74266 9.13418
Si 8.80599 2.28047 9.16152
Si 6.23275 2.10642 7.40173
Si 8.82717 6.42206 7.13842
O 6.08788 5.59621 10.2083
O 8.6941 1.04438 10.224
O 7.28295 2.33002 8.59912
O 10.0188 6.59518 8.31277
O 6.75371 0.919876 6.44747
O 9.20278 4.97226 6.45777
O 6.07467 3.50169 6.62942
O 8.69216 7.57537 6.09387
O 7.46163 6.33373 7.98877
O 9.78025 2.04525 7.96645
O 6.8431 8.05959 9.94417
O 9.28322 3.48533 10.1019
Si 10.2151 4.37066 5.42362
Si 12.5879 17.4109 5.61457
Si 11.2721 6.43449 9.25456
Si 13.7574 2.21214 9.27728
Si 11.2252 2.19449 7.2913
Si 13.7115 6.47281 7.29179
O 11.0652 5.29739 10.231
O 13.3475 1.09895 10.35
O 12.3943 2.38569 8.45096
O 14.8702 7.11548 8.25615
O 11.5574 0.773867 6.54898
O 14.2783 5.1484 6.56354
O 11.2187 3.43709 6.32798
O 13.3539 7.61456 6.27868
O 12.4333 6.14304 8.27256
O 14.9597 1.80326 8.27181
O 11.7251 7.73804 10.1048
O 14.1942 3.6056 9.91279
Si 0.241345 13.2027 5.41653
Si 2.38095 8.73823 5.57157
Si 1.25283 15.196 9.28921
Si 3.72464 10.8438 9.22622
Si 1.07181 10.89 7.48959
Si 3.8326 15.0528 7.54564
O 0.928952 14.0123 10.3811
O 3.48065 9.73471 10.3632
O 2.24522 11.0836 8.60603
O 4.81287 15.4115 8.73159
O 1.52496 9.64731 6.59113
O 4.27735 13.7056 6.81965
O 0.822596 12.0645 6.42714
O 3.49107 16.159 6.45771
O 2.37516 14.6907 8.25671
O 4.82667 10.5138 8.07685
O 1.74476 16.5857 9.97942
O 4.31448 12.208 9.95277
Si 5.09334 12.9576 5.65849
Si 7.76289 8.73712 5.43672
Si 6.34119 15.2126 9.28071
Si 8.82397 10.9194 9.38269
Si 6.33095 10.7036 7.39966
Si 8.63515 15.0235 7.26366
O 6.05951 14.2009 10.4135
O 8.62594 9.86418 10.511
O 7.44662 11.1184 8.5369
O 9.90507 15.2809 8.27868
O 7.00038 9.48151 6.58587
O 9.07837 13.8964 6.23992
O 6.01219 11.886 6.35957
O 8.35491 16.3091 6.30396
O 7.35078 14.829 8.12642
O 9.87436 10.5196 8.23885
O 6.88463 16.5748 9.9456
O 9.24759 12.2785 10.1101
Si 10.1039 13.0665 5.38974
Si 12.6579 8.80731 5.52346
Si 11.2915 15.2414 9.14985
Si 13.6261 10.9969 9.20966
Si 11.157 10.8419 7.30967
Si 13.8366 15.1818 7.38211
O 11.1085 14.1105 10.288
O 13.402 9.81868 10.2932
O 12.3615 11.1269 8.35243
O 14.9581 15.299 8.47706
O 11.5664 9.50023 6.45837
O 14.3823 14.1105 6.34781
O 10.8252 11.9835 6.25866
O 13.6416 16.5998 6.57814
O 12.4383 14.8809 8.14885
O 14.7625 10.5403 8.15162
O 11.6969 16.556 9.96447
O 14.0204 12.3773 10.025
Si 0.10159 4.42924 10.8413
Si 2.71823 0.0733208 10.9659
Si 1.20894 6.70429 14.746
Si 3.73028 2.40706 14.6124
Si 1.21115 2.16141 12.717
Si 3.60124 6.27848 12.822
O 0.894757 5.63655 15.9149
O 3.30697 1.29482 15.7205
O 2.42575 2.71162 13.7114
O 4.84167 6.62946 13.7481
O 1.83574 0.792909 12.1373
O 4.11827 5.04878 11.9635
O 0.86992 3.14599 11.5045
O 3.23145 7.56123 11.876
O 2.30948 5.91706 13.7719
O 4.91484 1.9725 13.5999
O 1.8202 8.05636 15.3478
O 4.16492 3.58712 15.4974
Si 5.22173 4.36687 10.9826
Si 7.73269 17.3708 11.0401
Si 6.12705 6.49598 14.6626
Si 8.74319 2.20402 14.7105
Si 6.27135 2.00727 12.8498
Si 8.72006 6.43036 12.9155
O 5.88067 5.45489 15.8312
O 8.64367 0.990713 15.7506
O 7.38458 2.38624 13.916
O 9.87117 6.96912 13.9387
O 6.84432 0.703527 12.0749
O 9.47764 5.13029 12.251
O 6.11256 3.25692 11.8155
O 8.47437 7.46602 11.7675
O 7.31088 6.14916 13.566
O 9.9869 2.01173 13.7619
O 6.59613 7.86983 15.3122
O 9.09127 3.56683 15.6061
Si 10.2733 4.29809 11.1425
Si 12.5038 17.2994 11.1424
Si 11.3195 6.67908 14.6159
Si 13.9904 2.3558 14.7703
Si 11.4255 2.03343 13.0816
Si 13.8963 6.46204 12.8206
O 10.9523 5.42136 15.4786
O 13.7138 1.09318 15.7201
O 12.5539 2.59489 14.0066
O 14.9185 6.82781 13.9319
O 11.6727 0.599376 12.3535
O 14.538 5.32571 11.9958
O 11.1308 3.16066 11.8558
O 13.6657 7.68311 11.7469
O 12.4786 6.30195 13.5068
O 14.9606 2.02185 13.5993
O 11.9016 7.85423 15.5249
O 14.6642 3.47175 15.6067
Si 14.9461 13.0231 11.1342
Si 2.45765 8.66731 11.1122
Si 1.15825 15.4928 14.7385
Si 3.62436 11.1315 14.7091
Si 1.16769 10.8873 12.9542
Si 3.68887 15.2625 12.9032
O 1.01909 14.1771 15.6917
O 3.46244 9.99599 15.8934
O 2.23253 11.4005 14.07
O 4.87504 15.2697 13.9399
O 1.71861 9.55498 12.2373
O 4.00218 13.9095 12.0027
O 0.823824 11.8886 11.7611
O 3.69288 16.4907 11.8212
O 2.27333 15.2343 13.5929
O 4.69626 10.534 13.6563
O 1.53693 16.7503 15.5717
O 4.22629 12.5274 15.2739
Si 5.07439 13.0946 11.0772
Si 7.6978 8.69785 11.1498
Si 6.30503 15.3387 14.6844
Si 8.79521 10.844 14.6545
Si 6.10865 10.8255 12.9994
Si 8.82769 15.1131 12.9511
O 6.23662 14.2891 15.8206
O 8.47413 9.63328 15.7225
O 7.30862 11.2203 14.0544
O 9.95277 15.5729 14.0478
O 6.73485 9.54229 12.0993
O 9.35118 13.7851 12.2281
O 5.82638 12.0191 11.9586
O 8.53603 16.224 11.8538
O 7.41133 14.8427 13.6629
O 9.85299 10.4704 13.5522
O 6.7252 16.6744 15.4142
O 9.51431 12.0234 15.5848
Si 10.2227 13.0619 11.0792
Si 12.6267 8.6587 11.1064
Si 11.2846 15.3594 14.8839
Si 13.7106 11.0881 14.7412
Si 11.3188 10.7464 12.871
Si 13.7378 15.1042 12.8944
O 11.0091 14.2368 15.8953
O 13.6002 9.83372 15.7313
O 12.3025 11.241 14.09
O 14.8853 15.7257 13.8601
O 11.8084 9.35243 12.2649
O 14.2602 13.7336 12.2992
O 11.1258 11.9347 11.85
O 13.4888 16.2668 11.7542
O 12.3474 14.8823 13.7719
O 14.7331 10.6457 13.6071
O 11.8487 16.693 15.6225
O 14.3091 12.4167 15.4358
324
 Atoms. Timestep: 22000
Si 0.183394 4.30119 0.0904672
Si 2.68026 0.080564 16.4719
Si 1.15482 6.38669 3.60819
Si 3.78661 2.23765 3.77429
Si 1.35488 2.059 1.92167
Si 3.7107 6.50529 1.79208
O 0.978525 5.0826 4.43968
O 3.62612 1.077 4.91915
O 2.49953 2.49556 2.9936
O 4.5874 6.73597 3.06661
O 1.64053 0.80241 0.957279
O 4.18651 5.19678 1.08521
O 1.05438 3.29244 1.00142
O 3.67817 7.72646 0.806231
O 2.21898 6.33602 2.37675
O 4.99142 1.69485 2.72664
O 1.63033 7.49211 4.63429
O 4.39366 3.55732 4.47409
Si 5.11916 4.46427 16.6201
Si 7.59248 17.3408 -0.0153451
Si 6.14901 6.67784 3.63753
Si 8.73821 2.40177 3.61697
Si 6.2375 2.05262 1.77883
Si 8.5714 6.55729 1.69236
O 6.15955 5.43978 4.74358
O 8.15883 1.22334 4.61145
O 7.50183 2.59801 2.61668
O 9.71373 6.74994 2.83263
O 6.70098 0.763155 0.925505
O 9.1413 5.15515 0.990298
O 5.79913 3.25294 0.824829
O 8.58043 7.77113 0.721193
O 7.10096 6.44908 2.43101
O 10.0735 1.99121 2.63741
O 6.83023 8.02588 4.3978
O 9.05095 3.71504 4.51634
Si 10.0773 4.27864 16.5448
Si 12.743 17.3402 16.4804
Si 11.0812 6.56263 3.52387
Si 13.7791 2.19581 3.60539
Si 11.2943 1.99994 1.66434
Si 13.6926 6.45726 1.90533
O 11.0636 5.26655 4.48276
O 13.3621 1.10081 4.60861
O 12.5782 2.35764 2.53227
O 14.8546 6.71355 2.94487
O 11.6275 0.651659 0.866297
O 14.184 5.0697 1.21392
O 10.9661 3.17087 0.605043
O 13.7245 7.50716 0.70452
O 12.1884 6.42269 2.44541
O 15.072 1.86355 2.81464
O 11.6934 7.79071 4.51819
O 14.043 3.58019 4.44638
Si 0.0717989 13.1174 -0.0320059
Si 2.58799 8.76989 0.22693
Si 1.12328 15.3884 3.74676
Si 3.66987 10.8463 3.68119
Si 1.25677 10.9215 1.83602
Si 3.71379 15.3987 1.91338
O 0.893844 14.0956 4.64532
O 3.16676 9.51816 4.53185
O 2.53181 11.3599 2.68762
O 4.93206 15.5244 2.92215
O 1.79256 9.48293 1.35584
O 4.05452 14.1533 0.879198
O 0.965935 11.957 0.650704
O 3.61031 16.7186 0.933368
O 2.31034 15.1148 2.63047
O 4.95686 10.5019 2.83977
O 1.73266 16.6113 4.66012
O 4.2168 12.0351 4.62571
Si 4.97093 13.1309 0.011154
Si 7.70111 8.93995 16.5537
Si 6.2452 15.2008 3.69564
Si 8.83788 10.8801 3.77599
Si 6.16521 10.8878 1.89063
Si 8.69282 15.0009 1.94738
O 5.8724 13.9681 4.67235
O 8.58918 9.88342 4.94096
O 7.46719 11.1419 2.8413
O 9.73769 15.297 3.05887
O 6.68697 9.56672 1.06893
O 9.18975 13.9022 0.98142
O 5.74484 12.0966 0.90311
O 8.48878 16.3809 0.962122
O 7.35572 14.715 2.65665
O 9.86739 10.2293 2.71907
O 6.77177 16.3342 4.70324
O 9.40252 12.309 4.25475
Si 10.0902 13.0365 16.4592
Si 12.7912 8.61815 16.5322
Si 11.2379 15.2528 3.64906
Si 13.5877 11.0847 3.62753
Si 11.0971 10.6261 1.73754
Si 13.7778 15.2593 1.96833
O 11.3365 14.1345 4.75785
O 13.3287 9.80737 4.57475
O 12.2905 11.2285 2.69034
O 14.8137 15.6544 3.116
O 11.7879 9.33752 0.98371
O 14.4122 14.0246 1.14755
O 10.6309 11.8024 0.655694
O 13.6445 16.4672 0.921307
O 12.3131 15.0525 2.53747
O 14.9595 10.9516 2.73267
O 11.6391 16.6852 4.30797
O 13.9896 12.2852 4.62627
Si 0.109437 4.28802 5.42006
Si 2.70358 17.4144 5.6531
Si 1.22896 6.69745 9.10508
Si 3.62708 2.34626 9.23833
Si 1.24763 2.08679 7.36628
Si 3.67364 6.39209 7.39693
O 0.774844 5.62272 10.1559
O 3.44811 1.07012 10.1899
O 2.32373 2.55231 8.4869
O 4.95727 6.75225 8.24434
O 1.83891 0.756983 6.74833
O 4.2535 5.17931 6.52396
O 1.0021 3.12721 6.18055
O 3.23793 7.66052 6.48633
O 2.34548 6.05475 8.26836
O 4.81439 1.91796 8.2612
O 1.88069 8.05357 9.92139
O 4.16066 3.52944 10.1294
Si 5.271 4.35433 5.56834
Si 7.57137 0.051821 5.52652
Si 6.3128 6.56973 9.14316
Si 8.8026 2.22665 9.31061
Si 6.16682 2.07655 7.42531
Si 8.83505 6.54473 7.36504
O 5.79716 5.53525 10.3084
O 8.55535 1.15762 10.4047
O 7.41266 2.36089 8.49628
O 9.99514 6.96398 8.4543
O 6.58579 0.720077 6.62906
O 9.26413 5.30413 6.50537
O 6.01524 3.28873 6.4309
O 8.39632 7.71856 6.4464
O 7.57965 6.15616 8.28411
O 9.9343 1.89586 8.25286
O 6.91791 7.84044 9.93489
O 9.25809 3.58524 9.98187
Si 10.0906 4.43316 5.46449
Si 12.5088 0.076548 5.40663
Si 11.3544 6.70011 9.27344
Si 13.7051 2.35239 9.01788
Si 11.166 2.15786 7.3094
Si 13.8446 6.49229 7.37042
O 10.9915 5.53761 10.3404
O 13.5408 1.35904 10.3168
O 12.3978 2.50893 8.20902
O 15.0112 7.14283 8.31946
O 11.6886 0.805948 6.5861
O 14.5548 5.17995 6.60453
O 10.8841 3.29682 6.14503
O 13.5614 7.66431 6.24505
O 12.4761 6.10031 8.13138
O 14.91 1.96256 8.08693
O 11.9547 8.0162 9.98041
O 14.1113 3.78604 9.75031
Si 0.0621254 12.9923 5.53091
Si 2.38405 8.53039 5.5059
Si 1.28603 15.317 9.25707
Si 3.58761 11.0169 9.39004
Si 1.17019 10.8239 7.34493
Si 3.85116 15.1256 7.38452
O 0.760084 14.1112 10.0939
O 3.53056 9.91512 10.5545
O 2.2019 11.0873 8.51055
O 5.11 15.4354 8.35489
O 1.46028 9.43356 6.4702
O 4.26105 13.8656 6.56712
O 1.09463 12.075 6.26495
O 3.63313 16.2923 6.34795
O 2.59997 14.9666 8.33435
O 4.79368 10.5081 8.32403
O 1.75059 16.5978 10.1325
O 4.03686 12.4357 9.92318
Si 5.15634 12.9169 5.64352
Si 7.64256 8.81045 5.61178
Si 6.44077 15.1831 9.15352
Si 8.74812 10.8559 9.34108
Si 6.14326 10.6288 7.56359
Si 8.87425 15.2762 7.27201
O 6.15709 14.0121 10.1705
O 8.59127 9.71425 10.4203
O 7.30449 10.9166 8.62414
O 10.0603 15.4403 8.36014
O 6.54258 9.4952 6.56363
O 9.27876 14.0429 6.29931
O 5.97457 11.9492 6.61334
O 8.6704 16.6156 6.41044
O 7.64533 14.839 8.20212
O 9.93575 10.3917 8.32473
O 6.92988 16.4987 9.98775
O 9.29797 12.2172 9.96713
Si 10.2412 13.1027 5.38619
Si 12.6469 8.68221 5.48467
Si 11.4614 15.3677 9.16608
Si 13.7809 10.8818 9.11786
Si 11.2155 10.7183 7.45008
Si 13.9608 15.3446 7.24655
O 11.3281 13.9863 10.1255
O 13.8046 9.75903 10.2233
O 12.2682 11.0731 8.57133
O 15.1749 15.8627 8.18277
O 11.6865 9.53841 6.48302
O 14.3706 13.9501 6.50881
O 10.8619 11.9702 6.47799
O 13.5255 16.4983 6.18187
O 12.6621 15.0729 8.16746
O 14.8104 10.7502 7.98066
O 11.9315 16.635 9.99772
O 14.2429 12.1814 9.87813
Si -0.0144811 4.38829 10.8855
Si 2.62396 17.4199 11.0771
Si 1.25641 6.62786 14.7879
Si 3.74722 2.46146 14.6381
Si 1.22066 2.24064 12.8028
Si 3.74452 6.43055 12.9267
O 1.01557 5.26821 15.7112
O 3.38935 1.20434 15.5563
O 2.36902 2.80179 13.7812
O 4.82141 6.93935 13.9967
O 1.76854 0.866002 12.1703
O 4.20867 5.04232 12.219
O 0.938558 3.27953 11.5272
O 3.5433 7.56275 11.8313
O 2.27728 6.35264 13.6842
O 4.94251 1.9959 13.6192
O 1.66047 7.80309 15.8228
O 4.28242 3.73768 15.5132
Si 5.0665 4.25546 11.1474
Si 7.68634 17.3858 11.1109
Si 6.18038 6.75391 14.7992
Si 8.8554 2.20334 14.7072
Si 6.31899 2.0546 12.7879
Si 8.61209 6.41151 13.0289
O 6.00002 5.62849 15.9224
O 8.53598 0.983375 15.6521
O 7.50822 2.28888 13.7813
O 9.71633 6.87751 14.1112
O 6.6031 0.628201 12.1257
O 9.2062 5.17295 12.2414
O 6.10247 3.27569 11.7302
O 8.4861 7.60486 11.879
O 7.19934 6.20661 13.7346
O 10.0332 1.84779 13.7099
O 6.82697 8.07892 15.4671
O 9.1947 3.52668 15.4361
Si 10.0707 4.42179 11.0606
Si 12.8061 0.0709365 11.0358
Si 11.1703 6.61339 14.781
Si 13.7554 2.34097 14.6481
Si 11.287 2.14509 12.7791
Si 13.7832 6.43296 13.0234
O 10.9805 5.45334 15.9014
O 13.4699 1.11661 15.6529
O 12.4933 2.68373 13.8164
O 14.9815 6.92343 14.0062
O 11.9062 0.837267 12.1273
O 14.3349 5.15576 12.1679
O 10.9959 3.24303 11.7173
O 13.5422 7.67937 12.0748
O 12.317 6.13034 13.7705
O 14.9591 2.06815 13.6249
O 11.8216 7.83719 15.5178
O 14.2952 3.46136 15.7002
Si 0.0426784 12.9461 10.9178
Si 2.62679 8.69673 11.1611
Si 1.24874 15.3353 14.6548
Si 3.61419 10.905 14.8071
Si 1.19107 10.7606 12.8399
Si 3.75951 15.1493 12.9405
O 0.834686 14.0763 15.5034
O 3.3743 9.75268 15.8156
O 2.26869 10.9854 13.9654
O 4.76721 15.5535 14.1277
O 1.551 9.3869 12.1917
O 4.39409 14.0257 11.9944
O 1.04279 11.8462 11.6819
O 3.48996 16.4067 11.9764
O 2.31436 14.6982 13.5667
O 4.73218 10.5826 13.7092
O 1.96601 16.5094 15.4871
O 4.12901 12.2618 15.4776
Si 5.07965 13.0795 10.9176
Si 7.63457 8.64055 11.0634
Si 6.23425 15.1999 14.7404
Si 8.69021 11.1215 14.6215
Si 6.10058 10.7087 12.8607
Si 8.74842 15.0546 12.891
O 5.99078 14.089 15.8605
O 8.48615 10.1083 15.7874
O 7.29281 11.2858 13.8301
O 9.93387 15.318 14.0107
O 6.72267 9.46561 12.1318
O 9.37161 13.9198 11.9423
O 5.82546 11.8898 11.7714
O 8.648 16.3733 11.9364
O 7.34527 14.742 13.6528
O 9.80651 10.6261 13.629
O 6.90836 16.4437 15.438
O 9.16658 12.45 15.3183
Si 10.2863 13.0151 10.9617
Si 12.8639 8.75578 11.0736
Si 11.3867 15.1449 14.6307
Si 13.8081 10.8922 14.6864
Si 11.1831 10.7977 12.8704
Si 13.8802 15.1085 12.808
O 11.2357 13.9758 15.7727
O 13.5986 9.77115 15.8015
O 12.3993 11.171 13.8567
O 14.8974 15.6752 13.9235
O 11.7997 9.54349 12.0341
O 14.2568 13.728 12.0678
O 11.0162 11.9538 11.7654
O 13.7862 16.3469 11.7159
O 12.4787 14.8513 13.4549
O 14.9315 10.5479 13.636
O 12.031 16.3754 15.3337
O 14.1792 12.2174 15.5427
324
 Atoms. Timestep: 22500
Si 15.0471 4.31313 16.5751
Si 2.66087 17.3431 0.0974624
Si 1.12406 6.70349 3.69855
Si 3.84041 2.18638 3.39701
Si 1.229 2.00329 1.77909
Si 3.62508 6.59048 1.79728
O 0.692875 5.45202 4.63596
O 3.35494 1.15751 4.47476
O 2.5435 2.57959 2.43944
O 4.74889 6.97581 2.95429
O 1.64089 0.604405 1.0611
O 4.18019 5.27829 1.04534
O 0.74217 3.07681 0.645504
O 3.36239 7.66438 0.74363
O 2.23519 6.4337 2.6209
O 5.14154 1.66716 2.68373
O 1.61929 7.9199 4.66046
O 4.25901 3.5127 4.25358
Si 5.15821 4.4762 0.0492585
Si 7.88336 17.3712 16.4175
Si 6.0757 6.68352 3.74484
Si 8.82602 2.10862 3.67079
Si 6.37325 2.05579 1.75966
Si 8.58531 6.49043 1.81206
O 5.93958 5.34442 4.62812
O 8.33704 1.07292 4.75545
O 7.72913 2.33025 2.65216
O 9.76093 6.58326 2.95471
O 6.86112 0.79804 0.894685
O 8.90641 5.18599 0.908082
O 5.93568 3.32616 1.0284
O 8.59359 7.78821 0.91192
O 7.15584 6.5303 2.5529
O 10.1967 1.60695 2.98306
O 6.57831 7.87943 4.69243
O 9.27789 3.41719 4.37177
Si 9.95708 4.33989 0.0393712
Si 12.4436 0.0365839 16.3896
Si 11.2127 6.39121 3.71641
Si 13.8659 2.14483 3.64428
Si 11.3558 2.09984 1.97655
Si 13.6481 6.44575 1.81748
O 11.0493 5.27838 4.82594
O 13.5045 0.782028 4.52389
O 12.6544 2.55358 2.74582
O 14.7801 6.89959 2.89665
O 11.6556 0.778632 1.0559
O 14.2724 5.16874 1.11663
O 10.6874 3.21655 1.00874
O 13.4285 7.71578 0.786205
O 12.3285 6.09151 2.6418
O 0.0095458 1.76603 2.69191
O 11.6338 7.65443 4.55942
O 14.3662 3.24346 4.66255
Si 0.0983424 13.2046 0.0158238
Si 2.44444 8.69919 16.4503
Si 1.1072 15.2867 3.61174
Si 3.87903 10.8484 3.71228
Si 1.19397 10.7888 1.87195
Si 3.69024 15.1517 1.95082
O 0.903701 14.1141 4.60245
O 3.49926 9.71899 4.83714
O 2.45615 10.9862 2.86648
O 4.82639 15.5658 2.92769
O 1.59833 9.72533 0.762958
O 4.12848 13.6944 1.23641
O 0.964722 12.1428 0.984276
O 3.52311 16.2189 0.809854
O 2.29394 14.817 2.70387
O 5.05653 10.5507 2.68056
O 1.63943 16.5648 4.50429
O 4.31213 12.1278 4.51065
Si 5.08699 13.0291 0.0971558
Si 7.69041 8.76556 0.0390236
Si 6.26967 15.3371 3.58116
Si 8.70526 11.0354 3.95101
Si 6.471 10.9193 1.93092
Si 8.76921 15.1005 1.75407
O 6.07994 14.0792 4.52725
O 8.28063 9.85042 4.83934
O 7.45488 11.4202 3.07397
O 9.81264 15.2829 2.96537
O 6.96755 9.64644 1.15221
O 9.12786 13.7889 0.768158
O 6.1083 11.97 0.808504
O 8.74282 16.4021 0.787239
O 7.35163 14.9946 2.49748
O 9.89933 10.6335 2.89982
O 6.66563 16.6352 4.43421
O 9.28701 12.2629 4.91778
Si 10.1218 13.0186 16.4001
Si 12.4688 8.77964 0.0215036
Si 11.192 15.2909 3.72638
Si 13.7643 10.9156 3.59226
Si 11.1338 10.8083 1.92107
Si 13.7099 15.2961 1.75545
O 11.2314 13.9947 4.6477
O 13.2584 9.69007 4.55032
O 12.402 11.2864 2.84775
O 14.881 15.7111 2.76579
O 11.6148 9.54706 1.13074
O 14.3067 13.8846 1.16782
O 10.7942 11.9974 0.925952
O 13.342 16.262 0.482802
O 12.4431 15.2586 2.68028
O 14.8775 10.5116 2.53075
O 11.4597 16.4795 4.78704
O 14.2434 12.1241 4.48981
Si 0.0298864 4.3094 5.54272
Si 2.55493 0.106266 5.40612
Si 1.21757 6.53661 9.13297
Si 3.66155 2.39252 9.29618
Si 1.19259 2.19412 7.35324
Si 3.81961 6.27292 7.42334
O 0.910906 5.31148 10.1676
O 3.66281 1.13756 10.3255
O 2.22121 2.5989 8.56755
O 4.98068 6.75247 8.4201
O 1.78564 1.01868 6.45233
O 4.24935 4.93794 6.53087
O 1.1316 3.47647 6.39551
O 3.48551 7.4403 6.4298
O 2.49942 6.07711 8.25327
O 4.78955 2.11657 8.13153
O 1.79099 7.84939 10.0279
O 4.24893 3.61902 10.1126
Si 5.15348 4.15667 5.38917
Si 7.46573 -0.0357763 5.5885
Si 6.31983 6.53526 9.26567
Si 8.76023 2.13749 9.14265
Si 6.15488 2.05873 7.34212
Si 8.79776 6.38834 7.26305
O 6.11967 5.47599 10.4238
O 8.513 1.07182 10.3787
O 7.44641 2.40836 8.26881
O 10.0214 6.85825 8.29221
O 6.57939 0.699994 6.66047
O 9.0806 5.05079 6.5079
O 6.10115 3.10735 6.10226
O 8.42417 7.64999 6.29964
O 7.45869 6.15421 8.14579
O 9.93434 1.69828 8.16764
O 6.59374 7.92236 10.0127
O 9.14865 3.63926 9.80269
Si 10.1372 4.19394 5.55403
Si 12.6744 17.2757 5.47254
Si 11.3669 6.62592 9.12635
Si 13.7757 2.2663 9.16808
Si 11.3366 1.95605 7.45478
Si 13.8067 6.40132 7.24345
O 11.1085 5.2756 10.0236
O 13.6711 1.06622 10.2986
O 12.3463 2.50973 8.5049
O 15.0089 6.78306 8.19451
O 11.9979 0.790263 6.62245
O 14.1669 5.03195 6.55263
O 10.8811 3.10655 6.42672
O 13.6257 7.66361 6.32446
O 12.5127 6.29414 8.09381
O 14.8391 1.95141 8.02222
O 11.9526 7.83414 9.96499
O 14.3464 3.48801 10.0775
Si 0.180308 12.9573 5.42868
Si 2.72653 8.62808 5.7246
Si 1.36091 15.5139 9.09576
Si 3.50124 11.1077 9.11597
Si 1.19945 10.7149 7.27943
Si 3.99505 15.468 7.19647
O 1.127 14.2359 10.0824
O 3.18943 9.97528 10.1544
O 2.10524 11.3957 8.4033
O 5.22713 15.6811 8.22066
O 1.96487 9.44139 6.91339
O 4.37115 14.097 6.40155
O 1.02449 11.7289 6.01201
O 3.62473 16.6642 6.21507
O 2.60656 15.3528 8.0747
O 4.62258 10.6746 8.05219
O 1.75123 16.7707 10.0172
O 4.07792 12.347 9.91291
Si 5.17896 13.1243 5.40729
Si 7.50118 8.71676 5.61914
Si 6.52582 15.3099 9.16876
Si 8.58602 10.8881 9.19445
Si 6.13973 10.9294 7.40411
Si 8.92114 15.1834 7.39347
O 6.01409 14.0087 10.0832
O 8.49974 9.61134 10.2295
O 7.18382 11.1766 8.54549
O 9.963 15.8844 8.34857
O 6.67074 9.561 6.73838
O 9.71524 14.0761 6.68662
O 6.1351 12.0717 6.29658
O 8.27885 16.2457 6.34273
O 7.64388 14.7287 8.19561
O 9.6682 10.465 8.02458
O 6.98695 16.4949 10.0958
O 9.33282 12.1197 9.91718
Si 10.473 13.0879 5.71093
Si 12.5573 8.64531 5.53171
Si 11.242 15.5114 9.15336
Si 13.8095 10.9354 9.26559
Si 11.2269 10.6852 7.42541
Si 13.8341 15.0304 7.4137
O 10.9126 14.2571 10.0952
O 13.5738 9.76494 10.3861
O 12.3959 10.8594 8.50481
O 15.005 15.6202 8.4296
O 11.7282 9.46165 6.60831
O 14.4843 13.7228 6.74021
O 11.3405 12.0263 6.49343
O 13.5148 16.1711 6.29527
O 12.4692 14.9811 8.22923
O 14.8555 10.553 8.01594
O 11.8682 16.7122 10.0572
O 14.2703 12.3011 9.95143
Si 0.134874 4.36855 11.1785
Si 2.69383 0.103107 11.1429
Si 1.1161 6.60155 14.6532
Si 3.64189 2.25666 14.9776
Si 1.09458 2.06262 13.0206
Si 3.71478 6.69788 12.9448
O 0.957319 5.40526 15.7869
O 3.6132 1.22996 16.1538
O 2.15507 2.3798 14.2781
O 4.86759 6.92196 14.0439
O 1.8015 0.939331 12.1151
O 4.20006 5.42546 12.1044
O 0.980855 3.31331 12.0499
O 3.58764 7.87162 11.9006
O 2.41653 6.37347 13.7351
O 4.76232 1.80105 13.9257
O 1.53573 7.91952 15.4167
O 4.20339 3.63351 15.5978
Si 5.10381 4.44272 11.2285
Si 7.64208 0.00508965 11.2333
Si 6.25045 6.64767 14.83
Si 8.74394 2.29483 14.6395
Si 6.14539 2.04709 12.996
Si 8.67923 6.4572 12.8941
O 6.13769 5.50047 15.857
O 8.69852 1.12001 15.7828
O 7.32984 2.45108 13.971
O 9.69621 6.65845 14.1082
O 6.57116 0.786254 12.1568
O 9.30431 5.24366 11.9445
O 5.85001 3.31789 12.096
O 8.49451 7.61295 11.9241
O 7.26131 6.27625 13.6583
O 9.78604 1.94668 13.4602
O 6.71822 8.01119 15.6275
O 9.26553 3.58067 15.3588
Si 10.098 4.39471 10.8755
Si 12.7659 0.0941043 11.1431
Si 11.1137 6.62845 14.8519
Si 13.6343 2.36419 14.7006
Si 11.1847 2.15136 12.833
Si 13.6216 6.36194 12.976
O 10.9531 5.44358 15.9686
O 13.344 1.05906 15.6723
O 12.1676 2.50214 14.0739
O 14.8868 6.7531 13.87
O 11.8218 0.871292 12.1468
O 14.2627 5.15279 12.1173
O 11.0434 3.3151 11.6784
O 13.3687 7.67853 12.055
O 12.3007 6.1808 13.8455
O 14.7643 1.93906 13.6765
O 11.5113 8.00558 15.5944
O 14.0835 3.72661 15.4135
Si 0.266403 13.1311 10.8579
Si 2.52239 8.85271 11.0148
Si 1.45747 15.2859 14.6865
Si 3.70107 11.0083 14.7272
Si 1.18665 11.0047 12.7929
Si 3.87841 15.1626 12.8692
O 1.03854 14.3721 15.9774
O 3.41597 9.6627 15.6074
O 2.27997 11.249 13.9105
O 5.10885 15.562 13.8828
O 1.60441 9.57485 12.0779
O 4.39962 13.9556 12.0064
O 1.09308 12.0453 11.5537
O 3.46134 16.4112 12.0043
O 2.57964 14.7417 13.7569
O 4.82351 10.701 13.6328
O 2.06205 16.5889 15.3765
O 4.13316 12.2693 15.6566
Si 5.1516 13.0366 10.9549
Si 7.58741 8.64456 11.0565
Si 6.36915 15.1667 14.7021
Si 8.72116 10.8575 14.59
Si 6.15675 10.739 12.8123
Si 8.77579 14.949 12.779
O 5.87855 14.0944 15.8151
O 8.60848 9.70413 15.6662
O 7.29781 11.1507 13.899
O 10.0897 15.1583 13.5603
O 6.79329 9.45919 12.2251
O 8.96845 13.9425 11.5766
O 5.91293 11.8003 11.5704
O 8.46276 16.4426 12.138
O 7.50238 14.6292 13.645
O 9.91153 10.6128 13.4871
O 7.05714 16.4926 15.3468
O 9.33945 12.1302 15.2376
Si 10.1434 13.1412 10.8184
Si 12.713 8.68912 11.1074
Si 11.3521 15.257 14.5977
Si 13.7527 11.028 14.6743
Si 11.2484 10.9874 12.8
Si 13.9593 15.1267 12.8356
O 11.0632 14.0241 15.6462
O 13.3639 9.76809 15.6609
O 12.3471 11.3115 13.8588
O 0.238341 15.4466 13.7779
O 11.6662 9.66466 11.9265
O 14.6318 13.9241 12.0199
O 11.0024 12.268 11.8806
O 13.5664 16.371 11.9041
O 12.6886 15.0624 13.7749
O 14.8479 10.7332 13.5669
O 11.392 16.7459 15.3256
O 14.3698 12.3183 15.5367
324
 Atoms. Timestep: 23000
Si 15.0716 4.42123 16.4429
Si 2.40611 17.2108 16.5273
Si 1.1972 6.70097 3.71399
Si 3.71363 2.24356 3.47817
Si 1.10967 2.03983 1.78121
Si 3.59746 6.46362 1.80911
O 0.88248 5.67964 4.93434
O 3.40996 1.02433 4.48663
O 2.28668 2.52557 2.72808
O 4.73132 6.90873 2.8958
O 1.66498 0.759359 0.983954
O 4.22481 5.22515 1.08632
O 0.677696 3.17063 0.625939
O 3.34579 7.64675 0.689374
O 2.29219 6.16757 2.64105
O 4.84499 1.89936 2.47716
O 1.88985 8.02741 4.3163
O 4.03797 3.49459 4.43079
Si 5.07202 4.35273 0.046709
Si 7.84728 0.201786 16.5842
Si 6.12015 6.57485 3.68568
Si 8.8546 2.22505 3.79015
Si 6.39555 2.29459 1.95684
Si 8.80658 6.4145 1.93409
O 5.84579 5.46122 4.77163
O 8.60599 0.912608 4.72765
O 7.44678 2.62723 2.99587
O 9.91325 6.77295 3.09485
O 6.99304 1.11392 0.991838
O 9.20021 5.03161 1.2701
O 6.20368 3.50393 0.773742
O 8.65808 7.47241 0.694512
O 7.48994 6.22024 2.75576
O 9.89074 1.90154 2.6605
O 6.66885 7.81752 4.39469
O 9.38974 3.49298 4.58756
Si 10.0549 4.32462 0.151005
Si 12.6913 0.078262 16.5389
Si 11.3678 6.63847 3.75081
Si 13.8484 2.25529 3.75452
Si 11.3085 2.08348 1.8527
Si 13.8043 6.6215 1.87063
O 11.2295 5.35733 4.78941
O 13.5252 1.10455 4.82241
O 12.4776 2.39395 2.94956
O 14.9235 6.99208 2.92218
O 11.7621 0.796549 1.00519
O 14.4653 5.31971 1.01753
O 11.0178 3.2544 0.863577
O 13.3792 7.69424 0.786784
O 12.46 6.24338 2.63056
O 15.0175 1.62215 2.7198
O 11.9898 7.84112 4.55895
O 14.3511 3.58783 4.47199
Si 0.0809865 13.1727 0.0825008
Si 2.60233 8.77194 16.469
Si 1.11571 15.2677 3.71011
Si 3.80374 10.961 3.65691
Si 1.25363 10.8568 1.9179
Si 3.49054 14.8421 1.7558
O 0.838193 14.1687 4.89585
O 3.66579 9.77981 4.74525
O 2.37312 11.2096 3.00744
O 4.69008 15.4144 2.8455
O 1.70655 9.60329 0.950123
O 4.20413 13.5552 1.07898
O 0.775401 12.0698 1.00154
O 3.15147 15.9319 0.695775
O 2.16695 14.6451 2.65548
O 4.82904 10.4043 2.47584
O 1.68818 16.5438 4.3467
O 4.23694 12.352 4.3368
Si 5.14621 12.9765 16.5431
Si 7.71336 8.5661 0.0817154
Si 6.17719 15.3659 3.57388
Si 8.77395 10.8968 3.6711
Si 6.27443 10.6729 1.76082
Si 8.74195 15.3126 1.90858
O 6.08375 14.112 4.559
O 8.50698 9.60785 4.63744
O 7.43533 11.0717 2.76471
O 9.82145 15.4433 3.06563
O 6.81451 9.32963 1.15345
O 9.26457 14.0822 1.06123
O 6.07243 11.8 0.625821
O 8.63083 16.4949 0.953065
O 7.21328 15.1096 2.39389
O 9.93042 10.6281 2.60885
O 6.65522 16.6511 4.34584
O 9.1831 12.1217 4.56295
Si 10.0729 13.1086 0.0373722
Si 12.4926 8.70686 16.5075
Si 11.2179 15.1581 3.74005
Si 13.8172 10.8918 3.6627
Si 11.1951 10.854 1.76269
Si 13.7072 15.2231 1.83774
O 11.0167 13.9384 4.77089
O 13.5689 9.75681 4.77437
O 12.5188 11.0747 2.68441
O 14.7711 15.5825 3.02371
O 11.5121 9.56357 0.903044
O 14.1497 14.0832 0.880101
O 10.9922 12.1083 0.872439
O 13.6041 16.4688 0.813585
O 12.2481 14.955 2.55161
O 15.0377 10.473 2.78314
O 11.8233 16.4458 4.43005
O 14.1767 12.3342 4.30763
Si 0.0501839 4.38289 5.62686
Si 2.53632 17.4043 5.42279
Si 1.27741 6.6364 9.23756
Si 3.8122 2.16437 9.20263
Si 1.2815 2.12335 7.3464
Si 3.76318 6.45089 7.42352
O 0.985001 5.444 10.3333
O 3.57903 0.961707 10.3202
O 2.41263 2.31285 8.39141
O 4.94096 6.76812 8.46291
O 1.69371 0.879584 6.42008
O 4.13517 5.18899 6.64207
O 1.03166 3.44874 6.4183
O 3.50402 7.59106 6.35313
O 2.47118 6.25898 8.29545
O 4.96759 1.74148 8.22066
O 1.52931 7.93702 10.0372
O 4.30534 3.44204 10.0398
Si 4.93091 4.38603 5.54631
Si 7.76683 17.2064 5.45891
Si 6.3023 6.52112 9.15689
Si 8.74473 2.32069 9.11795
Si 6.27343 2.05227 7.27325
Si 8.85428 6.42343 7.30231
O 6.05435 5.3843 10.3183
O 8.25927 1.23276 10.272
O 7.41761 2.53393 8.18689
O 9.90194 7.0375 8.28174
O 6.93195 0.774175 6.51575
O 9.46993 5.05787 6.66393
O 5.5759 3.17697 6.38003
O 8.44662 7.49297 6.18532
O 7.4514 6.08577 8.13885
O 10.0105 1.78518 8.32102
O 6.8241 7.85419 9.93049
O 9.18979 3.6477 9.77659
Si 10.3293 4.29133 5.62502
Si 12.6446 17.3181 5.51515
Si 11.1581 6.91907 9.29924
Si 13.8798 2.1487 9.32346
Si 11.3248 1.90709 7.47204
Si 13.7787 6.24862 7.53181
O 10.7855 5.72389 10.2712
O 13.7134 0.966776 10.4124
O 12.4818 2.28896 8.57197
O 15.0322 6.69379 8.37794
O 11.7445 0.556688 6.66421
O 14.0394 4.91326 6.66335
O 11.155 3.0465 6.3685
O 13.5817 7.43608 6.43156
O 12.386 6.41213 8.38475
O 14.9732 1.92716 8.11259
O 11.5985 8.13314 10.1296
O 14.4094 3.46468 10.0739
Si 14.999 13.0184 5.45388
Si 2.76375 8.69914 5.48567
Si 1.31474 15.2675 9.12721
Si 3.76805 10.9713 9.22665
Si 1.25047 10.8046 7.24003
Si 3.7998 15.1731 7.2997
O 0.870599 14.1095 10.1479
O 3.44439 9.66575 10.1116
O 2.36973 11.2756 8.36512
O 5.02059 15.7783 8.10213
O 1.82884 9.55433 6.4146
O 4.28117 13.8589 6.47358
O 0.849387 11.9392 6.22191
O 3.27202 16.2831 6.26361
O 2.57735 14.794 8.30107
O 4.83222 10.7813 8.07083
O 1.67789 16.6607 9.92731
O 4.29757 12.2395 10.0987
Si 5.12116 13.0905 5.3607
Si 7.56102 8.64445 5.41511
Si 6.19615 15.5542 9.18894
Si 8.72865 10.8959 9.00607
Si 6.14598 10.8516 7.19892
Si 8.85693 15.0763 7.41602
O 5.74565 14.3068 10.0762
O 8.38644 9.7304 10.0002
O 7.45503 11.2028 8.11342
O 10.2146 15.5268 8.23014
O 6.63108 9.56447 6.35677
O 9.22129 13.7037 6.64894
O 5.98801 12.0656 6.18813
O 8.5894 16.0839 6.20304
O 7.61556 15.2465 8.41789
O 9.91453 10.4776 8.05157
O 6.64727 16.7548 10.0814
O 9.19892 12.187 9.83447
Si 10.1448 12.891 5.63079
Si 12.8953 8.60547 5.61675
Si 11.4393 15.3689 9.23086
Si 13.8484 10.8563 9.11764
Si 11.3228 10.5887 7.42598
Si 13.8871 15.0977 7.33287
O 11.0286 14.1841 10.1105
O 13.6137 9.66516 10.1685
O 12.4432 11.1303 8.47971
O 0.0512575 15.6697 8.2217
O 12.0059 9.30977 6.73678
O 14.0452 13.7085 6.6078
O 11.0342 11.7889 6.39114
O 13.5443 16.2143 6.25825
O 12.7241 15.0694 8.3728
O 14.9809 10.5483 8.02041
O 11.8253 16.6349 10.1236
O 14.4668 12.0383 9.92631
Si 0.227012 4.33129 11.1198
Si 2.49898 0.097496 11.0469
Si 1.10362 6.73749 14.5886
Si 3.54669 2.13874 14.9451
Si 1.1149 2.13237 12.9725
Si 3.73085 6.6014 12.8296
O 0.886398 5.44829 15.4909
O 3.41081 0.671593 15.7151
O 2.17667 2.31376 14.1696
O 4.82515 7.05075 13.9381
O 1.48119 0.856691 12.0741
O 4.24036 5.39103 12.009
O 1.1956 3.41275 12.009
O 3.37014 7.9183 11.9164
O 2.31696 6.32394 13.5863
O 4.76329 1.96382 13.8246
O 1.61918 8.04288 15.4358
O 4.09893 3.32254 15.8188
Si 5.1121 4.41433 11.0718
Si 7.50064 0.13286 11.1118
Si 6.14674 6.68376 14.7153
Si 8.75112 2.3628 14.599
Si 6.13329 2.09449 13.0085
Si 8.60504 6.40361 12.8181
O 5.7548 5.4096 15.6868
O 8.63001 1.05524 15.5661
O 7.33986 2.57835 14.0413
O 9.81514 6.82025 13.8293
O 6.68577 0.816641 12.2399
O 9.10324 5.03977 12.1214
O 5.89414 3.28689 11.9832
O 8.49471 7.58175 11.7798
O 7.31292 6.22764 13.6945
O 9.78062 2.19384 13.4715
O 6.77127 7.85498 15.5597
O 9.28205 3.54535 15.5902
Si 9.98173 4.48864 10.8456
Si 12.6538 0.00376458 11.2314
Si 11.1476 6.46011 14.673
Si 13.6567 2.35732 14.7491
Si 11.2332 2.38898 12.695
Si 13.6782 6.41071 12.8349
O 10.9445 5.40483 15.8717
O 13.5755 1.35424 15.9586
O 12.3475 2.54527 13.8229
O 14.8129 6.92901 13.8106
O 11.6613 0.926091 12.0283
O 14.2872 5.1571 12.0363
O 11.0236 3.51096 11.6478
O 13.2881 7.59925 11.8875
O 12.3603 6.0778 13.6542
O 14.7258 1.98184 13.5909
O 11.6824 7.77945 15.4649
O 14.0525 3.77127 15.3609
Si 14.9984 13.1139 10.9223
Si 2.46849 8.80392 11.0549
Si 1.34786 15.1489 14.7484
Si 3.77856 10.8923 14.6371
Si 1.11851 10.8902 12.9516
Si 3.95766 15.245 12.9491
O 1.11885 14.1484 15.9474
O 3.55055 9.72936 15.6325
O 2.34915 11.2296 13.9481
O 5.24518 15.5355 13.8376
O 1.53398 9.64507 12.086
O 4.33527 13.8657 12.1653
O 0.770746 12.1754 12.0336
O 3.29967 16.352 11.9436
O 2.78714 15.0653 14.0249
O 4.84482 10.6626 13.4768
O 1.28572 16.5639 15.522
O 4.30279 12.1962 15.3527
Si 5.2344 13.0989 11.0127
Si 7.67521 8.66096 10.9906
Si 6.49374 15.3208 14.8487
Si 8.75186 10.8672 14.8527
Si 6.41488 10.8864 12.8614
Si 8.87504 15.2812 12.7805
O 5.99291 14.1348 15.7515
O 8.62225 9.61308 15.8901
O 7.35366 11.0574 14.0893
O 10.1877 15.6206 13.7459
O 6.90843 9.66386 11.9403
O 9.29534 14.0197 11.8962
O 6.17316 12.1282 11.8811
O 8.40645 16.4896 11.8929
O 7.76132 14.8836 13.9145
O 9.77113 10.6377 13.6145
O 6.89229 16.64 15.7085
O 9.2055 12.182 15.6895
Si 10.1758 13.1081 10.8784
Si 12.6485 8.87604 11.0978
Si 11.3271 15.2227 14.7336
Si 13.7828 11.0232 14.7753
Si 11.2498 11.0194 12.9133
Si 13.8316 15.1136 12.8862
O 10.8763 14.0431 15.6187
O 13.376 9.86334 15.7814
O 12.351 11.4904 14.1127
O 0.100165 15.0174 13.7411
O 12.023 9.90812 12.1189
O 13.9981 14.0155 11.6841
O 10.9429 12.0573 11.7295
O 13.4873 16.4881 12.2229
O 12.6213 14.6947 13.9182
O 14.8125 10.5578 13.6464
O 11.861 16.6253 15.5491
O 14.382 12.2861 15.5105
324
 Atoms. Timestep: 23500
Si 0.255355 4.43162 0.0726792
Si 2.314 17.3325 16.4624
Si 1.19288 6.58202 3.68733
Si 3.68174 2.16797 3.68408
Si 1.0465 2.13083 1.86277
Si 3.7075 6.21959 1.86477
O 0.853117 5.4972 4.83875
O 3.59872 0.984813 4.80116
O 2.2773 2.16434 3.01694
O 4.93263 6.48745 2.84145
O 1.43624 0.884531 0.888975
O 4.06742 4.85609 0.992833
O 1.2039 3.41566 0.914574
O 3.47597 7.46329 0.88038
O 2.31123 6.11267 2.64896
O 4.82829 1.90136 2.477
O 1.75536 7.86212 4.39781
O 4.20973 3.59126 4.39741
Si 5.02401 4.078 16.4729
Si 7.63508 0.081353 0.151386
Si 6.29719 6.45834 3.6717
Si 8.72712 2.41567 3.85082
Si 6.26041 2.20062 1.95571
Si 8.83913 6.32105 1.87662
O 6.03051 5.45977 4.91935
O 8.67407 1.09381 4.73713
O 7.14581 2.60864 3.30371
O 9.86735 6.82829 3.00916
O 6.88391 0.841253 1.4021
O 9.55709 5.16967 1.14972
O 6.10838 3.31109 0.788432
O 8.52248 7.54859 0.807264
O 7.39208 5.99925 2.5993
O 9.70556 2.11771 2.59401
O 6.73279 7.87696 4.27279
O 9.22424 3.6993 4.75405
Si 10.3445 4.4665 16.5275
Si 12.5674 -0.00526278 0.203861
Si 11.2681 6.60262 3.71641
Si 13.646 2.47837 3.77693
Si 11.2178 2.17872 1.85117
Si 13.82 6.45527 1.83403
O 11.1017 5.44758 4.88849
O 13.5397 1.19641 4.61418
O 12.2038 2.58199 3.01432
O 14.7735 6.76653 3.07984
O 11.629 0.771013 1.25579
O 14.3816 5.1985 1.16017
O 11.1948 3.30928 0.753981
O 13.6398 7.51865 0.701603
O 12.3611 6.40068 2.53564
O 14.6501 2.20788 2.60894
O 11.7164 7.90689 4.59346
O 14.0767 3.77197 4.55983
Si 15.034 13.0023 0.0542904
Si 2.72337 8.58297 0.065603
Si 1.27562 15.184 3.75405
Si 3.74047 11.0246 3.6076
Si 1.18775 10.7691 1.80817
Si 3.62722 15.2051 1.77256
O 1.13353 13.9811 4.84428
O 3.51789 9.76669 4.62606
O 2.26561 11.1717 2.95593
O 4.66147 15.5069 2.95348
O 1.80669 9.43759 1.1674
O 4.28904 14.1042 0.899527
O 0.828544 11.9684 0.849595
O 3.22744 16.5197 0.879968
O 2.24819 14.7561 2.52008
O 4.66517 10.653 2.35419
O 1.92796 16.4954 4.41252
O 4.38235 12.243 4.38515
Si 5.22175 13.1668 16.5559
Si 7.43223 8.52811 0.0940452
Si 6.1163 15.3837 3.6374
Si 8.64548 11.1297 3.5913
Si 6.10131 10.8622 1.73791
Si 8.68778 15.1623 1.9283
O 6.05536 14.1831 4.69001
O 8.41325 9.87842 4.60971
O 7.19653 11.2516 2.89937
O 9.69447 15.6875 3.12178
O 6.55778 9.41478 1.1405
O 9.33554 13.8198 1.34073
O 6.06938 12.1162 0.797941
O 8.50872 16.3158 0.751973
O 7.20982 14.9645 2.54932
O 9.76859 10.5807 2.59181
O 6.76897 16.7363 4.44215
O 9.24604 12.4017 4.20544
Si 10.0132 12.9519 0.16888
Si 12.7052 8.69161 16.4873
Si 11.2246 15.5326 3.64507
Si 13.7725 10.9169 3.61723
Si 11.2756 10.8502 1.84619
Si 13.7826 15.1532 1.90792
O 10.9728 14.3132 4.7225
O 13.4341 9.8353 4.80174
O 12.3642 11.1185 2.87884
O 14.8509 15.3933 3.11589
O 11.8185 9.5253 1.00283
O 14.1656 13.8064 1.16635
O 11.042 11.9853 0.813145
O 13.595 16.3629 0.915077
O 12.2796 15.154 2.51629
O 14.8344 10.3896 2.46958
O 11.8161 16.7642 4.41748
O 14.3862 12.197 4.36028
Si 15.0797 4.40685 5.64989
Si 2.75799 17.2799 5.46939
Si 1.20679 6.5912 9.122
Si 3.70741 2.1421 9.23838
Si 1.17903 1.90874 7.23554
Si 3.75575 6.46885 7.32887
O 1.13606 5.41061 10.2057
O 3.4107 1.16442 10.3825
O 2.44883 2.27723 8.28895
O 4.79072 6.93289 8.49037
O 1.69575 0.620917 6.48231
O 4.12268 5.13426 6.54121
O 0.695585 3.15782 6.32947
O 3.58092 7.52128 6.12993
O 2.33786 6.30751 8.07984
O 4.99248 1.60094 8.3121
O 1.74456 7.99506 9.8043
O 4.247 3.54726 9.83967
Si 4.99754 4.36192 5.54977
Si 7.68682 0.0459706 5.45384
Si 6.25689 6.61498 9.15947
Si 8.83431 2.32459 9.10027
Si 6.26822 2.10097 7.41877
Si 8.75716 6.55299 7.23819
O 6.12382 5.36496 10.2476
O 8.52767 1.05723 9.96719
O 7.52889 2.57827 8.25637
O 9.81186 7.18965 8.33793
O 6.84056 0.903558 6.52443
O 9.54516 5.15614 6.87387
O 5.84899 3.25801 6.34492
O 8.49143 7.50928 6.06566
O 7.31311 6.26755 7.96078
O 10.0524 1.96399 8.11158
O 6.87832 7.8953 9.86025
O 9.24318 3.55686 10.0186
Si 10.3074 4.38483 5.69523
Si 12.7594 0.00934852 5.4118
Si 11.1436 6.74765 9.12872
Si 13.9181 2.12138 9.31672
Si 11.5168 2.05861 7.36302
Si 13.709 6.52969 7.4222
O 10.8541 5.59282 10.1407
O 13.634 1.03353 10.4237
O 12.5373 2.48535 8.53821
O 14.7689 6.90617 8.65278
O 12.0433 0.875346 6.55239
O 14.3225 5.31054 6.72036
O 11.2803 3.36258 6.38149
O 13.4947 7.77381 6.40588
O 12.3131 6.262 8.14625
O 15.0336 1.6381 8.22748
O 11.783 7.94018 10.0385
O 14.4786 3.49732 9.86477
Si 0.0759691 12.9971 5.50997
Si 2.62532 8.6147 5.42486
Si 1.29376 15.2836 9.21097
Si 3.83384 11.0426 9.10715
Si 1.24346 10.6808 7.41371
Si 3.85319 14.9586 7.30839
O 1.11709 14.1427 10.281
O 3.58992 9.86152 10.1441
O 2.48418 11.2621 8.26242
O 5.10942 15.3834 8.24158
O 1.95898 9.43341 6.61601
O 4.33273 13.6817 6.55591
O 0.723016 11.8099 6.42124
O 3.57824 16.087 6.21318
O 2.51519 14.9352 8.1412
O 5.01366 10.4814 8.09664
O 1.77636 16.5215 10.1597
O 4.19137 12.3813 9.89235
Si 5.31593 13.0342 5.43909
Si 7.66749 8.68318 5.36542
Si 6.35929 15.3271 9.11457
Si 8.78805 11.1346 9.32509
Si 6.36838 10.7232 7.25489
Si 8.93837 15.1758 7.24235
O 6.06848 14.219 10.184
O 8.61996 9.85654 10.2308
O 7.50001 11.1408 8.32766
O 10.1603 15.5151 8.16954
O 6.80464 9.4074 6.48125
O 9.22743 13.8753 6.36828
O 6.3084 11.9388 6.18335
O 8.50915 16.3081 6.22317
O 7.68781 14.9717 8.26035
O 10.106 10.95 8.34699
O 6.69524 16.6914 9.95283
O 8.94647 12.4886 10.2198
Si 10.1828 13.1023 5.37396
Si 12.5769 8.74395 5.59085
Si 11.367 15.3711 9.19395
Si 13.8421 10.9588 9.0859
Si 11.2743 10.9417 7.31391
Si 13.851 15.1884 7.32867
O 10.994 14.1045 10.2729
O 13.4218 9.91674 10.2484
O 12.6947 11.2653 8.05125
O -0.0623843 15.551 8.34455
O 11.554 9.59174 6.51575
O 14.1708 13.8664 6.36475
O 11.0104 12.074 6.20397
O 13.6265 16.396 6.26635
O 12.5847 15.0385 8.3089
O -0.0159284 10.2491 8.31564
O 11.5836 16.7354 9.98126
O 14.3584 12.263 9.82947
Si 0.22979 4.28006 10.9694
Si 2.66734 17.3813 11.1141
Si 1.18928 6.54984 14.6785
Si 3.5808 1.97507 14.5576
Si 1.15115 2.0007 12.8979
Si 3.49125 6.50983 12.7314
O 1.13921 5.43238 15.812
O 3.22809 0.706452 15.4874
O 2.23901 2.52764 13.9567
O 4.68706 6.84438 13.7562
O 1.78044 0.750955 12.2329
O 3.94768 5.25174 11.8491
O 0.991461 3.13325 11.7708
O 3.29078 7.73993 11.7713
O 2.15924 5.98937 13.49
O 4.76943 1.65134 13.4877
O 1.87759 7.83773 15.3692
O 4.2646 3.12168 15.5209
Si 4.98738 4.37779 10.9921
Si 7.67107 0.075494 10.9111
Si 6.02818 6.47214 14.5869
Si 8.7192 2.40118 14.7858
Si 6.15096 2.04706 12.8389
Si 8.65279 6.51074 12.9884
O 5.62201 5.17783 15.4587
O 8.46806 1.23216 15.8205
O 7.27436 2.41976 13.9236
O 9.81 6.7725 14.0063
O 6.88054 1.04068 11.8621
O 9.26423 5.42866 11.9384
O 5.71724 3.44266 12.0132
O 8.38344 7.7769 11.9885
O 7.33011 6.17245 13.7449
O 9.83467 2.06056 13.68
O 6.53953 7.65191 15.5626
O 9.27392 3.75739 15.5417
Si 10.1116 4.43929 10.9856
Si 12.4771 0.0500723 11.0959
Si 11.28 6.71907 14.5478
Si 13.8508 2.2146 14.9198
Si 11.3036 2.22853 12.9693
Si 13.8378 6.36226 12.7789
O 11.2695 5.45601 15.663
O 13.4164 1.0828 15.9166
O 12.3714 2.46987 14.1054
O 14.7957 6.62102 14.0221
O 11.6144 0.976434 12.0926
O 14.3853 5.07447 12.0957
O 10.9914 3.40888 11.8339
O 13.7116 7.75273 11.8523
O 12.3315 6.27528 13.4302
O 14.91 1.71497 13.7709
O 11.7595 7.94615 15.3975
O 14.5173 3.45632 15.6272
Si 0.177351 13.0735 10.9968
Si 2.51507 8.87152 10.8905
Si 1.17275 15.1141 14.5824
Si 3.76752 10.9299 14.8227
Si 1.32834 10.9028 12.9381
Si 3.80094 15.1903 12.8923
O 0.852466 14.0082 15.7383
O 3.5295 9.76277 15.9364
O 2.428 11.1373 14.0384
O 5.05512 15.5538 13.8077
O 1.79767 9.7329 11.98
O 4.33153 13.8895 12.0204
O 0.945491 12.1203 12.0156
O 3.60842 16.3942 11.8642
O 2.52042 14.9246 13.7398
O 4.85613 10.505 13.6221
O 1.42349 16.4509 15.4661
O 4.26957 12.2564 15.6674
Si 5.15336 13.1171 10.9397
Si 7.73301 8.75303 10.9809
Si 6.27591 15.4851 14.8649
Si 8.61676 10.8801 14.8505
Si 6.18878 10.7755 12.7875
Si 8.90801 15.4514 13.0493
O 6.20526 14.1778 15.7429
O 8.24668 9.64266 15.7715
O 7.38555 11.1802 13.8689
O 10.0975 15.8171 14.0052
O 6.67144 9.49062 11.9546
O 9.40455 14.0138 12.3496
O 5.93008 11.9181 11.7194
O 8.54789 16.4246 11.7959
O 7.59024 15.3383 14.0057
O 9.83524 10.4962 13.813
O 6.4871 16.7435 15.8293
O 9.06658 12.0751 15.838
Si 10.0305 13.1353 11.1334
Si 12.7177 8.71259 11.1144
Si 11.2983 15.2982 14.9044
Si 13.8102 10.8793 14.6628
Si 11.1725 10.7079 12.9053
Si 13.7319 15.1172 12.8117
O 10.8049 14.1104 15.8212
O 13.6738 9.69876 15.7236
O 12.3934 11.0794 13.8183
O 14.9633 15.3197 13.6865
O 11.641 9.36162 12.1654
O 14.0746 13.8935 11.8015
O 10.8403 11.8885 11.8646
O 13.2097 16.3462 11.9695
O 12.5426 14.8485 13.8959
O 15 10.5483 13.6871
O 11.709 16.5397 15.7409
O 14.1201 12.2141 15.4941
324
 Atoms. Timestep: 24000
Si 0.137605 4.41199 -0.0152629
Si 2.6646 17.3964 0.0372371
Si 1.45297 6.38607 3.63307
Si 3.68765 2.1451 3.8372
Si 1.20866 2.1372 1.85125
Si 3.88161 6.46891 1.64374
O 1.3573 5.14558 4.77445
O 3.42251 0.906141 4.81355
O 2.21593 2.48475 3.08692
O 4.91394 6.9388 2.74976
O 1.88929 0.832573 1.18292
O 4.40694 5.17901 0.90903
O 1.03827 3.32945 0.836371
O 3.40491 7.65141 0.725715
O 2.55181 6.12055 2.55289
O 4.7264 1.76549 2.68424
O 1.82923 7.77496 4.30972
O 4.24309 3.28145 4.74001
Si 5.2012 4.26251 -0.0621331
Si 7.55766 -0.00815862 0.0121442
Si 6.21291 6.56465 3.59776
Si 8.73005 2.30812 3.72505
Si 6.14543 1.97529 1.89964
Si 8.75533 6.58052 1.7408
O 5.77913 5.22172 4.51024
O 8.46438 1.24294 4.89699
O 7.39856 2.43108 2.86918
O 9.82867 7.16363 2.70455
O 6.73137 0.654783 1.17132
O 9.19748 5.2251 0.993055
O 5.84864 3.00864 0.789341
O 8.28589 7.63842 0.706091
O 7.40577 6.28368 2.62092
O 9.91886 1.75464 2.73851
O 6.75961 7.76103 4.59543
O 9.32948 3.70672 4.23006
Si 10.107 4.32643 16.5398
Si 12.7914 -0.0406162 0.156543
Si 11.1887 6.92568 3.58847
Si 13.6854 2.21428 3.62105
Si 11.1717 2.09927 1.87248
Si 13.7688 6.37567 1.90264
O 10.8881 5.83057 4.75974
O 13.4078 0.953301 4.64338
O 12.2973 2.53334 2.90293
O 14.9696 6.42493 3.08772
O 11.8736 0.841841 1.03068
O 14.1498 5.01969 1.02384
O 10.8219 3.21844 0.772307
O 13.6754 7.63002 0.848251
O 12.3337 6.25196 2.59977
O 14.8364 1.85198 2.46184
O 11.6652 8.27164 4.30582
O 14.2397 3.47588 4.49129
Si 0.00117993 12.9138 16.5379
Si 2.4861 8.7713 0.1344
Si 1.38996 15.1449 3.9366
Si 3.68311 11.0365 3.72031
Si 1.04298 10.7071 1.93648
Si 3.78583 15.1739 1.81894
O 1.24574 14.0131 4.98563
O 3.37986 9.78557 4.75205
O 2.28303 11.2399 2.89141
O 5.08578 15.6355 2.73875
O 1.46917 9.28049 1.20758
O 4.15663 13.7884 1.08139
O 0.730605 11.7459 0.768781
O 3.60357 16.3077 0.737247
O 2.5503 14.9573 2.84136
O 4.84507 10.8813 2.63253
O 1.78941 16.4411 4.69226
O 3.94618 12.3786 4.64691
Si 5.19403 13.1419 16.4962
Si 7.33154 8.72406 16.4566
Si 6.3036 15.3156 3.7172
Si 8.8103 10.8113 3.64648
Si 6.23237 10.9919 1.85548
Si 8.80315 15.0352 1.73569
O 5.91734 14.0359 4.55788
O 8.60581 9.64119 4.6208
O 7.46189 11.1891 2.88248
O 10.0606 15.5407 2.5626
O 6.56278 9.7376 0.84889
O 9.1024 13.6725 0.997387
O 6.1376 12.2421 0.816689
O 8.41269 16.1441 0.556449
O 7.58444 14.9211 2.76585
O 9.85259 10.4935 2.41879
O 6.81362 16.4393 4.61384
O 9.41565 12.0047 4.60397
Si 10.0761 12.8918 16.5111
Si 12.7054 8.56028 0.0390214
Si 11.4005 15.2555 3.53128
Si 13.6439 11.1883 3.71828
Si 11.2538 10.7341 1.82615
Si 13.9768 15.1247 1.85878
O 10.9429 14.143 4.58162
O 13.4612 9.98726 4.84133
O 12.3284 11.2288 2.89887
O 15.0662 15.3318 3.06445
O 11.8694 9.4896 1.0333
O 14.4797 13.9023 1.01601
O 11.0823 11.9602 0.772473
O 13.6684 16.4342 1.03221
O 12.6365 14.7581 2.59256
O 14.7906 10.6211 2.78287
O 11.6868 16.5995 4.30878
O 14.2335 12.4954 4.39717
Si 0.155904 4.26159 5.47078
Si 2.62861 17.2357 5.72451
Si 1.18449 6.64376 9.18659
Si 3.76927 2.38224 9.16379
Si 1.20299 2.00286 7.43978
Si 3.71985 6.46107 7.36876
O 0.91419 5.42378 10.1978
O 3.76733 1.25569 10.3389
O 2.26599 2.38232 8.58957
O 4.70735 6.91269 8.55333
O 1.7327 0.787579 6.61121
O 4.29239 4.99235 6.82106
O 0.907604 3.21487 6.4836
O 3.55308 7.51047 6.15345
O 2.23816 6.29753 8.01015
O 4.77643 1.83347 8.02593
O 1.78603 7.91941 10.0202
O 4.28525 3.74399 9.75808
Si 5.15817 4.25378 5.64047
Si 7.64772 0.0157943 5.60847
Si 6.13765 6.79806 9.2145
Si 8.7266 2.35332 9.20473
Si 6.25881 2.09617 7.43978
Si 8.75093 6.28047 7.43655
O 6.16564 5.60864 10.2355
O 8.69822 1.03295 10.0899
O 7.31511 2.46757 8.58195
O 9.88255 6.57415 8.56642
O 6.85315 0.738026 6.73045
O 9.00584 5.05209 6.51784
O 6.16627 3.27974 6.37805
O 8.73911 7.58927 6.3473
O 7.30496 6.3988 8.10088
O 9.81201 2.19138 8.01971
O 6.63207 8.09303 9.9536
O 9.26074 3.55692 10.075
Si 10.1022 4.47741 5.41314
Si 12.4851 -0.00555521 5.42464
Si 11.2903 6.46297 9.26414
Si 13.7439 2.35998 9.1605
Si 11.2441 2.27198 7.28598
Si 13.7022 6.42734 7.29331
O 11.0939 5.4305 10.41
O 13.5217 1.19928 10.2969
O 12.496 2.55385 8.22436
O 14.8736 6.89166 8.40787
O 11.5824 0.929108 6.35007
O 14.3303 5.23348 6.41523
O 11.0659 3.45632 6.20939
O 13.3412 7.64125 6.31009
O 12.4305 6.06146 8.10419
O 14.816 1.80076 8.15039
O 11.8107 7.87726 9.75488
O 14.1788 3.63327 10.0596
Si 0.131123 12.9844 5.64994
Si 2.59078 8.57008 5.50241
Si 1.28665 15.4852 9.13614
Si 3.76292 11.0393 9.13798
Si 1.28958 10.5858 7.28252
Si 3.79996 14.9781 7.58134
O 1.08566 14.4538 10.3919
O 3.58863 9.83978 10.2103
O 2.47549 11.1486 8.18643
O 4.82839 15.4286 8.69365
O 1.68003 9.24803 6.63009
O 4.42184 13.8365 6.72961
O 0.904037 11.7551 6.18744
O 3.41653 16.2134 6.61899
O 2.28658 14.7136 8.23068
O 4.97632 10.6208 8.1274
O 1.94358 16.746 9.72726
O 4.20602 12.436 9.76755
Si 5.10377 13.0836 5.55614
Si 7.74737 8.57025 5.56119
Si 6.367 15.1781 9.24712
Si 8.81094 11.1035 9.19548
Si 6.31107 10.7958 7.26849
Si 8.77795 15.0975 7.27974
O 6.14705 13.9578 10.349
O 8.41693 9.85844 10.2434
O 7.4395 11.2445 8.32605
O 9.85236 15.3104 8.44931
O 6.84904 9.52018 6.55821
O 9.19938 13.7519 6.56712
O 5.92855 11.892 6.1412
O 8.6255 16.334 6.27987
O 7.32403 14.9176 8.00189
O 9.98634 10.6575 8.23716
O 6.95229 16.4644 9.91727
O 9.18256 12.369 10.0401
Si 10.1737 12.9858 5.56313
Si 12.5912 8.80239 5.52053
Si 11.2206 15.3082 9.276
Si 13.9002 11.0893 9.15321
Si 11.3707 10.8461 7.46171
Si 13.6711 15.1826 7.35723
O 11.0092 14.1067 10.2431
O 13.4708 9.97163 10.1741
O 12.5289 11.4291 8.38372
O 14.9146 15.6242 8.44575
O 11.7946 9.59224 6.68502
O 14.3399 13.892 6.67015
O 11.2277 12.0786 6.37336
O 13.3252 16.3503 6.36203
O 12.3194 14.94 8.16941
O 15.0233 10.5027 8.18935
O 11.7888 16.6301 9.9791
O 14.5883 12.3305 10.076
Si -0.0503522 4.47907 11.0665
Si 2.65853 17.6573 10.8545
Si 1.1381 6.82441 14.6394
Si 3.85477 2.19362 14.6826
Si 1.16548 2.1365 12.8172
Si 3.7392 6.38395 12.9071
O 0.912773 5.64741 15.9348
O 3.57515 1.08504 15.761
O 2.47809 2.26801 13.7279
O 4.83653 6.46004 14.057
O 1.53169 1.05342 11.6784
O 4.13918 5.15294 11.9722
O 0.847968 3.49426 11.9329
O 3.59245 7.64211 11.8943
O 2.28295 6.31542 13.6701
O 5.05597 1.80781 13.7754
O 1.67429 8.17833 15.3836
O 4.21278 3.58186 15.3903
Si 5.16457 4.45935 10.9719
Si 7.89283 -0.0549073 10.934
Si 6.2688 6.45081 14.7906
Si 8.68708 2.30712 14.7247
Si 6.28826 2.06282 12.776
Si 8.73456 6.4884 12.8115
O 6.24567 5.29927 15.8285
O 8.35175 1.1807 15.8131
O 7.4926 2.53256 13.721
O 10.0557 6.98392 13.7106
O 6.82003 0.776033 11.9283
O 9.13597 5.12807 12.1705
O 5.9546 3.31199 11.7621
O 8.46911 7.53249 11.6367
O 7.49927 6.35717 13.8089
O 10.0339 1.78069 13.9274
O 6.31979 7.92818 15.5538
O 9.06745 3.59945 15.4761
Si 10.1341 4.38765 11.1322
Si 12.7233 17.4472 11.0014
Si 11.2389 6.5379 14.7318
Si 13.8925 2.14999 14.7661
Si 11.2992 2.01744 13.0168
Si 13.7011 6.65408 12.8182
O 10.9952 5.27428 15.6736
O 13.7217 0.892287 15.8009
O 12.59 2.25643 13.9744
O 14.926 7.06977 13.7944
O 11.8832 0.810254 12.0866
O 14.1414 5.30479 12.0052
O 11.0128 3.2654 11.9574
O 13.4106 7.76726 11.7809
O 12.5087 6.22377 13.7942
O 15.0535 1.76345 13.7951
O 11.7817 7.65728 15.7079
O 14.3943 3.51579 15.5043
Si 0.241294 13.2297 11.1347
Si 2.7048 8.74805 11.0094
Si 1.12687 15.251 14.8585
Si 3.63301 11.0025 14.8117
Si 1.2419 10.9199 12.9008
Si 3.53358 15.3006 12.757
O 1.06973 13.7723 15.6337
O 3.25176 9.98457 16.0142
O 2.35462 11.2892 13.9518
O 4.69992 15.7002 13.9088
O 1.8575 9.74602 11.9826
O 4.05441 13.988 11.9389
O 1.12846 12.1495 11.8754
O 3.39325 16.6406 11.8529
O 2.13137 15.0933 13.5838
O 4.82204 10.5299 13.8805
O 1.74529 16.4714 15.6818
O 4.27932 12.2587 15.4983
Si 5.08487 13.0347 11.0272
Si 7.63178 8.74724 10.9761
Si 6.11472 15.5005 14.5983
Si 8.67853 10.8552 14.5492
Si 6.10712 10.6607 12.9337
Si 8.90365 15.2627 13.0691
O 5.82113 14.2266 15.6259
O 8.24944 9.52037 15.3905
O 7.29704 11.3279 13.7495
O 9.79769 15.8727 14.2243
O 6.77639 9.35713 12.2771
O 9.37483 13.9959 12.2522
O 5.70148 11.688 11.743
O 8.74919 16.4279 11.9027
O 7.42197 15.1746 13.6648
O 9.83526 10.5194 13.5168
O 6.57628 16.7514 15.4494
O 9.20485 12.032 15.4353
Si 10.0734 13.1256 11.1014
Si 12.5419 8.7833 10.8848
Si 11.2053 15.3357 14.7834
Si 13.6502 10.9135 14.66
Si 11.1525 10.8199 12.8061
Si 13.7671 15.2595 12.9277
O 10.7931 14.0257 15.696
O 13.4421 9.58663 15.5924
O 12.354 10.9512 13.8602
O 14.8122 15.5849 14.1666
O 11.5406 9.58482 11.7879
O 14.257 13.9424 12.1676
O 11.0154 12.0899 11.8545
O 13.6859 16.3857 11.7122
O 12.2233 15.1324 13.5125
O 14.9663 10.6821 13.6535
O 11.8515 16.3744 15.7642
O 14.016 12.1529 15.6248
324
 Atoms. Timestep: 24500
Si 15.0314 4.31974 0.0818998
Si 2.65962 0.0110224 16.4812
Si 1.23603 6.57824 3.53006
Si 3.71461 2.1355 3.70871
Si 1.32171 2.12161 1.74128
Si 3.73682 6.45291 1.83549
O 0.939383 5.4134 4.52693
O 3.3333 1.05636 4.79882
O 2.41351 2.26139 2.79252
O 4.88235 6.87364 2.96959
O 1.79222 1.03757 0.687345
O 4.4363 5.27832 1.01932
O 0.897647 3.42529 0.924503
O 3.49112 7.67258 0.86914
O 2.4199 6.02846 2.57362
O 4.9305 1.82527 2.74128
O 1.84928 7.89578 4.27138
O 4.16702 3.55598 4.40949
Si 5.24185 4.34635 0.0304316
Si 7.45793 17.3376 16.4657
Si 6.29391 6.69496 3.80922
Si 8.91577 2.02307 3.57602
Si 6.24175 1.90317 1.83992
Si 8.75299 6.62425 1.76832
O 6.02405 5.36597 4.57209
O 8.56561 0.963445 4.72172
O 7.55873 2.07868 2.71515
O 10.0647 6.8362 2.77301
O 6.41955 0.774994 0.778335
O 9.18985 5.18861 1.13774
O 6.14093 3.30604 0.910283
O 8.5922 7.86014 0.653321
O 7.5858 6.55948 2.81666
O 10.0968 1.67463 2.57253
O 6.60176 7.89237 4.82678
O 9.11865 3.51779 4.18818
Si 10.0555 4.34791 0.102908
Si 12.7401 17.317 16.3949
Si 11.2596 6.65281 3.70618
Si 13.7824 2.09534 3.71181
Si 11.4246 2.05758 1.79422
Si 13.8105 6.42425 1.85781
O 10.9357 5.42875 4.69496
O 13.5313 0.840425 4.58353
O 12.5037 2.52803 2.94365
O 15.0898 6.75185 2.67569
O 12.0007 0.900554 0.911948
O 14.0408 5.06173 1.08544
O 11.0372 3.22814 0.770599
O 13.5576 7.54834 0.709404
O 12.5595 6.3852 2.86063
O 14.9833 1.70613 2.57977
O 11.5612 7.85217 4.64228
O 14.363 3.27712 4.57557
Si 0.0599895 13.052 16.4725
Si 2.54181 8.77231 0.138391
Si 1.28424 15.4602 3.74525
Si 3.711 11.0326 3.77063
Si 1.15818 10.8696 1.89523
Si 3.91724 15.3396 1.86825
O 0.86692 14.17 4.60063
O 3.53348 9.99697 4.98142
O 2.2668 11.2485 3.03409
O 5.27582 15.417 2.67709
O 1.64176 9.48162 1.20478
O 4.19534 14.0553 0.921659
O 1.03841 11.9445 0.696479
O 3.58536 16.6046 0.99852
O 2.7144 15.3009 2.9634
O 4.77615 10.5804 2.60354
O 1.47601 16.6257 4.8317
O 4.37167 12.25 4.43177
Si 5.03459 13.1237 16.5093
Si 7.6076 8.84741 16.4697
Si 6.4685 15.2035 3.67464
Si 8.68506 10.8232 3.77055
Si 6.22412 10.8171 1.7691
Si 8.79287 15.0571 1.82524
O 6.10721 14.0344 4.78193
O 8.53149 9.52331 4.65575
O 7.31787 11.0127 2.90846
O 10.2305 15.425 2.49009
O 6.58642 9.5093 0.966975
O 9.23608 13.7683 0.882479
O 5.94543 11.979 0.739582
O 8.22607 16.2409 0.871841
O 7.80721 14.7615 2.93471
O 9.85223 10.7277 2.66111
O 6.8652 16.5006 4.49791
O 9.08407 12.0747 4.71826
Si 10.3352 13.0682 16.5314
Si 12.7899 8.74711 0.048231
Si 11.3313 15.2205 3.58298
Si 13.7116 10.9713 3.84693
Si 11.2262 10.8022 1.88671
Si 13.9784 15.1059 1.8357
O 10.8406 13.9646 4.60881
O 13.4551 9.65344 4.79465
O 12.3356 11.2611 3.08113
O 0.254909 15.5736 2.53557
O 11.9324 9.56703 1.16579
O 14.2509 13.7228 1.01835
O 11.0624 11.9291 0.790427
O 13.5606 16.1653 0.5852
O 12.7254 14.8876 2.86069
O 14.8933 10.6748 2.74082
O 11.6555 16.4613 4.5628
O 14.2618 12.1668 4.73349
Si 0.25492 4.24906 5.41292
Si 2.46243 0.0755454 5.7869
Si 1.13129 6.59969 9.11302
Si 3.7085 2.44737 9.08177
Si 1.17646 2.26069 7.43548
Si 3.89561 6.5039 7.34503
O 0.649946 5.50159 10.1559
O 3.6389 1.09424 9.88494
O 2.25577 2.75765 8.48394
O 5.1364 6.71845 8.3777
O 1.80043 0.885895 6.95499
O 4.41623 5.24961 6.55887
O 1.19639 3.24885 6.18998
O 3.46507 7.75545 6.36843
O 2.54801 6.2126 8.21227
O 4.71895 2.23095 7.83107
O 1.59358 7.88072 9.90167
O 4.34666 3.52686 10.0983
Si 5.19214 4.34935 5.42007
Si 7.69435 17.3653 5.58865
Si 6.42168 6.72649 9.29975
Si 8.67772 2.31691 9.18813
Si 6.23775 2.18046 7.26113
Si 8.75986 6.32992 7.47227
O 5.97919 5.61114 10.4715
O 8.44482 0.954973 10.0076
O 7.2871 2.63578 8.3583
O 10.1705 6.45645 8.30835
O 6.7474 0.826445 6.61251
O 9.05329 5.10364 6.42486
O 6.11872 3.27476 6.12002
O 8.4286 7.64977 6.6295
O 7.64021 5.98972 8.50884
O 9.74702 1.92087 8.05898
O 7.01332 8.03856 9.90368
O 9.32821 3.52475 10.0229
Si 9.97066 4.36506 5.32128
Si 12.6051 17.3798 5.49301
Si 11.5633 6.43175 9.1345
Si 13.5951 2.36989 9.18223
Si 11.0874 2.18423 7.27016
Si 13.8497 6.32767 7.20431
O 11.3489 5.33803 10.3558
O 13.457 1.09675 10.2049
O 12.1735 2.54523 8.36908
O 14.978 6.96455 8.1771
O 11.7863 0.951045 6.49878
O 14.4935 4.9794 6.52545
O 10.8174 3.25545 6.08918
O 13.501 7.40891 6.15511
O 12.6461 5.96509 8.17145
O 14.8228 2.12118 8.07961
O 11.9006 7.84382 9.80923
O 13.8848 3.76651 9.90325
Si 0.215988 13.0793 5.53981
Si 2.57385 8.79886 5.48092
Si 1.03461 15.4053 9.19629
Si 3.71852 10.787 9.1504
Si 1.21224 10.8407 7.25827
Si 3.61319 15.153 7.47462
O 0.747948 14.1623 10.233
O 3.53127 9.63445 10.2441
O 2.41326 10.8982 8.32833
O 4.82648 15.5351 8.52955
O 1.52857 9.6092 6.36456
O 4.05999 13.9136 6.5421
O 1.10226 12.1923 6.5366
O 3.46284 16.4053 6.43437
O 2.28556 15.0679 8.24873
O 4.97592 10.3167 8.30893
O 1.62002 16.7397 10.0103
O 4.1376 12.2032 9.85456
Si 5.12846 13.1009 5.62611
Si 7.68761 8.71179 5.69937
Si 6.21134 15.1766 9.29498
Si 8.7475 11.2573 9.31016
Si 6.26512 10.8723 7.54015
Si 8.74492 15.1066 7.44949
O 5.84499 14.0666 10.4084
O 8.48339 10.117 10.3593
O 7.38309 11.3648 8.59659
O 9.76896 15.3619 8.61754
O 6.94771 9.73619 6.61888
O 9.23184 13.7755 6.67309
O 5.79482 12.0871 6.67263
O 8.53207 16.3064 6.37689
O 7.27866 14.7099 8.16296
O 9.89248 10.667 8.23707
O 6.89299 16.3355 10.0813
O 9.41889 12.4272 10.085
Si 10.1009 12.9618 5.5914
Si 12.6157 8.63713 5.68539
Si 11.2519 15.2196 9.24687
Si 13.8307 11.0788 9.24776
Si 11.3249 10.7659 7.4946
Si 13.6832 15.177 7.40268
O 11.1922 14.1298 10.381
O 13.3865 9.82187 10.3181
O 12.5237 11.4128 8.37827
O 14.7311 15.6653 8.48762
O 11.8998 9.42499 6.8345
O 14.3633 13.9891 6.57306
O 11.1059 11.9314 6.35511
O 13.5025 16.4402 6.36409
O 12.3015 14.8396 8.11019
O 14.9933 10.6448 8.1804
O 11.7064 16.6157 9.85987
O 14.3134 12.2534 10.0317
Si 14.9215 4.36964 10.9382
Si 2.7173 0.12282 10.8467
Si 1.14757 6.5894 14.7883
Si 3.78288 2.30999 14.5917
Si 1.23714 2.23623 12.6956
Si 3.68555 6.32489 12.9119
O 0.833936 5.46207 15.7927
O 3.63464 0.962686 15.493
O 2.41427 2.63179 13.8525
O 4.85035 6.95701 13.8737
O 1.87548 1.0614 11.8503
O 4.33554 5.02468 12.2489
O 0.853838 3.35204 11.643
O 3.33782 7.32918 11.63
O 2.3203 6.24587 13.7171
O 4.86596 2.07894 13.4601
O 1.63768 7.87143 15.6378
O 4.25697 3.50463 15.5912
Si 5.18575 4.38648 11.1198
Si 7.67678 -0.000599621 10.9314
Si 6.26676 6.6518 14.56
Si 8.76051 2.20007 14.7809
Si 6.32386 2.11302 12.8357
Si 8.88704 6.63006 12.88
O 6.03596 5.31845 15.5486
O 8.56437 0.907342 15.8909
O 7.41865 2.23833 13.9771
O 9.89677 6.99237 14.0487
O 6.74159 0.959395 11.8195
O 9.4939 5.4665 11.9279
O 6.26835 3.39525 11.9121
O 8.6419 7.80102 11.8767
O 7.43693 6.39317 13.5424
O 9.88264 1.86092 13.7715
O 6.75447 7.86687 15.499
O 9.11146 3.53545 15.6277
Si 10.2887 4.39253 11.0834
Si 12.6396 17.3246 10.9043
Si 11.2166 6.72341 14.8463
Si 13.9171 2.17713 14.6368
Si 11.261 1.9685 12.9441
Si 13.7155 6.43868 13.006
O 10.8667 5.55342 15.8984
O 13.7315 0.820016 15.527
O 12.5541 2.31113 13.8409
O 14.8701 6.77669 14.029
O 11.7701 0.734514 12.0186
O 14.1273 5.14595 12.1596
O 10.9402 3.28661 12.0311
O 13.3722 7.67076 11.9244
O 12.4181 6.4133 13.8394
O 15.0137 1.91109 13.5102
O 11.7631 8.05677 15.569
O 14.2342 3.34569 15.6347
Si 0.150095 13.0651 11.059
Si 2.54991 8.66778 10.9514
Si 1.10202 15.3084 14.6816
Si 3.57183 10.9521 14.6907
Si 1.12782 10.8574 12.8189
Si 3.48408 15.2518 12.6964
O 0.878325 14.1167 15.6612
O 3.29197 9.81274 15.7303
O 2.22521 11.1866 13.8621
O 4.68201 15.2467 13.7597
O 1.74822 9.53484 12.0214
O 3.8012 13.9383 11.8393
O 1.14363 12.0668 11.7494
O 3.45214 16.4401 11.7439
O 2.06109 15.0472 13.4516
O 4.78141 10.4038 13.8001
O 1.79972 16.4313 15.5128
O 4.09078 12.2387 15.5382
Si 4.84106 13.0132 11.0591
Si 7.68627 8.89964 11.1025
Si 6.0336 15.3299 14.5707
Si 8.70518 10.9956 14.6455
Si 6.07036 10.7989 12.9947
Si 8.6744 15.189 13.0296
O 5.90848 14.1462 15.6309
O 8.43451 10.0589 15.8679
O 7.28204 11.302 13.9266
O 9.76902 15.4236 14.1354
O 6.7156 9.60395 12.1538
O 9.38982 13.9527 12.2735
O 5.55103 11.9799 11.968
O 8.46979 16.3947 11.8722
O 7.25592 15.0516 13.5646
O 9.63186 10.3533 13.5795
O 6.54766 16.665 15.3423
O 9.52258 12.2462 15.2826
Si 10.3075 13.1204 11.227
Si 12.5493 8.70242 11.0444
Si 11.2698 15.245 14.6404
Si 13.7251 10.9323 14.7235
Si 11.072 10.6505 12.9424
Si 13.8141 15.1338 12.7557
O 11.2762 14.1033 15.7287
O 13.6864 9.82221 15.84
O 12.2021 10.9409 14.0659
O 14.7285 15.677 14.069
O 11.5143 9.43573 12.0197
O 14.3524 13.7505 12.2432
O 10.9174 11.9706 12.073
O 13.5721 16.1469 11.5689
O 12.3906 15.1131 13.5317
O 14.7334 10.5771 13.5341
O 11.6416 16.6703 15.4716
O 14.1641 12.3483 15.3542
324
 Atoms. Timestep: 25000
Si 15.0443 4.28273 0.106182
Si 2.62228 17.3681 16.4342
Si 1.33927 6.5875 3.60488
Si 3.70894 2.47999 3.58169
Si 1.22267 1.96519 1.84126
Si 3.86636 6.36977 1.77948
O 0.966694 5.43045 4.61213
O 3.63161 1.24682 4.64956
O 2.37273 2.52002 2.79888
O 5.02642 6.97499 2.75523
O 1.855 0.775715 0.991337
O 4.47028 5.05973 1.18308
O 0.705312 3.05484 0.797354
O 3.4351 7.44425 0.587466
O 2.5935 6.29661 2.71028
O 4.88102 2.11821 2.52176
O 1.68208 7.88282 4.46194
O 4.12028 3.80645 4.38914
Si 5.43123 4.28663 0.0462208
Si 7.59299 17.3204 16.5276
Si 6.23318 6.76593 3.67308
Si 8.8739 2.1469 3.69999
Si 6.31523 2.02443 1.85704
Si 8.75892 6.44204 1.71297
O 6.03898 5.61287 4.74586
O 8.79016 0.998659 4.86872
O 7.47682 2.14422 2.89437
O 10.1821 6.53439 2.48509
O 6.52792 0.736986 0.895564
O 8.89789 5.17258 0.787989
O 6.27776 3.21969 0.710775
O 8.50496 7.74672 0.863896
O 7.51723 6.45445 2.8058
O 10.0173 1.82009 2.68362
O 6.52783 8.03683 4.58557
O 9.17107 3.54989 4.40441
Si 9.9805 4.31346 0.0158431
Si 12.6644 0.0978887 16.3458
Si 11.3044 6.4741 3.63285
Si 13.876 2.06089 3.71398
Si 11.3083 2.2086 1.78633
Si 13.8386 6.40844 1.79835
O 10.9452 5.33864 4.70834
O 13.3972 1.10321 4.82428
O 12.5602 2.33259 2.76385
O 0.0135994 6.89818 2.64578
O 11.7284 0.97061 0.825663
O 14.1244 5.09137 1.07753
O 10.8775 3.57202 1.09466
O 13.4916 7.61531 0.793567
O 12.687 6.34568 2.92136
O 14.9883 1.49151 2.59912
O 11.5512 7.85535 4.57346
O 14.4997 3.34539 4.38566
Si 0.0932823 12.9425 16.5358
Si 2.65968 8.68156 0.0044419
Si 1.26651 15.5068 3.7224
Si 3.6404 10.9056 3.68208
Si 1.2402 10.7306 1.80391
Si 3.87127 15.2345 1.78765
O 1.01058 14.1932 4.7332
O 3.21227 9.92385 4.86557
O 2.26757 11.2577 2.90161
O 4.95591 15.8811 2.77218
O 1.91754 9.48681 1.23322
O 4.44226 13.8446 1.19239
O 1.05818 11.8521 0.640501
O 3.58426 16.1918 0.545803
O 2.55478 15.1156 2.69242
O 4.65105 10.4118 2.53043
O 1.78815 16.8646 4.40085
O 4.31921 12.2353 4.47767
Si 5.0642 12.9226 0.0234199
Si 7.70928 8.71837 16.4983
Si 6.13942 15.3689 3.72587
Si 8.66285 10.969 3.54197
Si 6.06682 10.5739 1.74566
Si 8.75843 15.186 1.91351
O 5.734 14.3092 4.78843
O 8.37999 9.74353 4.63779
O 7.23539 10.9545 2.77621
O 10.0571 15.6863 2.7513
O 6.54206 9.27846 0.933205
O 9.1288 13.9316 0.983049
O 5.75204 11.6785 0.63896
O 8.34995 16.3882 0.991059
O 7.38301 14.9055 2.8263
O 9.83548 10.7786 2.48499
O 6.87162 16.564 4.5932
O 9.00294 12.2608 4.38017
Si 10.1032 13.2215 16.4609
Si 12.515 8.67181 0.0258278
Si 11.283 15.2642 3.6347
Si 13.708 11.0302 3.638
Si 11.2834 10.9463 1.75032
Si 13.8064 15.2038 1.81191
O 10.8107 14.0967 4.57805
O 13.3853 9.78449 4.60648
O 12.3642 11.3397 2.81334
O 14.978 15.6278 2.88067
O 11.7229 9.57529 1.06473
O 14.4058 14.0342 0.942956
O 11.0639 12.1423 0.670922
O 13.3326 16.3497 0.86959
O 12.5089 14.9005 2.73244
O 14.7754 10.7482 2.41426
O 11.8358 16.3933 4.68808
O 14.4301 12.1636 4.57896
Si 0.170202 4.39051 5.43207
Si 2.79216 0.241751 5.46569
Si 1.41063 6.46891 9.12257
Si 3.85588 2.13962 9.32437
Si 1.36454 2.26735 7.40284
Si 3.91339 6.6731 7.37217
O 0.967234 5.53879 10.3103
O 3.36569 0.908948 10.3461
O 2.59701 2.45858 8.40182
O 5.11473 7.04042 8.38684
O 1.95001 1.01388 6.53154
O 4.41373 5.47531 6.45677
O 1.05521 3.52944 6.42213
O 3.35257 7.78669 6.48113
O 2.71796 6.16768 8.35428
O 4.99196 1.7134 8.25932
O 1.73888 7.91626 9.80843
O 4.28023 3.50867 10.0789
Si 5.11883 4.51857 5.44148
Si 7.76785 0.0246446 5.622
Si 6.41822 6.69035 9.24764
Si 8.63856 2.22519 9.24022
Si 6.1899 2.14561 7.26297
Si 8.92006 6.48651 7.28341
O 5.9275 5.53375 10.2612
O 8.33188 0.987539 10.198
O 7.39862 2.4694 8.27886
O 10.2241 6.88282 8.0744
O 6.79903 0.94297 6.43596
O 9.27639 5.11819 6.48432
O 5.85372 3.36428 6.2319
O 8.39551 7.52615 6.1847
O 7.63909 6.26542 8.31683
O 9.9588 1.74414 8.4005
O 6.82222 7.97969 10.0363
O 9.17964 3.48823 10.05
Si 10.1535 4.24767 5.5303
Si 12.7056 17.3844 5.69724
Si 11.4561 6.60277 9.11935
Si 13.9776 2.28786 9.21611
Si 11.3313 2.019 7.64025
Si 13.9273 6.39537 7.19388
O 11.0304 5.26633 9.96962
O 13.6438 1.1444 10.2657
O 12.5577 2.52029 8.52832
O 0.201457 6.6265 8.05632
O 11.7635 0.711304 6.83943
O 14.1033 5.15723 6.28404
O 11.0042 3.16247 6.47326
O 13.5104 7.59793 6.20108
O 12.7639 6.41076 8.26389
O 15.0297 2.01174 8.09667
O 11.7103 7.82179 10.0634
O 14.4185 3.6476 9.94094
Si 0.189033 13.0875 5.52729
Si 2.40601 8.71764 5.5827
Si 1.13988 15.3136 9.33619
Si 3.70584 10.886 9.4248
Si 1.16442 10.8917 7.42896
Si 3.65512 15.2946 7.24518
O 0.929149 13.9816 10.1901
O 3.56398 9.64926 10.4835
O 2.29935 11.0158 8.59499
O 4.84548 15.6037 8.20286
O 1.39169 9.50184 6.53775
O 4.04112 13.8444 6.67172
O 1.16575 12.0859 6.31781
O 3.58024 16.4309 6.16084
O 2.34196 15.2828 8.22551
O 4.81555 10.5755 8.33568
O 1.54045 16.5257 10.2687
O 4.16679 12.1678 10.2487
Si 5.03884 13.1411 5.55237
Si 7.58844 8.82414 5.60458
Si 6.09771 15.4154 9.08078
Si 8.70617 11.0525 9.14683
Si 6.11764 10.9352 7.52947
Si 8.71924 15.1434 7.47477
O 5.80999 14.2192 10.1342
O 8.50419 9.88573 10.2779
O 7.27727 11.3367 8.53555
O 9.9055 15.2739 8.547
O 6.86441 9.67927 6.72075
O 9.10027 13.9058 6.5274
O 5.83996 12.0903 6.44107
O 8.54172 16.4133 6.58704
O 7.36667 14.9432 8.16298
O 9.75105 10.4261 7.97785
O 6.34086 16.6847 10.0758
O 9.39913 12.2806 9.84143
Si 9.96722 13.1087 5.47227
Si 12.5699 8.68807 5.47464
Si 11.3185 15.3128 9.16251
Si 13.6387 10.9681 9.17901
Si 11.1719 10.7332 7.24657
Si 13.7459 15.1729 7.37425
O 11.1535 14.2327 10.3268
O 13.5071 9.60289 10.0716
O 12.2746 11.2402 8.38462
O 14.8192 15.4863 8.59799
O 11.7742 9.42681 6.62361
O 14.2719 13.9161 6.50139
O 10.8701 11.9531 6.23115
O 13.7155 16.3758 6.41004
O 12.3684 14.898 8.05747
O 14.7916 10.7373 8.11193
O 11.8395 16.6849 9.83034
O 14.1719 12.2096 10.0224
Si 0.249374 4.38673 11.1086
Si 2.59379 17.2785 11.2705
Si 1.18423 6.61839 14.9349
Si 3.75174 2.42179 14.7737
Si 1.33928 2.24831 12.9087
Si 3.67672 6.37831 13.0294
O 1.01115 5.46259 16.1654
O 3.50224 1.06871 15.7902
O 2.36209 2.674 14.0558
O 4.8009 6.79852 14.0435
O 1.81569 0.882358 12.2413
O 4.25419 5.02035 12.3463
O 1.22915 3.31575 11.7247
O 3.34665 7.5 11.8525
O 2.31773 6.15716 13.8798
O 4.82491 2.12517 13.6703
O 1.59764 7.96413 15.6105
O 4.39872 3.60436 15.6394
Si 5.16026 4.42867 11.0414
Si 7.3851 17.3923 11.0763
Si 6.22836 6.68317 14.7731
Si 8.70418 2.13191 14.7089
Si 6.20851 2.16402 12.9712
Si 8.56635 6.36749 12.8541
O 6.15845 5.53663 15.9086
O 8.45288 0.977114 15.7066
O 7.42685 2.5828 13.987
O 9.69676 6.67131 13.9699
O 6.63446 0.827462 12.2087
O 9.13564 5.23766 11.8585
O 6.04499 3.21768 11.7589
O 8.45927 7.66856 11.8861
O 7.20375 6.04321 13.5699
O 9.84015 1.76718 13.6487
O 6.93842 7.93283 15.3203
O 9.3876 3.37257 15.526
Si 10.0748 4.38615 10.8727
Si 12.6677 0.0375187 11.005
Si 11.1565 6.64429 14.7601
Si 13.7512 2.3767 14.6204
Si 11.2173 2.05613 12.8707
Si 13.7931 6.47663 12.9426
O 10.9071 5.41487 15.7962
O 13.6385 1.12283 15.5691
O 12.3333 2.35126 13.8808
O 14.8811 6.79915 14.1068
O 11.6126 0.862833 11.9073
O 14.408 5.11634 12.2132
O 10.9397 3.30993 11.8981
O 13.6077 7.58118 11.8345
O 12.3464 6.36423 13.7199
O 15.0209 2.19929 13.629
O 11.4718 7.90561 15.667
O 14.2411 3.68201 15.4154
Si 0.0666182 12.9739 11.0803
Si 2.5417 8.5953 11.0751
Si 1.14912 15.1908 14.6029
Si 3.68538 10.9924 14.6822
Si 1.03224 10.6519 12.9744
Si 3.69476 15.0345 13.0122
O 0.998354 14.0179 15.7466
O 3.57683 9.74991 15.6913
O 2.2772 11.0947 13.9448
O 4.80487 15.4038 14.0426
O 1.52673 9.49514 12.0339
O 4.23198 13.7042 12.2108
O 0.652789 11.9016 12.0481
O 3.51491 16.2099 11.889
O 2.26456 14.8869 13.5299
O 4.87058 10.7164 13.6446
O 1.75285 16.5341 15.4116
O 4.00923 12.2868 15.5506
Si 5.19917 13.0643 11.0859
Si 7.68743 8.73328 11.086
Si 6.19161 15.0924 14.7617
Si 8.88912 11.0419 14.663
Si 6.27285 10.8343 12.9598
Si 8.63552 14.8488 12.7813
O 6.0093 13.8817 15.7102
O 8.69982 9.91226 15.8755
O 7.46072 11.1696 14.0205
O 9.79421 15.53 13.7632
O 6.77044 9.46914 12.205
O 9.1599 13.5503 12.0054
O 6.21393 11.9642 11.8457
O 8.25372 16.0699 11.7228
O 7.27124 14.6935 13.7049
O 9.91977 10.6364 13.5572
O 6.78519 16.3402 15.5482
O 9.39594 12.4418 15.3192
Si 10.3097 13.03 10.9409
Si 12.6753 8.61695 11.0036
Si 11.1549 15.3448 14.5648
Si 13.6772 10.9308 14.7672
Si 11.3152 10.8238 12.8317
Si 13.7187 15.1899 12.7936
O 10.7932 14.4421 15.7712
O 13.2865 9.75848 15.7346
O 12.3554 11.2872 13.9429
O 14.8859 15.4437 13.8126
O 11.8885 9.56489 12.1338
O 14.278 13.8962 11.9595
O 11.2201 11.9623 11.6924
O 13.5725 16.3896 11.7718
O 12.2545 14.8799 13.4461
O 14.8496 10.471 13.8441
O 11.852 16.6968 15.3203
O 14.1106 12.2335 15.5759
324
 Atoms. Timestep: 25500
Si 0.160112 4.33831 16.4066
Si 2.85157 17.2698 16.7305
Si 1.14534 6.79613 3.70592
Si 3.81972 2.12815 3.51138
Si 1.16983 2.03085 1.67459
Si 3.8106 6.50823 1.87538
O 0.897785 5.50975 4.71223
O 3.4801 1.02533 4.60033
O 2.46934 2.42843 2.7221
O 4.93504 6.79858 2.87687
O 1.78951 0.636043 1.14438
O 4.28544 5.33515 0.879105
O 0.951088 3.11131 0.565204
O 3.63236 7.80122 0.879058
O 2.38053 6.41095 2.69625
O 4.98821 1.76335 2.40911
O 1.64912 8.01311 4.59612
O 4.39957 3.40816 4.34036
Si 5.1969 4.42897 -0.161881
Si 8.01177 17.3766 0.0746976
Si 6.43428 6.5635 3.58567
Si 8.71559 2.27107 3.75918
Si 6.33369 2.2594 1.75834
Si 8.98523 6.4137 1.80482
O 6.12764 5.28908 4.59145
O 8.30172 1.12108 4.71736
O 7.35533 2.69534 2.97565
O 10.0754 6.85499 2.90588
O 7.20201 1.05177 1.02728
O 9.62363 5.15446 1.07794
O 6.08457 3.42419 0.668164
O 8.66545 7.57495 0.795716
O 7.54685 6.13975 2.50024
O 9.7883 1.88898 2.58934
O 7.08721 7.88223 4.31232
O 9.37386 3.46486 4.58541
Si 10.435 4.25125 16.5569
Si 12.5122 0.0352403 16.5417
Si 11.3905 6.50174 3.79839
Si 13.787 2.12411 3.60401
Si 11.2072 1.97954 1.96875
Si 13.7642 6.41045 1.8994
O 11.0989 5.39774 4.8745
O 13.5826 0.900135 4.60679
O 12.2728 2.44953 3.05636
O 14.9024 6.96958 2.91803
O 11.7026 0.562154 1.2588
O 14.4061 5.24084 0.958461
O 11.2458 3.05997 0.734051
O 13.3516 7.58567 0.95011
O 12.5167 5.93264 2.7372
O 14.8622 1.9459 2.48556
O 12.1168 7.82336 4.52602
O 14.2285 3.51843 4.4419
Si 0.0288058 13.1159 0.129716
Si 2.68145 8.68094 16.4322
Si 0.972792 15.3275 3.43743
Si 3.74401 10.8012 3.58678
Si 1.20659 10.7619 1.73568
Si 3.60041 14.8418 1.89207
O 0.798869 14.3335 4.62227
O 3.59738 9.75273 4.87352
O 2.30456 10.8993 2.92898
O 4.67769 15.1981 3.02461
O 1.6876 9.60824 0.726125
O 4.1618 13.5866 1.13256
O 0.895399 12.1329 0.955858
O 3.64798 16.156 0.849124
O 2.08173 14.8833 2.38991
O 4.96555 10.4581 2.58908
O 1.74442 16.566 4.24979
O 4.35195 12.2151 4.1803
Si 5.11733 12.9233 0.0178968
Si 7.68638 8.66385 16.6718
Si 6.13335 15.2736 3.57485
Si 8.79239 11.1822 3.80211
Si 6.32957 10.7371 1.92105
Si 8.72821 15.177 1.96416
O 6.19426 14.1617 4.69221
O 8.54371 10.0938 4.90493
O 7.43517 11.1496 3.00278
O 9.65618 15.6209 3.13807
O 6.86594 9.31713 1.27537
O 9.23997 13.8068 1.30403
O 5.92308 11.7804 0.778275
O 8.78191 16.3897 0.971642
O 7.25303 15.0212 2.43696
O 10.029 10.8548 2.79948
O 6.49548 16.6508 4.32077
O 9.04954 12.6119 4.41775
Si 10.0837 13.1453 16.6298
Si 12.6372 8.63413 0.0227219
Si 11.164 15.3969 3.7783
Si 13.8714 10.913 3.56634
Si 11.2946 10.8841 1.75197
Si 13.5374 15.1656 1.78725
O 11.0923 14.1307 4.87758
O 13.5829 9.91215 4.76456
O 12.4636 11.0573 2.76342
O 14.6983 15.6786 2.74925
O 11.6366 9.53346 0.895989
O 14.0378 13.8027 1.04985
O 11.0722 12.0301 0.604817
O 13.5204 16.353 0.653503
O 12.1519 15.1135 2.60047
O 14.9361 10.3886 2.46832
O 11.7612 16.6219 4.57991
O 14.3725 12.2823 4.22411
Si -0.00395743 4.50316 5.44164
Si 2.51734 -0.00739987 5.36473
Si 1.27387 6.59594 9.31774
Si 3.64789 2.20086 9.1448
Si 1.14938 2.11448 7.15252
Si 3.726 6.40729 7.39972
O 1.05396 5.45338 10.4414
O 3.4153 1.08219 10.2471
O 2.32877 2.24299 8.27223
O 4.87538 6.66509 8.41723
O 1.48441 0.976603 6.16614
O 4.1975 5.09505 6.49608
O 0.866148 3.42747 6.25764
O 3.41103 7.65106 6.34991
O 2.33838 6.21016 8.17937
O 4.88881 1.94117 8.22323
O 1.61642 8.04563 10.0897
O 4.03347 3.60822 9.90822
Si 5.2069 4.28738 5.46786
Si 7.33228 17.4131 5.3978
Si 6.27885 6.58093 9.20755
Si 8.76802 2.21745 9.27734
Si 6.22818 2.10459 7.40706
Si 8.78828 6.61806 7.30738
O 6.04132 5.43399 10.2689
O 8.56499 1.02941 10.3685
O 7.45128 2.37606 8.43492
O 9.9422 6.9939 8.41346
O 6.48429 0.78903 6.46275
O 9.23522 5.22218 6.65152
O 5.99547 3.23546 6.37957
O 8.5472 7.87486 6.39086
O 7.46049 6.28893 8.1731
O 9.80383 1.70787 8.18241
O 6.78847 7.84162 10.0827
O 9.21714 3.44555 10.0067
Si 10.1661 4.32752 5.61892
Si 12.7761 17.3512 5.52503
Si 11.273 6.73561 9.23278
Si 13.9226 2.11476 9.10621
Si 11.2485 2.01445 7.54913
Si 13.843 6.59505 7.40914
O 10.8603 5.53241 10.1357
O 13.7187 1.00894 10.2948
O 12.4424 2.39902 8.55533
O -0.156086 6.8196 8.55252
O 12.1229 0.872387 6.6756
O 14.202 5.37193 6.44294
O 10.8873 3.18233 6.4491
O 13.6649 7.9925 6.6589
O 12.4226 6.44774 8.11274
O 14.8916 1.84131 7.92466
O 11.7217 7.97344 10.1788
O 14.5832 3.33189 10.0395
Si 0.156609 13.0683 5.4141
Si 2.62079 8.76218 5.66066
Si 1.24351 15.2147 9.29365
Si 3.5415 11.1389 9.15565
Si 1.03656 10.7663 7.32739
Si 3.60846 15.1416 7.2134
O 0.881249 14.1237 10.3335
O 3.28081 10.0019 10.2426
O 2.12244 11.2705 8.41767
O 4.84699 15.5549 8.3403
O 1.72447 9.43113 6.75761
O 4.08806 13.9648 6.16117
O 1.04698 11.8491 6.08721
O 3.29002 16.4894 6.39031
O 2.23636 14.8627 8.00197
O 4.58172 10.7497 8.02205
O 1.87014 16.4154 10.1419
O 4.06635 12.4628 9.8693
Si 5.17115 13.1268 5.31338
Si 7.66009 8.88459 5.48742
Si 6.19243 15.483 9.22256
Si 8.53982 10.9531 9.19096
Si 5.96455 10.8456 7.19597
Si 8.78092 15.3158 7.38473
O 5.88064 14.2439 10.2101
O 8.19934 9.91577 10.3548
O 7.15758 11.1711 8.26296
O 10.0031 15.7048 8.31584
O 6.45022 9.54536 6.43749
O 9.30399 13.9594 6.71186
O 5.84907 12.1387 6.26084
O 8.27735 16.339 6.22813
O 7.46983 15.1316 8.36494
O 9.61396 10.3298 8.20446
O 6.57678 16.8626 9.99824
O 9.19301 12.1746 9.93494
Si 10.0389 13.0661 5.60254
Si 12.7836 8.82103 5.63437
Si 11.3432 15.2886 9.14576
Si 13.6233 11.0819 9.17581
Si 10.976 10.6197 7.42481
Si 13.8843 15.0729 7.3679
O 10.8403 14.1202 10.1037
O 13.5191 9.91956 10.2817
O 12.2101 11.0399 8.4035
O 14.9504 15.4999 8.41439
O 11.5568 9.4784 6.52223
O 14.3692 13.7239 6.59043
O 10.7361 11.8031 6.29004
O 13.6889 16.259 6.24981
O 12.4325 14.8075 8.0877
O 14.6933 10.8611 7.9929
O 11.9695 16.508 9.97126
O 14.0883 12.4478 9.94362
Si 0.196541 4.29512 11.1372
Si 2.77956 17.325 11.1521
Si 1.37737 6.48506 14.6138
Si 3.72971 2.1556 14.8669
Si 1.20753 1.9936 12.9717
Si 3.76674 6.57333 12.7915
O 1.16304 5.26031 15.655
O 3.76571 1.01772 15.9848
O 2.3231 2.23299 14.157
O 4.77314 6.94465 13.9866
O 1.82416 0.645191 12.3143
O 4.20609 5.24158 12.0162
O 1.21258 3.24887 11.9204
O 3.50579 7.6541 11.7045
O 2.30047 6.2253 13.3873
O 4.8292 1.78376 13.7388
O 1.91017 7.76256 15.4234
O 4.18996 3.5306 15.5137
Si 5.09845 4.36315 10.9749
Si 7.57649 17.4601 11.0515
Si 6.1514 6.7085 14.6626
Si 8.80116 2.25398 14.7103
Si 6.18744 2.04861 12.9714
Si 8.7594 6.41885 12.8599
O 6.08542 5.35649 15.4778
O 8.78879 0.976094 15.6752
O 7.19637 2.4326 14.0767
O 9.89063 6.74637 13.9904
O 6.76264 0.787259 12.1898
O 9.28429 5.17036 12.0164
O 5.92992 3.195 11.808
O 8.64258 7.58262 11.7197
O 7.30453 6.40114 13.5765
O 9.82897 2.03482 13.4786
O 6.76438 7.88194 15.6496
O 9.3182 3.50328 15.5791
Si 10.1317 4.2981 10.9713
Si 12.7672 17.3646 11.0824
Si 11.3 6.59049 14.6246
Si 13.7598 2.20635 14.7944
Si 11.2423 2.16757 12.8046
Si 13.8657 6.44752 12.8319
O 11.3032 5.32258 15.7204
O 13.3537 1.14831 15.8661
O 12.4365 2.45643 13.892
O 15.0139 6.75413 13.9302
O 11.8106 0.808469 12.0238
O 14.2337 5.07156 12.1205
O 11.0011 3.34282 11.7859
O 13.737 7.56819 11.7056
O 12.427 6.28802 13.4883
O 14.8599 1.81012 13.6831
O 11.8341 7.89247 15.3953
O 14.1983 3.63976 15.452
Si 15.0391 13.042 11.0941
Si 2.49066 8.77726 11.1081
Si 1.29139 15.3218 14.8231
Si 3.64467 11.0043 14.6983
Si 1.07049 10.7874 12.955
Si 3.83811 15.1241 13.0376
O 0.89765 14.2892 15.9295
O 3.45049 9.69781 15.6444
O 2.24988 11.3303 13.954
O 4.99478 15.3472 14.0436
O 1.78934 9.43191 12.3716
O 4.18109 13.8571 12.0821
O 0.78833 11.8753 11.8021
O 3.64692 16.3555 12.0526
O 2.49771 14.851 13.901
O 4.75436 10.8004 13.519
O 1.93371 16.6216 15.4933
O 4.14738 12.2633 15.5293
Si 5.10283 13.1111 10.9607
Si 7.68792 8.72072 11.1386
Si 6.3424 15.2547 14.8527
Si 8.68312 11.1604 14.7714
Si 6.29725 10.8494 12.8359
Si 8.8231 15.2082 12.7804
O 6.15825 13.9488 15.8819
O 8.29962 9.90184 15.7731
O 7.35419 11.4443 13.8983
O 9.97773 15.6315 13.8088
O 6.77225 9.41809 12.2666
O 9.23559 13.9055 11.9741
O 6.04977 12.0082 11.6691
O 8.37248 16.3245 11.8186
O 7.52074 14.9941 13.7806
O 9.85249 10.769 13.6345
O 6.97572 16.4012 15.8153
O 9.13867 12.4159 15.614
Si 10.1196 13.0129 10.9009
Si 12.7333 8.71169 11.1072
Si 11.2202 15.3327 14.6923
Si 13.701 11.0158 14.8177
Si 11.2741 10.9323 12.9275
Si 13.8332 15.1454 12.9919
O 10.9561 14.314 15.8967
O 13.5205 9.76887 15.879
O 12.3932 11.4281 13.9727
O 14.9936 15.4752 14.0132
O 11.873 9.54138 12.1831
O 14.121 13.765 12.2319
O 10.9167 11.901 11.7187
O 13.5954 16.2858 11.8957
O 12.3956 14.7831 13.7834
O 14.8384 10.5742 13.7839
O 11.5798 16.7832 15.3753
O 14.2677 12.312 15.6063
324
 Atoms. Timestep: 26000
Si 0.341831 4.29622 16.364
Si 2.46091 17.4957 0.1561
Si 1.31116 6.6554 3.70631
Si 3.80804 2.20054 3.72681
Si 1.36109 2.29794 1.93447
Si 3.75062 6.52516 1.70246
O 1.00908 5.58688 4.84467
O 3.50935 1.06264 4.75291
O 2.49984 2.64081 2.88367
O 5.09397 6.78247 2.64005
O 1.73104 0.87676 1.32553
O 3.89416 5.22528 0.755451
O 1.16714 3.43048 0.846077
O 3.61268 7.80769 0.763986
O 2.67946 6.38305 2.77982
O 4.93954 1.92358 2.70498
O 1.62571 7.98716 4.51134
O 4.38119 3.39873 4.55498
Si 4.8339 4.34663 16.3759
Si 7.64737 0.205776 0.0509672
Si 6.35307 6.64146 3.63386
Si 8.70526 2.38142 3.70244
Si 6.18627 2.37942 1.77734
Si 8.92165 6.43378 1.85922
O 6.02861 5.41943 4.62598
O 8.31507 1.04087 4.5062
O 7.50768 2.82851 2.72071
O 10.1595 6.87278 2.78635
O 6.71784 1.11203 0.923459
O 9.32376 5.02342 1.08442
O 5.68142 3.41822 0.785861
O 8.64793 7.54474 0.726719
O 7.65277 6.23033 2.77051
O 10.028 2.18871 2.83643
O 6.73065 7.86341 4.62836
O 9.12635 3.64877 4.677
Si 10.3014 4.41103 0.00356742
Si 12.4738 17.3398 0.262007
Si 11.4874 6.61844 3.61796
Si 13.9176 2.47854 3.76149
Si 11.3167 2.21342 1.94212
Si 14.0589 6.5587 1.6788
O 11.0881 5.37314 4.53239
O 13.6094 1.26949 4.778
O 12.6124 2.69316 2.84731
O 0.0969691 6.7416 2.71928
O 11.5712 0.770475 1.28517
O 14.5518 5.30666 0.704189
O 11.2385 3.23608 0.671456
O 13.7069 7.77847 0.604222
O 12.7735 6.27852 2.63238
O 15.1071 2.11005 2.744
O 11.9826 7.82132 4.50415
O 14.1682 3.81562 4.60361
Si 0.0851749 13.0646 0.0367875
Si 2.52473 8.86381 16.5051
Si 1.12584 15.188 3.72364
Si 3.7958 10.8541 3.68415
Si 1.14623 10.7634 1.89715
Si 3.54195 15.0274 1.86638
O 0.980775 14.0864 4.83483
O 3.53182 9.76736 4.79235
O 2.53212 11.0652 2.71124
O 4.62951 15.3543 2.97072
O 1.44613 9.392 1.03002
O 4.09013 13.8548 0.970654
O 0.919615 11.9872 0.898885
O 3.33847 16.2721 0.874296
O 2.15705 14.7272 2.61209
O 5.0825 10.3661 2.80854
O 1.61847 16.5197 4.45467
O 4.09005 12.1729 4.48854
Si 5.11405 13.0601 -0.00540714
Si 7.75215 8.69537 0.0646703
Si 6.1505 15.3119 3.62367
Si 8.78571 10.9304 3.79687
Si 6.39789 10.8921 1.92237
Si 8.63613 15.2309 1.85385
O 6.07152 13.9838 4.65482
O 8.39825 9.88088 4.9074
O 7.55102 11.367 2.87361
O 9.76377 15.5789 2.9594
O 6.95262 9.57149 1.18471
O 9.08421 13.9194 0.996639
O 5.90504 11.9904 0.836793
O 8.4715 16.5875 0.911814
O 7.23864 14.9615 2.5517
O 9.89195 10.3563 2.74045
O 6.62356 16.5094 4.47158
O 9.55073 12.2127 4.55379
Si 9.94502 13.0228 0.0413244
Si 12.68 8.74241 -0.0930336
Si 11.1401 15.5214 3.75722
Si 13.6523 10.8462 3.76639
Si 11.2023 10.6492 1.82263
Si 13.5652 14.9562 1.88615
O 11.1033 14.293 4.82128
O 13.5403 9.80403 5.00705
O 12.3973 10.8448 2.84768
O 14.7359 15.2337 2.9755
O 11.5905 9.37843 0.929149
O 14.1293 13.8773 0.906747
O 10.9264 11.9009 0.849414
O 13.4057 16.3348 1.04688
O 12.1528 14.8829 2.58781
O -0.161857 10.6135 2.80229
O 11.787 16.8095 4.32986
O 14.0473 12.361 4.30487
Si 0.102427 4.48739 5.61889
Si 2.50734 17.4441 5.44904
Si 1.22953 6.3082 9.17247
Si 3.67789 2.10596 9.31137
Si 1.11854 2.04188 7.42933
Si 3.66377 6.3519 7.2975
O 1.12496 5.13958 10.2068
O 3.44107 0.797872 10.1494
O 2.34498 2.44728 8.40668
O 4.73515 6.598 8.43704
O 1.58504 0.634995 6.63049
O 4.1996 5.1141 6.49626
O 0.947642 3.27103 6.39998
O 3.58981 7.52863 6.24963
O 2.21643 6.04217 7.9361
O 4.83031 1.94922 8.17035
O 1.86885 7.68734 9.85495
O 4.06165 3.38998 10.1562
Si 5.24668 4.31904 5.50148
Si 7.51821 0.0167422 5.46011
Si 6.18115 6.41455 9.05923
Si 8.74812 2.28307 9.20891
Si 6.20987 2.16249 7.41852
Si 8.75647 6.57824 7.42469
O 6.09021 5.10185 10.0115
O 8.62305 1.11565 10.3035
O 7.3153 2.40824 8.51195
O 9.81066 7.05339 8.54446
O 6.75859 0.763552 6.65073
O 9.52603 5.32907 6.68696
O 6.16575 3.325 6.32377
O 8.5984 7.69576 6.24091
O 7.31495 6.13958 7.891
O 9.90904 2.02925 8.07051
O 6.55734 7.64659 10.0537
O 9.336 3.55868 9.93429
Si 10.2537 4.45132 5.51859
Si 12.6678 0.162667 5.48394
Si 11.2204 6.76634 9.26496
Si 13.7642 2.12701 9.23306
Si 11.2729 2.22268 7.33977
Si 13.6965 6.46594 7.53632
O 10.9431 5.51656 10.2698
O 13.501 0.9889 10.2845
O 12.3297 2.47945 8.50094
O 14.8693 6.74262 8.71362
O 11.7455 0.891872 6.57519
O 14.3113 5.25365 6.76661
O 11.185 3.44584 6.28838
O 13.5101 7.81093 6.6703
O 12.3423 6.30459 8.3069
O 14.8847 1.72836 8.22373
O 11.6429 8.2239 9.86925
O 14.4337 3.40564 10.0068
Si 14.9971 13.0905 5.49694
Si 2.64166 8.69383 5.54742
Si 1.25506 15.1874 9.04083
Si 3.53696 11.0593 9.11353
Si 1.07625 10.7525 7.21176
Si 3.75815 15.1886 7.32469
O 1.07203 14.1694 10.3089
O 3.04049 9.8834 10.1161
O 2.28691 11.4292 8.12611
O 4.84765 15.7498 8.33158
O 1.70124 9.49324 6.61556
O 4.48151 14.0018 6.58228
O 0.623478 11.8719 6.13594
O 3.40868 16.3377 6.25979
O 2.44636 14.8389 8.13014
O 4.7401 10.6629 8.04274
O 1.63241 16.5031 9.82975
O 4.22708 12.1651 10.055
Si 5.11484 12.9719 5.4933
Si 7.61364 8.69563 5.5856
Si 6.37101 15.4823 9.06503
Si 8.65989 10.7433 9.09637
Si 6.15328 10.7266 7.32407
Si 8.80092 15.2032 7.26185
O 6.09207 14.1868 10.007
O 8.35647 9.39072 9.80052
O 7.30203 11.217 8.36094
O 9.99872 15.5604 8.23883
O 6.63723 9.26084 6.75799
O 9.19683 13.7426 6.59788
O 5.98865 11.6803 6.07198
O 8.52692 16.4293 6.17657
O 7.3971 15.1384 7.9717
O 9.7511 10.7142 7.95419
O 6.7885 16.662 9.94145
O 9.07374 11.9462 10.1229
Si 10.3494 13.0971 5.57012
Si 12.6819 8.7376 5.7511
Si 11.2574 15.3496 9.22512
Si 13.8468 11.0237 9.36948
Si 11.2787 10.8354 7.45707
Si 13.6738 15.1951 7.32125
O 10.7693 14.1248 10.1325
O 13.6664 9.92903 10.4816
O 12.327 10.9419 8.63266
O 14.9933 15.4423 8.22525
O 11.6796 9.5418 6.56528
O 14.1096 13.909 6.49271
O 11.2794 12.1058 6.46705
O 13.4481 16.4762 6.39382
O 12.4576 14.9834 8.28274
O 14.9774 10.6274 8.28768
O 11.723 16.5949 10.1327
O 14.2329 12.4811 9.94709
Si 0.111071 4.27116 11.1249
Si 2.46466 17.2579 10.9145
Si 1.33026 6.59471 14.5157
Si 3.70229 2.09978 14.7285
Si 1.11672 1.86901 12.8997
Si 3.93886 6.65067 12.6775
O 1.13469 5.32596 15.4044
O 3.402 1.12143 15.9421
O 2.32228 2.0565 13.8381
O 5.16624 6.91681 13.7381
O 1.52393 0.698113 11.8634
O 4.41082 5.33519 11.9398
O 0.687602 3.17301 12.0874
O 3.66895 7.95433 11.8539
O 2.52111 6.45588 13.4064
O 4.89403 1.73406 13.822
O 1.83324 7.86992 15.4071
O 3.95221 3.55101 15.318
Si 5.11575 4.27265 11.0588
Si 7.69232 0.00718835 11.0498
Si 6.3572 6.54871 14.8246
Si 8.88285 2.39023 14.6769
Si 6.24355 2.03192 12.94
Si 8.80505 6.32384 12.9623
O 5.82461 5.31702 15.5776
O 8.54052 1.29289 15.7773
O 7.47371 2.5564 13.8742
O 10.0518 6.70265 13.8663
O 6.82618 0.783537 12.1419
O 9.23528 5.04226 12.1161
O 5.73609 3.13552 11.8599
O 8.44662 7.62234 12.0415
O 7.55957 6.1193 13.8424
O 9.95041 1.94136 13.6441
O 6.76644 7.83452 15.7005
O 9.38829 3.64046 15.4449
Si 10.1801 4.34675 11.0284
Si 12.6941 17.3653 11.1205
Si 11.4185 6.55423 14.6288
Si 13.7353 2.06374 14.8441
Si 11.3792 2.19419 12.9233
Si 13.831 6.51144 12.8587
O 11.1085 5.53562 15.8329
O 13.3274 0.995948 15.957
O 12.4285 2.50229 14.0682
O 14.9924 6.94534 13.8544
O 11.8639 0.856106 12.2022
O 14.3619 5.27501 11.985
O 11.1226 3.38886 11.8945
O 13.3637 7.71252 11.8654
O 12.5352 6.04477 13.6687
O 14.8004 1.45956 13.7739
O 11.9571 7.9125 15.2678
O 14.5316 3.27089 15.4966
Si 0.127356 13.0908 11.0212
Si 2.5081 8.74362 10.9979
Si 1.31256 15.2946 14.8536
Si 3.67012 11.1202 14.5363
Si 1.14041 10.7799 12.7696
Si 3.88453 15.1123 12.8967
O 1.01091 14.1755 15.9715
O 3.22835 10.0965 15.7066
O 2.24441 11.3664 13.7578
O 4.9925 15.7041 13.8896
O 1.54342 9.38866 12.0546
O 4.41341 13.9647 11.9804
O 0.833932 11.8226 11.6742
O 3.28595 16.2428 11.8932
O 2.55238 14.9198 13.8979
O 4.78472 10.6576 13.4934
O 1.57183 16.7268 15.6019
O 4.19417 12.3527 15.3867
Si 5.22346 13.0893 10.8805
Si 7.59016 8.5235 10.9258
Si 6.23029 15.4024 14.7709
Si 8.66954 10.957 14.6934
Si 6.2011 10.766 12.7263
Si 8.75099 15.1026 12.9286
O 5.89298 14.2025 15.8157
O 8.55143 9.77447 15.7426
O 7.18817 10.9291 13.9613
O 9.92755 15.4851 13.9644
O 6.74588 9.55302 11.8821
O 9.10211 13.7438 12.0607
O 6.11595 12.1106 11.8128
O 8.59505 16.3259 11.8123
O 7.42157 14.9361 13.7567
O 9.76605 10.7955 13.5422
O 6.80483 16.6707 15.5214
O 9.02768 12.1882 15.4982
Si 9.98161 12.9909 10.9949
Si 12.6279 8.8362 11.0568
Si 11.3373 15.209 14.8283
Si 13.6563 11.1395 14.6836
Si 11.2017 10.9488 12.8237
Si 13.9095 15.0941 12.9755
O 10.8919 13.9775 15.7872
O 13.3581 9.98615 15.7376
O 12.3236 11.2454 13.876
O 0.0576497 15.3706 13.9004
O 11.6666 9.55514 12.1114
O 14.2918 13.7649 12.1543
O 11.0337 12.056 11.7539
O 13.5329 16.3204 11.9679
O 12.5539 14.8589 13.7582
O 14.8894 10.5326 13.6959
O 11.6875 16.417 15.7092
O 14.2611 12.3242 15.4661
324
 Atoms. Timestep: 26500
Si 0.184381 4.31111 16.5071
Si 2.55958 0.0735052 0.0113463
Si 1.35849 6.68298 3.84418
Si 3.75464 2.10817 3.86557
Si 1.25815 2.19174 1.94672
Si 3.7943 6.42328 1.89196
O 0.993669 5.36964 4.67097
O 3.36126 0.948783 4.90018
O 2.33122 2.38523 3.07889
O 5.23962 6.49245 2.65893
O 1.66785 0.983363 0.942163
O 3.97112 5.08712 0.974554
O 1.02143 3.45502 0.982533
O 3.47268 7.68358 0.930638
O 2.64893 6.47183 3.03811
O 4.89219 1.65823 2.73143
O 1.49305 7.99039 4.6882
O 4.28876 3.37786 4.68148
Si 4.99458 4.32029 16.4728
Si 7.60185 0.0584729 16.4407
Si 6.3721 6.5429 3.82288
Si 8.67247 2.38059 3.49164
Si 6.14307 2.0776 1.8341
Si 8.88146 6.67743 1.99109
O 6.03465 5.43353 4.93024
O 8.36735 1.20102 4.5742
O 7.30862 2.59795 2.66619
O 10.2347 6.9723 2.71372
O 6.61663 0.837701 0.954733
O 9.10761 5.4045 1.05615
O 5.78691 3.29009 0.794314
O 8.36823 7.90088 1.058
O 7.7352 6.27063 3.03807
O 9.80508 1.87123 2.45376
O 6.5558 7.90652 4.53721
O 9.1894 3.58263 4.31855
Si 9.96157 4.56077 16.5338
Si 12.6867 17.3569 0.046851
Si 11.4835 6.49804 3.59438
Si 13.7178 2.3004 3.68037
Si 11.2274 2.23153 1.69764
Si 14.0019 6.49183 1.75496
O 11.0276 5.30602 4.54907
O 13.5377 1.25583 4.82288
O 12.3706 2.54151 2.85205
O 0.230841 6.82114 2.68014
O 11.7979 1.01327 0.884997
O 14.3337 5.28848 0.853337
O 10.8963 3.56053 0.852561
O 13.6751 7.7257 0.874229
O 12.7117 6.21399 2.64622
O 14.9581 1.96068 2.76094
O 11.9521 7.7598 4.49031
O 14.1987 3.63047 4.55643
Si 0.207572 13.1457 16.5572
Si 2.71396 8.64273 16.5936
Si 1.27953 15.1522 3.88272
Si 3.68702 11.1083 3.60597
Si 1.21855 10.8707 1.76214
Si 3.67679 15.1517 1.89957
O 0.85074 13.9282 4.95446
O 3.39206 9.68923 4.42994
O 2.30514 11.3618 2.81502
O 5.02305 15.5017 2.84115
O 1.86014 9.67207 0.956461
O 3.99543 13.9571 0.888143
O 0.989313 12.1285 0.884359
O 3.27028 16.4685 1.05166
O 2.52489 14.7751 2.90946
O 4.85134 10.9537 2.62714
O 1.73417 16.504 4.63011
O 4.21918 12.2193 4.66486
Si 4.95053 13.1757 16.4049
Si 7.54346 8.82404 0.046547
Si 6.34287 15.3665 3.82299
Si 8.66474 10.9785 3.63021
Si 6.22221 11.0761 1.7718
Si 8.77047 15.2568 1.82724
O 6.04952 14.2162 4.91012
O 8.23079 9.8503 4.7585
O 7.42172 11.4105 2.72008
O 10.0951 15.5577 2.67557
O 6.69811 9.89564 0.863453
O 9.08006 13.918 1.05546
O 5.8849 12.2803 0.812937
O 8.45381 16.3584 0.70872
O 7.56039 15.092 2.83219
O 9.79418 10.4267 2.71206
O 6.65287 16.6642 4.59731
O 9.11376 12.36 4.34226
Si 9.87292 12.9188 0.125963
Si 12.8302 8.71009 16.5025
Si 11.2874 15.3487 3.61856
Si 13.7298 10.8634 3.60395
Si 11.2278 10.6728 1.89676
Si 13.8161 15.1211 1.93245
O 10.9475 14.1788 4.61786
O 13.5818 9.64958 4.63762
O 12.3166 11.1522 2.91428
O 15.0335 15.2985 2.93834
O 11.7824 9.476 0.984568
O 14.2131 13.9333 0.979991
O 10.6623 11.8375 0.931227
O 13.606 16.5096 1.00245
O 12.5296 14.8067 2.72037
O 14.882 10.6335 2.46346
O 11.8417 16.6535 4.32159
O 14.1177 12.1685 4.45385
Si 0.136923 4.2917 5.59531
Si 2.57135 17.3319 5.69334
Si 1.19563 6.49498 9.23579
Si 3.78399 2.27562 9.16113
Si 1.21958 2.00851 7.49654
Si 3.69361 6.5456 7.34071
O 0.898262 5.1897 10.1635
O 3.59099 1.02802 10.2463
O 2.31599 2.51956 8.50279
O 4.83768 6.93679 8.51344
O 1.70668 0.65613 6.82941
O 4.26996 5.19899 6.69153
O 1.08826 3.19328 6.26595
O 3.46338 7.76903 6.32882
O 2.21814 6.30621 7.9798
O 4.92589 1.72665 8.18421
O 1.69001 7.69423 10.1892
O 4.40536 3.5607 9.91185
Si 5.07308 4.34303 5.66746
Si 7.6517 0.0954166 5.45336
Si 6.29864 6.70673 9.10147
Si 8.78561 2.22174 9.24154
Si 6.362 2.08602 7.5348
Si 8.73899 6.44537 7.28875
O 6.20186 5.45159 10.1536
O 8.81142 1.01568 10.2743
O 7.38854 2.55472 8.614
O 9.78528 6.83174 8.43179
O 6.91142 0.852186 6.75696
O 9.37568 5.16053 6.54654
O 5.96042 3.26825 6.51424
O 8.52811 7.69831 6.23187
O 7.34244 6.28105 8.00303
O 9.75778 1.89614 8.01564
O 6.91611 7.85994 9.91252
O 9.34377 3.55275 10.0019
Si 10.1198 4.31881 5.40588
Si 12.6893 0.0229233 5.43989
Si 11.1995 6.58663 9.18281
Si 13.6869 2.00249 9.07427
Si 11.1038 1.99122 7.12727
Si 13.7858 6.42173 7.4455
O 10.992 5.42968 10.2563
O 13.4446 0.723413 9.95717
O 12.4537 2.3584 8.11979
O 14.8023 6.85849 8.57947
O 11.5718 0.618029 6.46017
O 14.3689 5.09012 6.66565
O 11.0276 3.10124 6.08209
O 13.6173 7.63697 6.47203
O 12.3756 6.14725 8.16
O 14.932 1.74536 8.1405
O 11.6227 7.93756 10.007
O 14.114 3.22041 10.0043
Si 14.8521 12.9893 5.52096
Si 2.6215 8.81498 5.43734
Si 1.15053 15.3081 8.98991
Si 3.68795 11.086 9.20361
Si 1.14136 10.8236 7.51894
Si 3.75401 15.1069 7.53119
O 0.926495 14.2023 10.2026
O 3.47145 9.77992 10.0682
O 2.30467 11.4073 8.48702
O 4.81593 15.5304 8.61378
O 1.79161 9.75475 6.48466
O 4.30381 13.7145 6.74559
O 0.471256 11.9716 6.58561
O 3.57821 16.389 6.51568
O 2.22722 14.7779 7.98626
O 4.80543 10.7661 8.09188
O 1.82186 16.6378 9.65258
O 4.26056 12.3602 10.0336
Si 5.24934 13.0357 5.60932
Si 7.42681 8.70863 5.55728
Si 6.25298 15.3581 9.30605
Si 8.71033 10.8467 9.27898
Si 6.25671 10.7267 7.38506
Si 8.52687 15.1958 7.2901
O 6.09309 14.2063 10.3738
O 8.61656 9.66825 10.3349
O 7.39175 11.0314 8.4844
O 9.62161 15.7357 8.40194
O 6.55528 9.32482 6.69801
O 9.20342 13.9424 6.5119
O 6.19269 11.8862 6.28464
O 8.59796 16.3296 6.07131
O 7.24511 14.8897 8.11674
O 10.0084 10.5672 8.31279
O 6.99473 16.6088 10.0283
O 9.16387 12.1391 10.1457
Si 10.0817 13.091 5.39675
Si 12.6905 8.62887 5.56778
Si 11.026 15.4846 9.15941
Si 13.7843 10.8804 9.31316
Si 11.19 10.7818 7.30309
Si 13.5917 15.2502 7.24656
O 10.8664 14.1232 10.0375
O 13.3699 9.79367 10.4439
O 12.5622 11.0292 8.24855
O 14.7971 15.5533 8.30039
O 11.5692 9.44347 6.43023
O 13.8318 13.8858 6.43939
O 10.8583 11.9105 6.21601
O 13.5865 16.3378 6.1375
O 12.1757 15.2758 8.02151
O 15.0389 10.2764 8.43371
O 11.4522 16.5863 10.1567
O 14.3895 12.2207 9.92744
Si -0.134183 4.22796 10.9132
Si 2.50802 17.3619 10.8781
Si 1.32898 6.60546 14.6486
Si 3.80441 2.14279 14.6146
Si 1.14575 1.97937 12.7618
Si 3.93057 6.49141 12.7174
O 1.11798 5.35254 15.6281
O 3.61031 0.987614 15.7688
O 2.35419 2.24626 13.9015
O 5.05536 6.79296 13.8187
O 1.65771 0.846346 11.8271
O 4.30388 5.2007 11.8467
O 0.787661 3.30642 11.8885
O 3.71625 7.81142 11.7023
O 2.55602 6.24578 13.6058
O 5.04424 1.80908 13.6596
O 1.83132 7.83678 15.5125
O 4.1957 3.55479 15.3236
Si 5.26011 4.44213 10.872
Si 7.89941 17.4441 11.0406
Si 6.27204 6.64366 14.8784
Si 8.63894 2.3211 14.7437
Si 6.32807 2.07206 12.7628
Si 8.88414 6.45851 12.9914
O 5.87189 5.39164 15.8031
O 8.51495 1.12754 15.847
O 7.39804 2.55513 13.8379
O 10.1654 7.02743 13.7623
O 6.887 0.778552 12.0342
O 9.25745 5.16737 12.1878
O 6.08194 3.23364 11.7045
O 8.54368 7.53336 11.8888
O 7.6912 6.39554 14.1399
O 9.81008 1.92289 13.7382
O 6.4956 7.96217 15.6916
O 9.12426 3.6523 15.575
Si 10.1224 4.40306 11.1021
Si 12.5284 17.3417 11.0735
Si 11.4817 6.70943 14.6664
Si 13.7343 2.17488 14.6758
Si 11.2183 2.06813 12.9457
Si 13.8453 6.42676 12.8704
O 10.8667 5.55271 15.6298
O 13.5637 0.921406 15.6734
O 12.3106 2.4704 14.0358
O 0.00918762 6.77042 13.7888
O 11.7625 0.771991 12.1718
O 14.1113 5.1475 11.8999
O 11.0621 3.3142 11.9018
O 13.4178 7.66905 11.917
O 12.6175 6.12083 13.7696
O 14.873 1.70667 13.577
O 12.0339 7.91355 15.4707
O 14.3655 3.36925 15.5583
Si 0.187045 13.1062 11.031
Si 2.62466 8.72702 10.9844
Si 1.30446 15.3441 14.6987
Si 3.73464 10.8831 14.7162
Si 1.33337 10.8403 12.8279
Si 3.66516 15.119 12.7498
O 1.02988 14.2214 15.796
O 3.65416 9.70401 15.7544
O 2.39091 11.1267 13.9526
O 4.71536 15.7989 13.7938
O 1.70152 9.55125 11.994
O 4.18699 13.8094 12.1032
O 1.26453 12.088 11.6834
O 3.30254 16.2281 11.6863
O 2.38019 14.8764 13.5904
O 4.75901 10.5047 13.4918
O 1.83441 16.6162 15.4844
O 4.21706 12.1217 15.5266
Si 5.16984 13.1163 11.0727
Si 7.71833 8.60339 11.1118
Si 6.09532 15.5295 14.617
Si 8.65704 10.9003 14.6639
Si 6.14855 10.6194 12.8171
Si 8.82652 15.1565 13.0905
O 5.65946 14.3302 15.5229
O 8.52208 9.61151 15.6753
O 7.30168 11.0371 13.858
O 9.92245 15.3895 14.2302
O 6.59554 9.29366 12.0158
O 9.47642 13.9658 12.2407
O 5.93786 11.8484 11.6848
O 8.58252 16.423 12.0707
O 7.36675 14.964 13.7023
O 9.91925 10.7932 13.7192
O 6.77038 16.8138 15.2824
O 8.94264 12.2819 15.5825
Si 10.1196 13.0498 11.0016
Si 12.4977 8.72218 11.1512
Si 11.3657 15.0435 14.8724
Si 13.8921 11.0593 14.7281
Si 11.229 10.9594 12.8508
Si 13.8693 15.1009 12.8631
O 11.013 13.7659 15.8444
O 13.75 9.8448 15.8224
O 12.4687 11.1803 13.8825
O 14.9835 15.6246 13.9237
O 11.5765 9.59833 12.1277
O 14.3819 13.8416 12.0911
O 11.2095 12.0876 11.6696
O 13.4339 16.2272 11.8868
O 12.5416 14.8232 13.7859
O 14.9881 10.6987 13.6202
O 11.8679 16.29 15.7605
O 14.3987 12.3628 15.4767
324
 Atoms. Timestep: 27000
Si 0.149447 4.35917 16.4606
Si 2.4859 0.0865303 16.3869
Si 1.44501 6.50172 3.83046
Si 3.59529 2.21493 3.67323
Si 1.12447 2.12487 1.82273
Si 3.86504 6.26255 1.8347
O 0.978477 5.48384 4.96278
O 3.67978 1.00146 4.76748
O 2.15774 2.34883 3.13417
O 5.16817 6.76647 2.69162
O 1.64119 0.982243 0.866004
O 4.31319 5.05356 0.956507
O 1.03714 3.45723 0.975348
O 3.40071 7.43788 0.832019
O 2.70288 5.96483 2.94379
O 4.61906 1.86099 2.41285
O 1.89059 7.92761 4.48959
O 4.08292 3.4817 4.52747
Si 5.19611 4.24736 16.4703
Si 7.58365 17.3561 16.471
Si 6.33521 6.51821 3.75678
Si 8.68296 1.98795 3.56023
Si 6.09071 1.87371 1.68422
Si 8.78383 6.58535 1.8179
O 5.8402 5.29647 4.71732
O 8.46609 0.849215 4.60105
O 7.27359 2.24012 2.82761
O 10.1954 6.91144 2.53854
O 6.56302 0.511567 1.01953
O 9.11603 5.4295 0.81642
O 5.98865 3.03789 0.613248
O 8.25461 7.81079 1.04899
O 7.59915 6.19028 2.85992
O 9.80453 1.61179 2.4666
O 6.515 7.87554 4.60517
O 9.333 3.31401 4.36896
Si 10.0038 4.47374 16.4521
Si 12.6961 17.3376 -0.00885771
Si 11.3497 6.6541 3.56739
Si 13.6823 2.35746 3.54672
Si 11.1777 2.0948 1.75841
Si 13.9731 6.5159 1.94908
O 10.8341 5.50289 4.58966
O 13.3998 1.15858 4.67154
O 12.1757 2.54029 2.91365
O 0.185243 6.81879 2.83428
O 11.954 0.949441 0.918952
O 14.2881 5.21314 0.939906
O 10.6847 3.40311 0.852776
O 13.6612 7.75277 0.919493
O 12.6466 6.24687 2.7722
O 14.6801 1.97446 2.32477
O 11.6616 8.0117 4.55137
O 14.2365 3.59015 4.27334
Si 0.302724 13.0888 16.4223
Si 2.63377 8.60913 0.153448
Si 1.32304 15.3561 3.80852
Si 3.6336 11.2198 3.73345
Si 1.15113 10.878 1.82306
Si 3.67525 15.1684 1.68144
O 1.11712 14.2284 4.90249
O 3.53979 9.97442 4.72746
O 2.15259 11.246 3.06141
O 4.96333 15.3334 2.64715
O 1.73224 9.5504 1.09538
O 4.01361 13.9213 0.797166
O 0.995577 12.021 0.720218
O 3.33616 16.4134 0.657475
O 2.3624 15.0453 2.62791
O 4.75933 10.9297 2.56344
O 1.8818 16.6532 4.61905
O 4.15751 12.4708 4.644
Si 5.09586 13.2629 16.4504
Si 7.47379 8.80544 0.0559874
Si 6.22451 15.221 3.60869
Si 8.63916 10.8875 3.70763
Si 6.12864 11.1262 1.73607
Si 8.84161 15.1632 1.81184
O 5.93418 14.2279 4.8058
O 8.33429 9.65264 4.55804
O 7.30269 11.2529 2.88988
O 10.1742 15.51 2.63511
O 6.54562 9.79576 0.936163
O 9.22975 13.7265 1.17186
O 6.07229 12.4755 0.897045
O 8.52347 16.2601 0.661311
O 7.53938 14.9212 2.73211
O 9.72254 10.6694 2.54155
O 6.57423 16.6862 4.37583
O 9.06427 12.1084 4.57241
Si 10.1224 13.0051 0.0503566
Si 12.7292 8.84287 0.158661
Si 11.3945 15.1574 3.66815
Si 13.6847 11.0924 3.67283
Si 11.1976 10.8087 1.90887
Si 13.9498 15.1114 1.89779
O 10.9248 14.0815 4.74788
O 13.5443 9.82593 4.61994
O 12.1986 11.2075 3.04974
O -0.0643826 15.6601 3.126
O 11.7173 9.46976 1.14945
O 14.6092 13.9704 0.978307
O 11.1328 12.0215 0.841009
O 13.4806 16.2088 0.930676
O 12.6804 14.6408 2.84685
O 14.7542 10.6184 2.50418
O 11.8486 16.5438 4.48944
O 14.3511 12.3052 4.40587
Si 15.09 4.28752 5.49284
Si 2.78687 17.4301 5.66015
Si 1.18035 6.73046 9.25964
Si 3.55512 2.32633 9.10399
Si 1.13881 2.0335 7.369
Si 3.71939 6.57548 7.37759
O 0.986214 5.54076 10.2553
O 3.16542 1.29534 10.2173
O 2.21149 2.80685 8.40374
O 4.88093 6.87144 8.43478
O 1.98286 0.832585 6.73472
O 4.06294 5.14193 6.59168
O 0.696192 3.00056 6.20517
O 3.61463 7.76136 6.28318
O 2.39423 6.5237 8.21909
O 4.71401 1.67598 8.17125
O 1.75925 8.0385 10.0545
O 4.30481 3.5554 9.85933
Si 4.94615 4.25998 5.55846
Si 7.50975 17.2755 5.46752
Si 6.28113 6.65715 9.21909
Si 8.66599 2.30717 9.21629
Si 6.09703 1.95449 7.40575
Si 8.76423 6.35338 7.27075
O 6.06946 5.42872 10.1952
O 8.35425 1.10028 10.192
O 7.26135 2.54777 8.41046
O 9.97054 6.64821 8.19154
O 6.74626 0.698501 6.59804
O 9.03637 5.06328 6.32899
O 5.82403 3.13115 6.32469
O 8.4848 7.56984 6.34637
O 7.37838 6.24387 8.11011
O 9.80487 1.95609 8.18286
O 6.94464 7.88813 10.0329
O 9.23287 3.51532 10.1511
Si 10.1079 4.28485 5.38822
Si 12.5978 0.0973547 5.49767
Si 11.2467 6.60169 9.16508
Si 13.7184 2.28116 9.20015
Si 11.1853 2.14303 7.41388
Si 13.7902 6.47172 7.31954
O 11.159 5.35693 10.165
O 13.3838 1.17878 10.3952
O 12.3555 2.39454 8.42949
O 15.0053 6.74645 8.293
O 11.6597 0.925486 6.5228
O 14.1448 5.07892 6.62329
O 11.063 3.40399 6.31135
O 13.4918 7.5617 6.15864
O 12.4597 6.44622 8.1693
O 14.9144 1.71999 8.25742
O 11.5625 7.90524 10.0331
O 14.3581 3.62564 9.877
Si 15.184 13.0775 5.58886
Si 2.69596 8.82173 5.50669
Si 1.07351 15.2801 9.1972
Si 3.74944 10.8642 9.2246
Si 1.2011 10.7537 7.39052
Si 3.64653 15.095 7.55703
O 0.896472 14.297 10.4207
O 3.70964 9.68324 10.3576
O 2.35339 10.9661 8.54723
O 4.79627 15.3524 8.66128
O 1.81519 9.57771 6.50131
O 4.19472 13.7679 6.80004
O 0.892094 11.9846 6.41561
O 3.60528 16.3352 6.50301
O 2.27285 14.9379 8.17095
O 4.96166 10.6266 8.2179
O 1.45798 16.6951 9.90167
O 4.16203 12.2416 10.0227
Si 5.15213 13.1262 5.65505
Si 7.58639 8.72061 5.60534
Si 6.20948 15.3123 9.26695
Si 8.91757 11.0971 9.28159
Si 6.39144 10.8464 7.4898
Si 8.67757 15.0593 7.38858
O 6.11338 14.1161 10.3909
O 8.62952 9.88539 10.4067
O 7.50495 11.2693 8.51782
O 9.70812 15.513 8.55335
O 6.84013 9.58868 6.68307
O 9.2169 13.7606 6.56578
O 6.0866 12.1064 6.4711
O 8.44763 16.2365 6.31326
O 7.30434 14.9422 8.18452
O 9.95374 10.6415 8.11206
O 6.67877 16.6345 9.99926
O 9.44117 12.3603 9.91158
Si 10.1375 12.9679 5.47391
Si 12.6726 8.75254 5.50971
Si 11.1736 15.4362 9.17998
Si 13.8258 10.9619 9.32765
Si 11.4108 10.8941 7.45008
Si 13.6428 15.1734 7.38977
O 11.1435 14.2635 10.362
O 13.4815 9.76582 10.3072
O 12.4375 11.2572 8.58747
O 14.799 15.3837 8.41972
O 12.0306 9.77583 6.57934
O 14.1983 13.8813 6.58421
O 11.0646 12.0058 6.29862
O 13.359 16.457 6.4537
O 12.2202 15.0897 8.0787
O 14.9465 10.4832 8.27889
O 11.6196 16.7863 9.92945
O 14.3686 12.2549 10.1033
Si 0.190151 4.3312 11.0274
Si 2.46462 0.0754258 10.9542
Si 1.38366 6.67817 14.6949
Si 3.65227 2.31975 14.5547
Si 1.1643 2.03315 12.7221
Si 3.88934 6.42688 12.8201
O 1.06161 5.32087 15.6062
O 3.42203 1.01089 15.5255
O 2.3184 2.57937 13.7581
O 5.04682 6.7689 13.8368
O 1.68285 0.632111 12.2035
O 4.14567 5.13075 12.0072
O 1.05469 3.15425 11.6166
O 3.69802 7.5886 11.7376
O 2.54395 6.42277 13.6918
O 4.84404 2.04114 13.5055
O 1.63599 7.78483 15.7485
O 4.29711 3.48983 15.3988
Si 5.17242 4.38276 10.9185
Si 7.516 0.0241903 11.0969
Si 6.30804 6.5188 14.7227
Si 8.72183 2.26072 14.7775
Si 6.22046 2.16573 12.8223
Si 8.89896 6.38872 12.8994
O 6.15337 5.32724 15.7284
O 8.53689 1.15723 15.9015
O 7.33281 2.43186 14.0178
O 10.0648 6.90101 13.8649
O 6.66154 0.852446 12.1033
O 9.50703 5.05999 12.1578
O 6.15406 3.38418 11.775
O 8.57216 7.59218 11.8183
O 7.51051 6.16845 13.6542
O 9.89933 1.80293 13.6728
O 6.68301 7.84427 15.5817
O 9.09216 3.70873 15.3669
Si 10.2806 4.27924 11.0277
Si 12.521 17.4287 11.0476
Si 11.4096 6.70339 14.6843
Si 13.7352 2.17276 14.7186
Si 11.2683 1.97844 12.9122
Si 13.989 6.39596 12.8742
O 11.0399 5.42787 15.6205
O 13.6003 0.877916 15.6068
O 12.3084 2.45055 14.0551
O 0.0673575 7.04593 13.8637
O 11.7 0.713983 12.1832
O 14.6043 5.13057 12.262
O 11.1762 3.1658 11.8152
O 13.507 7.41096 11.7177
O 12.6288 6.20637 13.7196
O 14.8069 1.88836 13.455
O 11.9099 7.96648 15.5806
O 14.4036 3.34261 15.5701
Si 0.077682 13.0361 11.1817
Si 2.72721 8.68614 11.1723
Si 1.29989 15.3629 14.5286
Si 3.68968 10.8362 14.7613
Si 1.19232 10.7019 13.0119
Si 3.77744 15.3856 12.5586
O 1.12741 14.1159 15.472
O 3.43509 9.55603 15.7212
O 2.24063 11.2292 14.1342
O 4.88542 15.7963 13.5998
O 1.92874 9.47801 12.3665
O 4.28677 13.9405 12.0122
O 0.985335 11.9492 11.971
O 3.59031 16.5084 11.439
O 2.40873 15.0739 13.384
O 4.72508 10.4317 13.6415
O 1.58066 16.7015 15.3283
O 4.26282 12.0684 15.6726
Si 5.14789 13.0625 11.0392
Si 7.72347 8.71685 11.1099
Si 6.23939 15.4765 14.4553
Si 8.74185 10.8836 14.8165
Si 6.18686 10.6642 12.9212
Si 8.90479 15.2488 12.8302
O 5.83458 14.2614 15.5039
O 8.49785 9.78835 15.9179
O 7.3111 11.1599 14.1219
O 9.96715 15.5967 13.9673
O 6.83291 9.43091 12.1833
O 9.50774 13.8713 12.1522
O 5.93435 11.8685 11.9163
O 8.48349 16.35 11.8032
O 7.4372 14.9315 13.6275
O 9.83512 10.5373 13.6762
O 6.68566 16.7379 15.3123
O 9.3669 12.1621 15.545
Si 10.3097 13.0848 11.0142
Si 12.5962 8.57688 10.9903
Si 11.2528 15.4011 14.828
Si 13.727 11.0047 14.765
Si 11.2024 10.5945 12.9045
Si 13.681 15.0738 12.8483
O 10.8728 14.2866 15.9368
O 13.49 10.0131 15.9449
O 12.3669 11.0457 13.9447
O 14.9615 15.4346 13.7674
O 11.6743 9.28721 12.1731
O 14.1703 13.6617 12.227
O 10.9793 11.8585 11.8645
O 13.3372 16.2159 11.6871
O 12.418 14.9608 13.8269
O 14.8312 10.4268 13.6755
O 11.6556 16.7002 15.6292
O 14.2871 12.3727 15.4128
324
 Atoms. Timestep: 27500
Si 14.9026 4.39637 0.0337722
Si 2.48951 0.0655394 0.0674674
Si 1.34097 6.42885 3.53653
Si 3.54394 2.26101 3.62066
Si 1.03179 2.1263 1.72096
Si 3.85494 6.39074 1.77166
O 1.00434 5.22122 4.56618
O 3.33776 1.10101 4.64482
O 2.23199 2.58893 2.73149
O 5.01665 6.83771 2.78785
O 1.47214 0.66677 1.21109
O 4.51301 5.18269 0.949641
O 0.802261 3.19178 0.603467
O 3.56758 7.52978 0.814488
O 2.53732 6.08521 2.51825
O 4.82312 1.89036 2.67421
O 1.88228 7.61173 4.44376
O 4.0676 3.5412 4.45009
Si 5.34392 4.32675 16.5084
Si 7.62744 0.00246167 -0.00586213
Si 6.32205 6.57891 3.72552
Si 8.7493 2.21022 3.87024
Si 6.23578 2.11235 1.93581
Si 8.77612 6.49841 1.77676
O 5.89293 5.38008 4.5836
O 8.40737 1.09133 4.94401
O 7.32499 2.44848 3.10534
O 9.95084 6.86908 2.82627
O 6.73009 0.733049 1.12875
O 9.17685 5.14991 0.966757
O 6.08845 3.15436 0.769821
O 8.53139 7.72748 0.758214
O 7.48545 6.22257 2.61803
O 9.84016 1.62817 2.79659
O 6.95531 7.85454 4.54981
O 9.33828 3.5033 4.52114
Si 10.0395 4.26365 16.5366
Si 12.5933 0.0262467 16.4738
Si 11.3272 6.68444 3.71552
Si 13.6705 2.39175 3.70952
Si 11.136 1.97926 1.99368
Si 13.8088 6.37081 1.93571
O 11.0026 5.5599 4.79515
O 13.7123 1.14678 4.78923
O 12.2811 2.40782 3.06643
O 15.0567 6.67178 2.89264
O 11.6345 0.753762 1.0105
O 14.1703 5.05822 1.20451
O 10.8078 3.11448 0.940649
O 13.5313 7.58396 0.908775
O 12.5049 6.24741 2.74204
O 14.7652 2.12643 2.57547
O 11.7923 8.00116 4.43357
O 14.0728 3.7427 4.4369
Si 0.0503475 13.0769 0.00922161
Si 2.53638 8.63472 0.0843213
Si 1.27856 15.3966 3.6
Si 3.57608 10.9209 3.62953
Si 1.05202 10.6938 1.79255
Si 3.89288 15.3265 1.76269
O 1.04604 14.1982 4.58578
O 3.44696 9.64494 4.53302
O 2.26407 11.1041 2.78116
O 5.03002 15.6588 2.76384
O 1.59199 9.3711 1.19864
O 4.17874 14.0726 0.863657
O 0.899452 11.8345 0.687794
O 3.56318 16.5119 0.745223
O 2.46336 15.0642 2.52722
O 4.82826 10.5854 2.66476
O 1.61491 16.6445 4.41063
O 3.94593 12.2356 4.42438
Si 5.16783 13.096 16.5609
Si 7.61534 8.76532 0.0320804
Si 6.28064 15.2645 3.61381
Si 8.71098 11.0063 3.65672
Si 6.19537 10.8093 1.87942
Si 8.89528 15.1607 1.82487
O 5.73923 14.1152 4.61432
O 8.66055 9.77114 4.68944
O 7.29128 11.0432 3.00965
O 9.86213 15.3334 3.08312
O 6.65098 9.58045 0.998508
O 9.41267 13.9318 0.965147
O 5.89419 12.0928 0.93358
O 8.52386 16.2676 0.708169
O 7.45888 14.8597 2.58362
O 9.90566 10.9048 2.49339
O 6.98321 16.429 4.49702
O 9.06639 12.2999 4.58354
Si 10.2603 13.1954 16.3729
Si 12.7145 8.65217 0.15437
Si 11.3783 15.197 3.7992
Si 13.7579 11.1609 3.64197
Si 11.2973 10.9696 1.76354
Si 13.7821 15.2109 1.82639
O 11.1706 14.0006 4.78715
O 13.5394 9.85997 4.58073
O 12.3544 11.4164 2.94769
O 14.9395 15.7175 2.81375
O 11.7863 9.5652 1.12056
O 14.3748 13.8793 1.14257
O 11.2279 12.1418 0.582471
O 13.3604 16.2808 0.673217
O 12.4151 14.9914 2.70767
O 14.7324 10.6127 2.52158
O 11.8276 16.5323 4.54865
O 14.2021 12.3852 4.55313
Si 0.0668442 4.34336 5.38327
Si 2.45551 0.0172927 5.54246
Si 1.31225 6.60561 9.15604
Si 3.62365 2.32868 9.18919
Si 1.15559 2.20974 7.34746
Si 3.86565 6.50408 7.39748
O 1.07829 5.55938 10.356
O 3.27431 1.12958 10.2258
O 2.34208 2.6497 8.26093
O 5.00826 6.80618 8.42786
O 1.52245 0.859514 6.65645
O 4.28595 5.20883 6.55493
O 0.949079 3.22241 6.1314
O 3.56436 7.74274 6.39993
O 2.41061 6.22133 8.09721
O 4.89615 2.11882 8.26327
O 1.72981 8.00282 9.79968
O 3.99245 3.59416 10.0645
Si 5.08629 4.2566 5.42514
Si 7.6657 17.3724 5.68487
Si 6.26797 6.42469 9.36009
Si 8.71406 2.28887 9.12273
Si 6.2088 2.1732 7.32605
Si 8.78865 6.33599 7.45612
O 5.86615 5.32391 10.4437
O 8.40831 1.11422 10.1791
O 7.44157 2.62496 8.26845
O 10.0526 6.52409 8.45861
O 6.7031 0.736985 6.6997
O 9.2002 5.01445 6.67184
O 5.9 3.19559 6.17724
O 8.62112 7.61851 6.46352
O 7.48849 6.0914 8.35145
O 9.86818 1.95144 8.04353
O 6.86372 7.73688 10.2056
O 9.24009 3.46235 9.9992
Si 10.2544 4.36023 5.54369
Si 12.7932 17.4202 5.54538
Si 11.3937 6.50158 9.25784
Si 13.6967 2.51788 9.13584
Si 11.2785 2.09478 7.32378
Si 13.9723 6.42905 7.35448
O 11.2729 5.2558 10.2763
O 13.537 1.28205 10.2343
O 12.3335 2.59784 8.35959
O 15.0773 6.9378 8.39964
O 11.7559 0.835309 6.4988
O 14.4461 5.2032 6.45149
O 11.1342 3.3247 6.3047
O 13.7119 7.62506 6.29872
O 12.6049 6.27588 8.18004
O 14.8012 2.11847 8.04971
O 11.6016 7.914 9.97658
O 14.248 3.82175 9.90453
Si 0.118772 13.1667 5.45321
Si 2.67065 8.61154 5.42561
Si 1.19577 15.2066 9.43922
Si 3.77392 10.9538 9.28952
Si 1.39352 10.8937 7.24534
Si 3.62032 15.207 7.39711
O 0.907114 14.0578 10.3878
O 3.41076 9.81104 10.3965
O 2.47265 11.2193 8.30359
O 4.91593 15.4456 8.38143
O 1.72622 9.54091 6.46923
O 4.02285 13.9448 6.5244
O 1.16594 12.0482 6.12742
O 3.3314 16.4018 6.37222
O 2.29677 14.93 8.28306
O 4.88876 10.4761 8.23774
O 1.7395 16.499 10.2323
O 4.24253 12.3171 9.95371
Si 4.88454 13.0504 5.5085
Si 7.88455 8.67833 5.54148
Si 6.24682 15.2544 9.20888
Si 8.75128 11.1076 8.97165
Si 6.15944 10.832 7.26619
Si 8.7367 15.0509 7.41174
O 6.1378 14.1006 10.373
O 8.46283 9.93467 10.0904
O 7.27152 11.443 8.26165
O 9.83997 15.4748 8.54377
O 6.96179 9.6622 6.52053
O 9.3574 13.7937 6.69685
O 5.76661 11.959 6.19388
O 8.517 16.2725 6.43389
O 7.3168 14.8104 8.17205
O 9.88796 10.6557 7.97674
O 6.77561 16.5864 9.90356
O 9.45032 12.2163 9.87423
Si 10.1312 12.9911 5.51255
Si 12.8422 8.73429 5.51055
Si 11.277 15.2102 9.13681
Si 13.893 10.8749 9.08101
Si 11.363 10.7959 7.32695
Si 13.8414 15.2433 7.44408
O 11.2386 13.9683 10.1382
O 13.6132 9.5247 9.87914
O 12.4615 11.3291 8.44258
O 14.8649 15.579 8.60967
O 11.9239 9.46286 6.61667
O 14.3853 13.9451 6.58613
O 11.0711 11.8767 6.18398
O 13.6818 16.3845 6.33833
O 12.4031 14.9266 8.02313
O 15.0088 10.7285 7.91587
O 11.9336 16.4265 9.95164
O 14.4537 11.9984 10.0517
Si 0.20713 4.40719 11.0125
Si 2.57336 0.0363524 11.1971
Si 1.09461 6.67221 14.9117
Si 3.63911 2.31845 14.8237
Si 1.22931 2.27605 12.9202
Si 3.62473 6.5281 13.0019
O 0.672791 5.59251 16.0118
O 3.15296 1.32393 15.962
O 2.31934 2.71386 13.9757
O 4.92342 7.0166 13.9125
O 1.70838 0.909652 12.2471
O 4.06504 5.10592 12.245
O 0.917978 3.22467 11.7156
O 3.30855 7.59427 11.9363
O 2.35774 6.23724 13.9481
O 4.70957 1.63756 13.7404
O 1.59427 7.98393 15.5476
O 4.40089 3.52545 15.4902
Si 4.99879 4.25127 11.2152
Si 7.66755 17.3518 10.9117
Si 6.27829 6.65021 14.6554
Si 8.71318 2.27777 14.7547
Si 6.1809 1.85726 12.9083
Si 8.87261 6.62061 12.8581
O 6.15747 5.35387 15.5698
O 8.51502 1.10253 15.8017
O 7.2462 2.34445 13.9375
O 9.89551 6.79419 14.0306
O 6.76786 0.649729 12.0634
O 9.28235 5.32967 11.9918
O 5.76464 3.13966 11.96
O 8.87325 7.87526 11.877
O 7.35474 6.37703 13.4599
O 9.7093 1.81291 13.6103
O 6.75901 7.88315 15.5322
O 9.24934 3.49997 15.4635
Si 10.131 4.35841 11.0646
Si 12.759 17.3957 10.957
Si 11.2461 6.5789 14.7822
Si 13.6332 2.39075 14.6129
Si 11.0689 1.93519 12.7961
Si 13.7978 6.42443 12.9019
O 10.9391 5.34084 15.7839
O 13.434 1.15955 15.719
O 12.2828 2.34177 13.8621
O 14.9847 6.85755 13.8108
O 11.7236 0.733563 11.9747
O 14.4542 5.17039 12.1497
O 10.7767 3.21823 11.8493
O 13.3068 7.50434 11.795
O 12.4546 6.2052 13.7683
O 14.9018 2.16526 13.6287
O 11.8698 7.85409 15.578
O 14.0769 3.80117 15.3131
Si 0.0672165 12.9185 11.1363
Si 2.47896 8.67479 11.0764
Si 1.13413 15.3064 14.6777
Si 3.83864 10.821 14.8659
Si 1.09997 10.748 12.9644
Si 3.75652 15.2465 12.9275
O 1.05064 14.0141 15.7284
O 3.47258 9.65835 15.9621
O 2.39652 10.8109 14.0192
O 4.87282 15.5994 14.0215
O 1.415 9.45235 11.96
O 4.26491 13.9928 12.1216
O 0.896285 11.9739 12.0285
O 3.57755 16.541 11.9744
O 2.24602 15.0921 13.5769
O 5.03029 10.3455 13.9819
O 1.61474 16.5578 15.5776
O 4.29651 12.2452 15.5061
Si 5.16538 13.0334 11.1046
Si 7.79668 8.78055 11.0263
Si 6.28822 15.3247 14.6991
Si 8.81992 10.923 14.7628
Si 6.23873 10.6441 12.9969
Si 8.73865 15.0463 12.6983
O 6.0592 14.0861 15.6763
O 8.56012 9.76424 15.749
O 7.46889 11.1098 13.864
O 9.74204 15.6796 13.7963
O 6.83244 9.45001 12.1829
O 9.34625 13.7667 12.0003
O 5.71811 11.803 11.9752
O 8.62493 16.1591 11.5505
O 7.32364 14.9845 13.4363
O 9.91201 10.4121 13.6136
O 6.78407 16.6148 15.4403
O 9.2484 12.2421 15.477
Si 10.2844 12.9669 10.9392
Si 12.634 8.64743 10.9152
Si 11.2228 15.504 14.5638
Si 13.6938 10.9808 14.8813
Si 11.3135 10.7614 12.9194
Si 13.7049 15.244 12.7771
O 11.0752 14.3794 15.6146
O 13.5734 9.76699 15.9573
O 12.3052 11.0976 14.1545
O 14.7644 15.4227 14.0254
O 12.0039 9.7078 11.8553
O 14.1639 13.8877 12.0189
O 11.1078 11.9216 11.819
O 13.7472 16.4894 11.8047
O 12.1909 15.2303 13.3246
O 14.8646 10.6148 13.8472
O 11.7035 16.8259 15.256
O 14.1443 12.2522 15.6751
324
 Atoms. Timestep: 28000
Si 15.075 4.3602 16.6094
Si 2.61973 17.3721 0.254327
Si 1.24787 6.62151 3.63818
Si 3.61699 2.5303 3.58493
Si 1.12189 2.07175 1.91909
Si 3.76911 6.53769 1.9016
O 0.935645 5.40293 4.58294
O 3.46687 1.39159 4.71909
O 2.16225 2.70737 2.88076
O 4.83113 6.7721 3.01345
O 1.74409 0.692139 1.35367
O 4.34893 5.36233 0.99879
O 0.884045 3.22186 0.688392
O 3.47114 7.94658 0.928343
O 2.28152 6.22897 2.44509
O 4.70481 2.02414 2.50401
O 1.86282 7.88351 4.40137
O 4.27681 3.83571 4.32867
Si 5.20238 4.52916 16.5175
Si 7.57981 17.4401 0.0352338
Si 6.26626 6.66388 3.58038
Si 8.68369 2.22252 3.65621
Si 6.19447 2.15382 1.82739
Si 8.75817 6.36108 1.71719
O 6.32161 5.4669 4.72852
O 8.45125 1.16683 4.8668
O 7.35165 2.4259 2.86146
O 9.81838 6.63076 2.89396
O 6.72765 0.7968 1.15094
O 9.40649 5.02956 1.03932
O 6.05947 3.45897 0.893274
O 8.72576 7.60647 0.66246
O 7.33169 6.21904 2.45449
O 9.78205 1.8466 2.58961
O 6.78332 7.97638 4.2609
O 9.08097 3.56542 4.40124
Si 10.2913 4.2681 -0.0803919
Si 12.5887 17.3835 16.3966
Si 11.1905 6.51764 3.74686
Si 13.744 2.22257 3.72786
Si 11.1757 1.94915 1.77898
Si 13.711 6.49951 1.89609
O 10.8744 5.25913 4.7766
O 13.5875 1.1579 4.90608
O 12.351 2.21324 2.89962
O 14.8673 6.87387 2.86787
O 11.7423 0.621459 1.13037
O 14.2213 5.22274 1.0849
O 11.092 3.15232 0.69866
O 13.427 7.59614 0.80121
O 12.3284 6.12433 2.66916
O 14.8782 1.77568 2.66148
O 11.5555 7.75986 4.58155
O 14.196 3.67521 4.4132
Si 15.1122 12.9022 16.6219
Si 2.61373 8.82516 16.473
Si 1.30034 15.3339 3.48875
Si 3.74351 10.8291 3.58484
Si 1.12246 10.742 1.90276
Si 3.93884 15.1769 1.83926
O 0.994907 14.137 4.60357
O 3.57289 9.78713 4.86262
O 2.37364 10.9768 2.83696
O 4.94697 15.5434 2.98476
O 1.61135 9.54881 0.88241
O 4.5883 13.7698 1.33068
O 0.951494 11.8976 0.859452
O 3.63926 16.2671 0.756095
O 2.45243 14.9326 2.51295
O 4.83976 10.3291 2.59297
O 1.80506 16.6966 4.27974
O 4.30515 12.2311 4.22685
Si 5.35589 12.9722 0.189827
Si 7.82224 8.76557 16.543
Si 6.29988 15.3585 3.72533
Si 8.68598 11.0089 3.78169
Si 6.27664 10.5706 1.96609
Si 8.75739 15.1688 1.92087
O 6.10536 14.1924 4.91098
O 8.50008 9.85204 4.87798
O 7.30549 11.1304 3.04205
O 9.91599 15.5126 3.05636
O 6.90863 9.34771 1.17754
O 9.31814 13.8637 1.14979
O 6.09403 11.6506 0.761067
O 8.44919 16.3715 0.877312
O 7.358 14.8814 2.63908
O 9.73441 10.4434 2.72105
O 6.80629 16.6344 4.45174
O 9.47907 12.2647 4.36186
Si 10.1947 13.0677 16.6796
Si 12.5298 8.57425 -0.0316746
Si 11.3044 15.3816 3.77908
Si 13.7413 10.8779 3.72987
Si 11.1876 10.6946 1.93034
Si 13.7657 15.2048 1.74431
O 11.3044 14.0401 4.66109
O 13.4144 9.75551 4.83142
O 12.3166 11.1223 2.99187
O 14.9759 15.448 2.68553
O 11.6898 9.40938 1.16971
O 14.1217 13.7656 1.09068
O 10.8302 11.8124 0.882268
O 13.4956 16.2449 0.435017
O 12.4608 15.2548 2.64545
O 14.928 10.4392 2.78607
O 11.6713 16.6573 4.59438
O 14.2194 12.2302 4.46023
Si 0.123039 4.32052 5.5249
Si 2.65822 0.131181 5.30268
Si 1.13615 6.55099 9.19605
Si 3.66139 2.11483 9.23729
Si 1.20839 2.01247 7.39871
Si 3.70245 6.33372 7.46021
O 0.759725 5.45208 10.3284
O 3.5561 0.972165 10.3713
O 2.22593 2.31532 8.54404
O 4.77075 6.55888 8.6522
O 1.77384 0.748317 6.40854
O 4.37464 5.0788 6.61543
O 0.920074 3.18417 6.3208
O 3.48686 7.45828 6.34015
O 2.27804 6.06882 8.12677
O 4.80075 1.86561 8.02601
O 1.77147 7.73498 10.203
O 4.13458 3.41137 10.1116
Si 5.35055 4.41434 5.48172
Si 7.73051 -0.0283025 5.56806
Si 6.21927 6.42911 9.29017
Si 8.687 2.3718 9.09654
Si 6.20282 2.05805 7.25672
Si 8.72359 6.42815 7.33979
O 5.98991 5.29971 10.3462
O 8.36516 1.38147 10.3434
O 7.29817 2.52894 8.25713
O 9.91879 6.82224 8.33254
O 6.70273 0.64093 6.6644
O 9.1748 5.05221 6.61698
O 6.00248 3.19077 6.18788
O 8.32882 7.56439 6.23451
O 7.3339 6.25462 8.18374
O 9.8763 1.74987 8.19812
O 6.67358 7.74489 10.0788
O 9.19324 3.75535 9.7625
Si 10.0175 4.25229 5.54616
Si 12.7259 -0.0167952 5.61705
Si 11.3702 6.60909 9.12573
Si 13.7427 2.38336 9.14659
Si 11.2427 1.97772 7.47252
Si 13.7798 6.40299 7.31854
O 11.0302 5.33545 10.1337
O 13.5289 1.17971 10.1999
O 12.3551 2.48785 8.45943
O 14.9188 6.94501 8.32277
O 11.8099 0.703172 6.68005
O 14.3095 5.09998 6.61826
O 10.8303 3.11727 6.35038
O 13.5296 7.53562 6.11978
O 12.3613 6.14744 8.00405
O 14.8493 1.83341 8.1204
O 12.106 7.78713 9.85332
O 14.0972 3.70073 9.96617
Si 0.215612 13.0252 5.42366
Si 2.68197 8.63692 5.53356
Si 1.39959 15.2714 8.96723
Si 3.76662 10.955 9.25849
Si 1.23988 10.7061 7.33781
Si 3.83332 15.2511 6.98456
O 1.2677 13.9352 9.99636
O 3.49016 9.68781 10.1305
O 2.40801 11.0241 8.44356
O 4.96868 15.4915 7.99708
O 1.73695 9.40062 6.54991
O 4.00433 13.8658 6.30577
O 1.05733 11.848 6.13113
O 3.63202 16.4795 5.94155
O 2.41673 15.1241 7.82193
O 4.98791 10.6121 8.30797
O 1.9579 16.4413 9.9549
O 4.06401 12.4593 9.937
Si 5.06159 13.0676 5.45844
Si 7.5772 8.66706 5.47822
Si 6.27695 15.4198 9.09279
Si 8.67528 11 9.23691
Si 6.17831 10.8299 7.34672
Si 8.88132 15.1375 7.32518
O 5.60037 14.4518 10.2082
O 8.35413 9.77123 10.1991
O 7.46564 11.3093 8.3309
O 10.1612 15.5116 8.21258
O 6.56205 9.4306 6.57395
O 9.33307 13.9518 6.33621
O 5.80052 11.9911 6.40711
O 8.57784 16.3691 6.34466
O 7.5967 14.809 8.24862
O 9.89506 10.6257 8.23208
O 6.78675 16.7565 9.76756
O 9.21924 12.3538 9.95319
Si 10.2931 13.1049 5.41728
Si 12.6109 8.66201 5.49208
Si 11.4365 15.2355 9.14371
Si 13.9066 11.1036 9.20417
Si 11.2147 10.7451 7.41941
Si 13.8941 14.9975 7.38019
O 11.0242 14.2919 10.2594
O 13.7468 9.98422 10.4146
O 12.452 10.9815 8.4339
O 15.03 15.636 8.43148
O 11.6762 9.40781 6.57117
O 14.6211 13.8581 6.61343
O 11.1099 12.0252 6.41851
O 13.5373 16.1702 6.29776
O 12.5332 14.585 8.13808
O 15.0178 10.5617 8.18647
O 11.9283 16.5884 9.83339
O 14.2397 12.5967 9.789
Si 14.948 4.38483 11.2006
Si 2.61123 17.3405 11.1511
Si 1.18328 6.59717 14.7792
Si 3.73876 2.34081 14.9308
Si 1.25038 2.18464 12.9765
Si 3.64781 6.55348 12.9185
O 1.01492 5.39931 15.7553
O 3.3227 1.18023 15.9701
O 2.4712 2.48234 13.9587
O 4.68505 6.69818 14.1156
O 1.75719 0.848962 12.1218
O 4.14191 5.37443 11.9386
O 0.835245 3.32659 11.8812
O 3.63587 7.90314 12.0875
O 2.2345 6.29981 13.632
O 4.93399 1.76487 14.0881
O 1.84606 7.90536 15.4429
O 4.31524 3.67755 15.5871
Si 5.02435 4.34678 11.1781
Si 7.53872 0.135515 10.9841
Si 6.17671 6.699 14.7421
Si 8.7094 2.174 14.6688
Si 6.07688 2.11537 12.9815
Si 8.5115 6.53386 12.8301
O 6.2431 5.5284 15.8659
O 8.46539 1.02939 15.7915
O 7.46917 2.24029 13.7374
O 9.64745 6.62371 13.9448
O 6.35406 0.873103 11.9481
O 9.07028 5.28261 11.8975
O 5.81003 3.4108 12.2105
O 8.44276 7.78922 11.9387
O 7.14165 6.2709 13.5439
O 10.0668 1.8452 13.8626
O 6.82627 8.04269 15.4856
O 9.18561 3.49859 15.4987
Si 10.0684 4.42013 10.9264
Si 12.7319 0.0530604 10.9474
Si 11.074 6.60497 14.6411
Si 13.9042 2.25843 14.6784
Si 11.2842 2.07408 12.7993
Si 13.6828 6.57535 12.9541
O 11.121 5.3682 15.7067
O 13.3907 1.26213 15.8178
O 12.604 2.40726 13.6402
O 14.8052 6.81191 14.1475
O 11.5783 0.817579 11.8228
O 14.1418 5.24416 12.217
O 10.8864 3.36679 11.8983
O 13.6431 7.8679 11.9982
O 12.1374 6.36295 13.4412
O 15.1052 1.73561 13.9875
O 11.4836 7.85751 15.5426
O 14.2262 3.61638 15.511
Si 0.203559 13.2431 10.8935
Si 2.71859 8.72206 11.078
Si 1.00379 15.3261 14.9022
Si 3.76153 11.1885 14.7176
Si 1.25322 10.9704 12.8716
Si 3.61377 15.1423 13.1742
O 0.645378 14.0529 15.8044
O 3.47626 9.8559 15.5509
O 2.45679 11.4714 13.8322
O 4.89995 15.2358 14.1557
O 1.88022 9.65635 12.0994
O 4.14718 13.8955 12.2583
O 0.796434 12.0021 11.7313
O 3.43359 16.3211 12.1487
O 2.23574 14.8608 13.8923
O 5.04435 10.8281 13.7989
O 1.67788 16.5649 15.7148
O 4.31011 12.4181 15.6341
Si 4.9788 13.1692 11.0855
Si 7.53432 8.71765 11.071
Si 6.27988 15.2431 14.8135
Si 8.95299 11.1001 14.6514
Si 6.28898 10.9435 12.8524
Si 8.74059 15.3712 12.8993
O 6.34117 13.9979 15.9232
O 8.59107 9.90014 15.7343
O 7.60199 11.2983 13.6901
O 9.85222 15.4079 14.0328
O 6.63551 9.60541 12.0325
O 9.15481 14.1012 11.963
O 5.95314 12.0217 11.6155
O 8.5003 16.6801 11.9078
O 7.4358 15.074 13.7058
O 10.0941 10.5311 13.7243
O 6.62423 16.6774 15.5599
O 9.42373 12.3129 15.5031
Si 10.0991 13.1901 11.0246
Si 12.8267 8.83227 10.9539
Si 11.2642 15.2427 14.6897
Si 13.9031 10.7842 14.6582
Si 11.3107 10.8594 12.7535
Si 13.7363 15.2377 12.8561
O 11.1538 14.0553 15.9099
O 13.324 9.63597 15.6402
O 12.6084 11.1191 13.6829
O 14.8147 15.6153 14.0026
O 11.6435 9.5276 11.8335
O 14.3669 14.066 11.9552
O 10.9686 12.1524 11.8809
O 13.4654 16.4613 11.9211
O 12.431 14.8593 13.6258
O 0.0115462 10.4514 13.6888
O 11.6878 16.6163 15.3115
O 14.3146 11.98 15.5866
324
 Atoms. Timestep: 28500
Si 0.165774 4.20525 -0.0844948
Si 2.64282 -0.117277 0.0573906
Si 0.995915 6.79084 3.69577
Si 3.65491 2.3252 3.68466
Si 1.15817 2.00057 1.84373
Si 3.63732 6.664 1.83654
O 0.842407 5.57329 4.69837
O 3.35175 1.13373 4.73912
O 2.24585 2.50507 2.90074
O 4.83895 7.13722 2.77316
O 1.77487 0.640124 1.17715
O 4.02334 5.29605 1.16879
O 1.01008 3.06659 0.696343
O 3.48505 7.67373 0.574596
O 2.28462 6.60107 2.7653
O 4.71635 1.87175 2.54883
O 1.37737 8.09166 4.60977
O 4.18041 3.58345 4.46252
Si 4.96751 4.40583 0.200555
Si 7.61572 17.3867 16.4907
Si 6.09374 6.78981 3.6836
Si 8.77093 2.28584 3.58281
Si 6.15679 2.13471 1.84771
Si 8.73722 6.41181 2.00607
O 5.71146 5.62818 4.77412
O 8.77379 0.935991 4.48001
O 7.23847 2.47518 3.03019
O 9.92261 6.94149 2.92587
O 6.72282 0.921251 0.898012
O 9.1597 5.00464 1.2354
O 5.90083 3.35954 0.83933
O 8.37861 7.35558 0.703238
O 7.34809 6.22807 2.86821
O 9.99455 2.16898 2.62116
O 6.74854 7.97964 4.47326
O 9.23009 3.52411 4.51704
Si 10.152 4.22704 0.160362
Si 12.6385 -0.0720249 0.19827
Si 11.3147 6.59552 3.58606
Si 13.7858 2.24991 3.80572
Si 11.4182 2.11392 1.91932
Si 13.7874 6.31864 1.70729
O 10.9766 5.38219 4.62031
O 13.3801 1.03193 4.73294
O 12.4916 2.64534 2.96172
O 14.7923 6.93715 2.79874
O 11.6544 0.760071 1.15914
O 14.4184 5.01085 1.01172
O 11.2371 3.26403 0.772318
O 13.5353 7.45764 0.607736
O 12.3407 6.19188 2.47143
O 14.7866 1.83992 2.63022
O 12.0216 7.79983 4.50718
O 14.4841 3.43136 4.52554
Si 15.1427 13.1069 0.0732035
Si 2.56328 8.6352 16.3093
Si 1.20101 15.2072 3.73953
Si 3.76227 10.9457 3.74864
Si 1.28001 10.8399 1.90374
Si 3.72271 15.0792 1.91923
O 1.13382 14.0077 4.81557
O 3.51893 9.74861 4.7988
O 2.35612 11.0296 3.01198
O 4.73955 15.6727 3.08069
O 1.78088 9.68949 0.83162
O 4.32122 13.7679 1.27976
O 0.766721 12.2594 1.19365
O 3.60298 16.1696 0.707793
O 2.27052 14.9704 2.57237
O 4.89591 10.5126 2.75436
O 1.60165 16.6092 4.39809
O 4.30515 12.3473 4.49422
Si 5.06428 12.971 0.105899
Si 7.56326 8.54428 16.4652
Si 6.2232 15.4301 3.73564
Si 8.84498 10.8258 3.59125
Si 6.20075 10.6081 1.84014
Si 8.70003 15.2683 1.77766
O 6.08784 14.1962 4.64924
O 8.65671 9.82894 4.82923
O 7.46555 10.9457 2.75061
O 9.73647 15.5191 3.00508
O 6.68821 9.34961 0.952851
O 9.06704 13.9746 0.893818
O 6.02096 11.8355 0.783613
O 8.597 16.5404 0.858241
O 7.2622 15.0783 2.562
O 9.98275 10.3789 2.64539
O 6.68807 16.7437 4.49044
O 9.33074 12.1696 4.30638
Si 10.0165 12.9961 0.0105924
Si 12.6542 8.58189 16.4701
Si 11.1267 15.3856 3.77441
Si 13.8864 10.7752 3.71694
Si 11.3236 10.8316 1.85461
Si 13.6934 15.1445 1.95354
O 11.0046 14.1177 4.8189
O 13.7158 9.81896 4.94892
O 12.4779 11.0373 2.91879
O 14.8494 15.3463 3.06164
O 11.8745 9.50924 0.990948
O 14.0022 13.9427 0.901431
O 10.8747 11.963 0.893562
O 13.6524 16.5175 1.04213
O 12.2984 15.0428 2.66563
O 14.9991 10.2836 2.62752
O 11.5139 16.7478 4.56975
O 14.398 12.2198 4.27565
Si 0.277959 4.36522 5.57332
Si 2.56081 -0.00503976 5.45506
Si 1.31033 6.58322 9.34107
Si 3.82449 2.19561 9.11281
Si 1.25871 2.05956 7.33472
Si 3.72977 6.45254 7.35693
O 1.14314 5.35821 10.3413
O 3.67428 0.997998 10.1973
O 2.40686 2.23966 8.41422
O 4.94487 6.96349 8.25341
O 1.65123 0.768919 6.48826
O 4.01909 5.06655 6.58623
O 1.19662 3.4097 6.45017
O 3.3525 7.58181 6.19547
O 2.4871 6.32468 8.32207
O 4.88505 1.92159 7.95697
O 1.51972 8.04011 9.95344
O 4.33588 3.52674 9.85396
Si 5.04104 4.41925 5.54586
Si 7.83933 -0.018481 5.41583
Si 6.19073 6.68869 9.22191
Si 8.69248 2.32945 9.30101
Si 6.38725 2.23248 7.2319
Si 8.74923 6.48766 7.38842
O 5.9108 5.5159 10.3048
O 8.29042 1.19788 10.3794
O 7.41008 2.62843 8.42194
O 9.92858 6.83831 8.37206
O 7.04607 0.985777 6.4626
O 9.24959 5.14525 6.6216
O 6.15303 3.42435 6.21432
O 8.49944 7.52055 6.23613
O 7.44329 6.23241 8.30469
O 9.90124 1.84999 8.37459
O 6.57304 8.05824 9.94615
O 9.33186 3.6303 9.98551
Si 10.1581 4.36581 5.54409
Si 12.5363 17.3836 5.54232
Si 11.2192 6.7275 9.2626
Si 13.8263 2.15484 9.17844
Si 11.2563 2.11429 7.47309
Si 13.7502 6.22172 7.56886
O 10.8917 5.69981 10.4106
O 13.655 0.909849 10.0784
O 12.446 2.4499 8.51274
O 14.9171 6.62897 8.58371
O 11.7123 0.720674 6.69853
O 14.3367 5.02799 6.65196
O 11.0183 3.22891 6.39814
O 13.5124 7.4371 6.49102
O 12.4165 6.13661 8.36923
O 14.9369 1.90664 8.00193
O 11.7107 8.12153 9.96364
O 14.4221 3.44302 10.0332
Si 0.106691 12.9723 5.48134
Si 2.52714 8.72615 5.55101
Si 1.30314 15.3477 9.15036
Si 3.70492 11.0299 9.12913
Si 1.28534 10.9079 7.3578
Si 3.92526 15.2239 7.34459
O 1.00647 14.1663 10.2268
O 3.49067 9.67256 9.98831
O 2.29282 11.3972 8.49294
O 5.19628 15.7771 8.15018
O 1.93136 9.62681 6.70677
O 4.46494 13.7981 6.66779
O 1.01629 11.9286 6.19629
O 3.47991 16.1937 6.09251
O 2.60675 14.8837 8.27181
O 4.80752 10.7404 7.95491
O 1.7332 16.698 9.91061
O 4.25654 12.1044 10.1301
Si 5.27171 13.0675 5.52623
Si 7.68676 8.74269 5.52054
Si 6.34518 15.3581 9.04792
Si 8.76993 10.9092 9.20765
Si 6.25482 10.8052 7.32576
Si 8.89298 15.1122 7.27086
O 5.8962 14.1421 10.0074
O 8.53537 9.70946 10.2273
O 7.3761 11.0808 8.38533
O 10.1194 15.5692 8.17493
O 6.66155 9.43282 6.53391
O 9.16056 13.6955 6.61332
O 6.28546 11.9544 6.12189
O 8.5147 16.1482 6.14809
O 7.59569 15.0444 8.16316
O 9.93998 10.5512 8.12361
O 6.72784 16.6071 10.0927
O 9.08376 12.1947 10.0159
Si 10.0796 12.9548 5.60262
Si 12.778 8.64059 5.58462
Si 11.3422 15.3423 9.19215
Si 13.7222 11.1391 9.12557
Si 11.3157 10.7547 7.27633
Si 13.8536 15.0248 7.22489
O 10.8952 14.0488 10.148
O 13.6013 9.9612 10.2425
O 12.3402 11.3052 8.45142
O 0.0317322 15.4935 8.22635
O 11.8323 9.44968 6.62719
O 14.2045 13.7088 6.50649
O 10.9872 11.906 6.27376
O 13.5306 16.317 6.24015
O 12.5921 15.0154 8.22065
O 14.838 10.7818 7.9721
O 11.7187 16.6316 10.0124
O 14.2706 12.3572 9.95569
Si 0.0653189 4.37672 11.0793
Si 2.64527 0.0503813 11.0255
Si 1.02803 6.55488 14.6287
Si 3.85086 2.1888 14.7547
Si 1.28654 2.16473 12.964
Si 3.52239 6.37975 12.7178
O 0.987245 5.3035 15.6699
O 3.53346 0.941027 15.7368
O 2.49695 2.57766 13.9936
O 4.7108 6.95563 13.6953
O 1.68886 0.979752 11.9364
O 4.11091 5.02374 12.019
O 0.889411 3.37337 12.0248
O 3.34055 7.52029 11.5765
O 2.20994 6.27488 13.515
O 5.01011 2.09081 13.6678
O 1.49324 7.89276 15.424
O 4.07912 3.42021 15.8193
Si 5.17581 4.29576 11.0164
Si 7.59833 0.0203197 11.1281
Si 5.95867 6.61767 14.6609
Si 8.86153 2.17175 14.6646
Si 6.40047 2.11225 12.8149
Si 8.46429 6.43579 12.9203
O 5.62214 5.48855 15.7237
O 8.45553 0.782157 15.3966
O 7.5721 2.52981 13.8396
O 9.77869 6.7786 13.8274
O 6.61999 0.668449 12.1406
O 8.86153 5.23817 11.9868
O 6.15727 3.1907 11.6886
O 8.06054 7.72057 12.0414
O 7.10629 6.04127 13.7424
O 10.0805 2.03975 13.6885
O 6.53307 7.88417 15.4207
O 9.27581 3.25672 15.8065
Si 10.0161 4.52284 11.1377
Si 12.7137 0.0465295 10.973
Si 11.1358 6.53684 14.7031
Si 13.8208 2.1375 14.7446
Si 11.328 2.2777 12.7935
Si 13.577 6.53737 12.8116
O 10.803 5.42842 15.7764
O 13.4084 0.929457 15.758
O 12.6303 2.50261 13.7474
O 14.7166 6.84767 13.8765
O 11.7769 1.06353 11.822
O 14.1629 5.37031 11.8583
O 11.0939 3.57793 11.8778
O 13.421 7.74888 11.792
O 12.2435 6.1093 13.6136
O 15.0937 1.75383 13.7577
O 11.6812 7.77514 15.4653
O 14.2894 3.45191 15.4292
Si 0.245394 13.0916 11.0745
Si 2.61534 8.68785 10.9237
Si 1.18431 15.3436 14.6789
Si 3.77098 10.9838 14.7367
Si 1.30987 10.8809 12.8634
Si 3.80162 15.2244 12.9333
O 0.931919 14.155 15.7557
O 3.50068 9.62275 15.3755
O 2.4332 11.3819 13.9065
O 4.93487 15.5139 13.8881
O 1.93167 9.65315 12.0784
O 4.23613 13.9952 11.9662
O 1.14505 12.0686 11.8386
O 3.30383 16.3864 11.8982
O 2.44993 14.8864 13.7588
O 4.99634 10.8273 13.7304
O 1.66583 16.5934 15.5962
O 3.98758 12.1856 15.8054
Si 5.11118 13.1187 10.9559
Si 7.47416 8.82227 11.0178
Si 6.23993 15.1604 14.7675
Si 8.72657 10.764 14.7798
Si 6.34059 11.0437 12.9333
Si 8.77936 15.2461 12.9125
O 5.85335 13.9814 15.7419
O 8.54992 9.43773 15.6335
O 7.52848 11.2374 13.9959
O 10.0868 15.5479 13.8752
O 6.75076 9.8153 12.0215
O 9.23113 13.922 12.0934
O 6.13333 12.3103 11.9358
O 8.59821 16.4873 11.924
O 7.44008 14.8129 13.7504
O 9.98292 10.5817 13.7364
O 6.67001 16.3613 15.7131
O 9.12735 12.112 15.6556
Si 10.0269 13.0518 10.9748
Si 12.7332 8.89031 10.976
Si 11.3312 15.1895 14.8146
Si 13.7735 10.8739 14.708
Si 11.2956 10.9361 12.8893
Si 13.826 15.1856 12.9019
O 11.0224 13.9635 15.7496
O 13.4713 9.56859 15.4605
O 12.4448 11.4237 13.8988
O 14.976 15.7275 13.8526
O 11.8388 9.75647 12.0485
O 14.4821 13.9868 12.1431
O 10.9549 12.0529 11.8293
O 13.4834 16.411 11.9025
O 12.5258 14.9795 13.814
O -0.115399 10.5727 13.664
O 11.8458 16.3526 15.7799
O 14.4261 12.013 15.6852
324
 Atoms. Timestep: 29000
Si 0.14669 4.32882 16.643
Si 2.61878 17.4293 16.4604
Si 1.05742 6.80705 3.88082
Si 3.89991 1.9366 3.68781
Si 1.36539 2.11881 1.73774
Si 3.56506 6.34771 2.00919
O 0.772643 5.63504 4.93364
O 3.70739 0.715683 4.68555
O 2.50975 2.11742 2.99089
O 4.91645 6.88784 2.79526
O 1.73759 1.00603 0.738862
O 3.95505 4.97793 1.2796
O 1.157 3.50346 1.03078
O 3.25181 7.39353 0.856847
O 2.36701 6.36807 2.99626
O 5.02539 1.79384 2.59764
O 1.41556 8.13544 4.64066
O 4.22891 3.20855 4.63461
Si 4.78957 4.28217 0.120155
Si 7.54928 -0.0564713 -0.0527889
Si 6.16772 6.48751 3.73157
Si 8.83941 2.42828 3.74046
Si 6.33468 2.27635 1.88295
Si 8.66947 6.38891 1.89247
O 5.71676 5.31784 4.64102
O 8.62883 1.09697 4.677
O 7.49274 2.70021 2.9103
O 9.93351 6.77988 2.79158
O 6.98021 0.967978 1.07107
O 9.11825 5.24038 0.92836
O 5.82742 3.37233 0.943463
O 8.27605 7.63706 0.98775
O 7.40645 6.1232 2.7655
O 10.0089 1.96356 2.65144
O 6.62836 7.8263 4.56586
O 9.31094 3.66983 4.64372
Si 10.216 4.54331 0.000738553
Si 12.6738 -0.00763403 0.0976847
Si 11.2324 6.7337 3.66255
Si 13.9061 2.22388 3.54355
Si 11.3678 2.22722 1.82177
Si 13.725 6.4777 1.90809
O 11.1725 5.71698 4.85226
O 13.6253 1.06044 4.61156
O 12.5572 2.47455 2.7993
O 14.9219 6.81841 2.90894
O 11.8992 0.801238 1.15923
O 14.2111 5.18578 1.0316
O 11.1313 3.48053 0.874081
O 13.5254 7.7245 0.951706
O 12.4513 6.27233 2.78814
O 15.056 1.69163 2.49604
O 11.6777 8.23245 4.3153
O 14.416 3.53912 4.33367
Si 0.0827186 13.0774 16.5141
Si 2.50974 8.52275 16.444
Si 1.07809 15.3296 3.73587
Si 3.79154 11.0107 3.66945
Si 1.3543 10.8077 1.66854
Si 3.5766 15.1463 1.92106
O 0.969622 14.1308 4.75153
O 3.38325 9.83452 4.63273
O 2.50347 11.2854 2.70834
O 4.73359 15.4017 2.9816
O 1.87633 9.55562 0.908423
O 4.1108 13.8313 1.10529
O 1.07164 11.9959 0.657503
O 3.32378 16.3188 0.857742
O 2.16818 14.964 2.60083
O 5.00581 10.6063 2.78271
O 1.71752 16.5732 4.49243
O 4.18663 12.2583 4.59667
Si 4.98985 13.0408 0.00802633
Si 7.45421 8.60119 16.561
Si 6.17597 15.2866 3.65389
Si 8.90562 10.8449 3.62518
Si 6.25936 10.7305 1.89249
Si 8.68739 15.1979 1.92723
O 6.06047 14.2373 4.83007
O 8.54277 9.70329 4.73216
O 7.50797 11.1343 2.85223
O 9.73091 15.7923 2.94941
O 6.59708 9.52568 0.993001
O 9.29842 13.9318 1.16938
O 5.88711 11.9792 0.871638
O 8.45821 16.2931 0.720679
O 7.28989 14.8767 2.58692
O 10.0909 10.3215 2.63608
O 6.74449 16.6491 4.40311
O 9.3975 12.2287 4.3101
Si 10.1197 13.0675 0.188851
Si 12.7749 8.77874 16.4612
Si 11.2048 15.3696 3.64783
Si 14.0529 10.7954 3.70024
Si 11.3906 10.7604 1.8853
Si 13.7058 15.0544 1.77851
O 10.929 14.2271 4.78641
O 13.8327 9.70357 4.85643
O 12.6094 11.0045 3.00104
O 14.7147 15.4205 3.06861
O 11.8548 9.55817 0.910338
O 14.2249 13.7971 0.978757
O 11.1113 12.0894 0.978277
O 13.613 16.2737 0.845777
O 12.1789 14.9435 2.50943
O 0.0200034 10.4582 2.49264
O 11.9502 16.5416 4.44818
O 14.4664 12.1638 4.47451
Si 0.00089751 4.38581 5.50897
Si 2.67218 17.2713 5.54922
Si 1.12922 6.59978 9.20814
Si 3.76708 2.43026 8.93031
Si 1.22891 2.22096 7.16457
Si 3.58807 6.38876 7.28195
O 0.846133 5.50238 10.4122
O 3.59383 1.29856 10.1224
O 2.34111 2.64689 8.28989
O 4.80507 6.78088 8.27401
O 1.84555 0.97096 6.4191
O 4.08905 5.11966 6.52085
O 1.06246 3.3903 6.14573
O 3.36572 7.67096 6.34161
O 2.31011 6.17992 8.17131
O 4.92159 1.83356 7.91511
O 1.62514 7.94824 9.83824
O 4.381 3.69179 9.73657
Si 5.0106 4.31108 5.5669
Si 7.70505 -0.077381 5.37087
Si 6.21251 6.68658 9.11108
Si 8.90446 2.31586 9.21834
Si 6.4148 2.09677 7.26502
Si 8.76618 6.41532 7.40642
O 5.90658 5.7021 10.409
O 8.73162 1.20686 10.319
O 7.51152 2.50168 8.40548
O 9.735 6.95454 8.55384
O 6.937 0.807137 6.47285
O 9.42623 5.21676 6.67882
O 6.13459 3.40192 6.37131
O 8.55674 7.54467 6.26541
O 7.36952 6.06466 8.10128
O 10.037 1.97293 8.09823
O 6.66288 8.12073 9.82118
O 9.33371 3.63546 10.0305
Si 10.2796 4.47422 5.66951
Si 12.896 0.00824575 5.52184
Si 11.2182 6.75092 9.16018
Si 13.9529 2.18831 9.10404
Si 11.4656 2.12892 7.32448
Si 13.6058 6.32408 7.25876
O 11.0352 5.70495 10.2849
O 13.5452 1.07541 10.2665
O 12.6102 2.46097 8.30533
O 14.8061 6.56104 8.39877
O 12.012 0.949106 6.53474
O 14.0178 4.93045 6.59184
O 11.2754 3.37509 6.24534
O 13.4849 7.50698 6.22587
O 12.2341 6.272 8.04529
O 15.0389 1.86638 8.02265
O 11.8238 8.04333 9.89258
O 14.4518 3.38701 10.0046
Si 0.201529 13.0252 5.59863
Si 2.47687 8.83494 5.6148
Si 1.29369 15.3814 9.29937
Si 3.79999 10.9205 9.21366
Si 1.22745 10.8225 7.55964
Si 3.83358 15.0948 7.54848
O 0.763612 14.3991 10.4056
O 3.59636 9.67197 10.2762
O 2.31619 11.1689 8.6716
O 5.07632 15.7118 8.40377
O 1.76934 9.52651 6.83347
O 4.41642 13.9106 6.68064
O 0.996323 11.9647 6.4717
O 3.21799 16.1371 6.51859
O 2.62968 14.6631 8.48743
O 4.90916 10.3883 8.13507
O 1.73377 16.8275 9.84093
O 4.58112 12.0546 10.0305
Si 5.22756 13.064 5.5189
Si 7.59899 8.65874 5.54485
Si 6.41917 15.503 9.25828
Si 8.8863 10.9582 9.31332
Si 6.35584 10.7685 7.36213
Si 8.84353 15.0941 7.29515
O 6.15355 14.1448 10.1397
O 8.61103 9.80779 10.4143
O 7.45083 11.2624 8.42563
O 10.0318 15.3368 8.29607
O 6.79216 9.5123 6.53768
O 9.13045 13.7241 6.51278
O 6.09587 12.0106 6.33162
O 8.51753 16.1907 6.14865
O 7.53465 15.0633 8.20031
O 9.85286 10.4424 8.1418
O 6.83392 16.8421 10.0136
O 9.3784 12.242 10.053
Si 10.147 13.0048 5.48457
Si 12.6868 8.6715 5.44689
Si 11.3714 15.2881 9.18697
Si 13.6676 10.9147 9.19386
Si 11.2166 10.7194 7.34525
Si 13.8892 15.1584 7.33732
O 11.1605 14.2225 10.4207
O 13.4072 9.94036 10.4125
O 12.1967 11.0661 8.48352
O 0.116887 15.5241 8.18823
O 11.8007 9.46319 6.55271
O 14.2932 13.7118 6.64401
O 11.0674 12.0256 6.35326
O 13.7575 16.3083 6.25647
O 12.5726 15.0187 8.20216
O 14.8091 10.5383 8.13663
O 11.7399 16.7301 9.8714
O 14.1423 12.2788 9.89851
Si 0.0358998 4.30088 11.16
Si 2.76042 0.21186 10.9188
Si 1.01764 6.47344 14.5843
Si 3.77555 2.12129 14.6871
Si 1.21663 2.02113 12.885
Si 3.46457 6.28699 12.7829
O 0.876885 5.39888 15.7892
O 3.77859 0.848514 15.7381
O 2.38635 2.16103 13.9462
O 4.6587 6.70696 13.8405
O 1.73308 0.891267 11.9334
O 3.96484 5.03907 11.9901
O 1.05101 3.43894 12.1145
O 3.23503 7.5413 11.8567
O 2.02131 5.99756 13.5173
O 5.03124 2.20552 13.629
O 1.33542 7.84978 15.4181
O 3.89223 3.37425 15.6803
Si 5.08681 4.45588 10.9053
Si 7.77181 0.164322 11.1298
Si 5.93975 6.58102 14.7865
Si 8.81418 2.28705 14.7207
Si 6.36297 2.38839 12.8296
Si 8.54745 6.437 12.9433
O 5.4492 5.48461 15.846
O 8.43718 0.966774 15.5593
O 7.53564 2.80276 13.845
O 9.60925 6.958 14.0402
O 6.89089 1.05959 12.1288
O 9.39507 5.28723 12.1695
O 6.00162 3.47546 11.6789
O 8.05369 7.56394 11.8601
O 7.23494 6.10756 13.8613
O 9.88156 1.91916 13.5214
O 6.41578 7.81484 15.6169
O 9.49376 3.44478 15.5588
Si 10.2652 4.51349 11.0355
Si 12.5831 0.0129902 11.041
Si 11.1116 6.75913 14.5991
Si 13.824 2.13349 14.7227
Si 11.3153 2.11633 12.9074
Si 13.5149 6.3671 12.7105
O 10.9466 5.64063 15.7527
O 13.4811 0.94642 15.6486
O 12.4217 2.42987 13.9928
O 14.6425 6.49423 13.964
O 11.6573 0.843005 12.0078
O 13.9041 5.01807 11.9954
O 11.0591 3.34544 11.8361
O 13.5008 7.67279 11.8939
O 12.0457 6.2659 13.3605
O 14.8963 1.8726 13.5261
O 11.9026 7.97871 15.3724
O 14.5201 3.3294 15.5922
Si 14.8874 13.1117 10.9456
Si 2.48668 8.72739 10.9664
Si 1.32322 15.2962 14.6022
Si 3.65621 10.893 14.6011
Si 1.18665 10.8877 12.783
Si 3.78535 15.159 12.6663
O 0.856074 14.2722 15.7577
O 3.35414 9.53193 15.5676
O 2.39963 11.3735 13.7447
O 4.95548 15.6672 13.666
O 1.62199 9.62036 11.9218
O 4.35441 13.9897 11.8076
O 0.788031 12.102 11.738
O 3.47726 16.4047 11.692
O 2.5108 14.804 13.6559
O 4.82409 10.5691 13.6184
O 1.84516 16.6324 15.2889
O 4.06385 12.1187 15.5413
Si 5.37471 13.0678 11.0159
Si 7.41776 8.78191 11.0326
Si 6.18114 15.2352 14.6382
Si 8.65498 10.8391 14.8904
Si 6.31275 10.8822 12.9614
Si 8.78991 15.0993 12.9254
O 5.6998 14.1293 15.6362
O 8.42634 9.57473 15.7383
O 7.26789 11.0898 14.1683
O 9.90585 15.3375 14.0239
O 6.65386 9.67449 12.047
O 9.24349 13.9112 11.976
O 6.17448 12.1737 12.1002
O 8.44029 16.3283 11.9484
O 7.39008 14.9207 13.7118
O 9.71513 10.5332 13.7347
O 6.5792 16.5651 15.5108
O 9.14267 12.1235 15.7867
Si 10.2255 13.067 11.1572
Si 12.5717 8.72429 11.1023
Si 11.2711 15.2875 14.8281
Si 13.82 10.9624 14.6895
Si 11.1408 10.7125 12.9731
Si 13.7608 15.154 12.9086
O 11.0677 14.0803 15.8591
O 13.7339 9.83463 15.8542
O 12.3395 11.0272 14.053
O 0.0391428 15.4969 13.6128
O 11.6291 9.41289 12.1705
O 13.9655 13.8077 12.0186
O 10.9873 11.9113 11.8497
O 13.4356 16.3491 11.8243
O 12.5557 15.0499 13.9505
O 14.8799 10.6906 13.4967
O 11.5921 16.6807 15.6721
O 14.2815 12.2996 15.4392
324
 Atoms. Timestep: 29500
Si 0.0231548 4.19643 0.199225
Si 2.66237 17.4312 16.4118
Si 1.20161 6.66565 3.56061
Si 3.85543 1.99898 3.82401
Si 1.31582 1.98245 1.91591
Si 3.67298 6.41109 1.75432
O 1.028 5.48392 4.67808
O 3.63837 0.782297 4.86114
O 2.53481 2.33717 2.85195
O 4.84466 6.83409 2.87642
O 1.65187 0.683534 0.953567
O 4.38663 5.11526 0.895538
O 1.07651 3.26534 0.881866
O 3.52879 7.62676 0.764498
O 2.32562 6.18323 2.56832
O 5.05908 1.74874 2.76276
O 1.78093 7.97727 4.38528
O 4.1469 3.33603 4.69826
Si 5.36158 4.37127 -0.129139
Si 7.75792 -0.0514035 16.5035
Si 6.19692 6.35893 3.70538
Si 8.83385 2.29317 3.57531
Si 6.32956 2.01376 1.7904
Si 8.58725 6.46664 1.79145
O 5.87238 5.13746 4.5648
O 8.38354 1.13549 4.60498
O 7.50669 2.5761 2.74511
O 9.6995 6.78595 2.81352
O 6.8896 0.732414 1.08053
O 9.21788 5.1673 0.971464
O 6.07299 3.25888 0.75463
O 8.29779 7.7319 0.750563
O 7.26025 6.11517 2.53293
O 10.0883 2.14405 2.64522
O 6.73435 7.57677 4.61869
O 9.24248 3.53454 4.47596
Si 10.1541 4.40018 16.5253
Si 12.6485 17.3588 -0.0269164
Si 11.1102 6.6974 3.6403
Si 13.9251 2.18212 3.68531
Si 11.4173 2.22168 1.83275
Si 13.736 6.44447 1.90133
O 10.9124 5.40898 4.65937
O 13.4381 1.05685 4.70703
O 12.7274 2.60038 2.70291
O 14.8711 6.85517 2.92824
O 11.8449 0.973186 0.9639
O 14.3297 5.13793 1.24878
O 11.1025 3.3383 0.709124
O 13.3848 7.46111 0.626598
O 12.3126 6.39858 2.56565
O 15.0607 1.71204 2.67593
O 11.4456 7.94431 4.48017
O 14.431 3.50482 4.46714
Si 0.222143 12.9842 16.4906
Si 2.59759 8.70377 16.5824
Si 1.17484 15.1746 3.78039
Si 3.65699 11.0417 3.79565
Si 1.24901 10.8537 1.82852
Si 3.70326 15.1894 1.77088
O 0.984213 14.0295 4.91839
O 3.5287 9.66782 4.72756
O 2.34285 11.213 2.94906
O 4.92261 15.4595 2.83453
O 1.69757 9.4576 1.1092
O 4.06163 13.9026 0.844693
O 1.03423 11.9062 0.711249
O 3.57474 16.5028 0.829409
O 2.3751 14.9252 2.67572
O 4.9209 10.7817 2.83579
O 1.77302 16.3683 4.66582
O 4.0401 12.2784 4.61609
Si 5.0456 13.0288 16.3892
Si 7.4575 8.80377 -0.0564625
Si 6.31302 15.3661 3.6218
Si 8.80327 10.8739 3.73913
Si 6.19818 10.8946 1.93754
Si 8.88996 15.0906 1.82396
O 6.02071 14.0526 4.67481
O 8.39751 9.60408 4.63938
O 7.52871 11.2519 2.8138
O 10.0355 15.4503 2.80236
O 6.5911 9.62834 1.03881
O 9.39499 13.663 1.19451
O 5.90549 11.9948 0.739237
O 8.67934 16.2443 0.750868
O 7.49641 15.0002 2.66441
O 9.96871 10.6046 2.69309
O 6.7206 16.7231 4.36955
O 9.27849 12.0872 4.64407
Si 10.2031 12.9607 0.0150261
Si 12.6372 8.6528 16.5169
Si 11.3667 15.2408 3.59927
Si 13.7264 10.9666 3.71846
Si 11.2971 10.7626 1.79817
Si 13.8562 15.0748 1.85607
O 11.0344 14.1746 4.70627
O 13.4906 9.54943 4.53695
O 12.3799 11.3158 2.85191
O 14.9355 15.2939 2.904
O 11.8366 9.42341 1.20121
O 14.4825 13.9564 0.919585
O 11.0499 11.8082 0.620699
O 13.5292 16.3361 0.875236
O 12.5024 14.7211 2.64124
O 14.919 10.795 2.6626
O 11.8921 16.5192 4.33843
O 14.1884 12.1202 4.6905
Si 15.2578 4.4096 5.48785
Si 2.64456 17.1884 5.73346
Si 1.1325 6.73081 9.03467
Si 3.78795 2.26265 9.36158
Si 1.37461 2.16205 7.40221
Si 3.72923 6.43609 7.35525
O 0.853676 5.54614 10.1649
O 3.41332 1.26993 10.4841
O 2.57336 2.52098 8.33911
O 4.64358 6.95832 8.61917
O 1.85684 0.797952 6.63549
O 4.41692 5.20528 6.67763
O 1.03764 3.40257 6.39435
O 3.6067 7.48866 6.17815
O 2.17139 6.26515 7.86771
O 4.98092 1.81648 8.34472
O 1.86798 7.94506 9.78479
O 4.25309 3.61519 10.0096
Si 5.05483 4.21616 5.57299
Si 7.61731 17.536 5.51882
Si 6.05798 6.87273 9.24521
Si 8.92785 2.25615 9.2801
Si 6.24588 2.00232 7.49129
Si 8.61709 6.49095 7.35829
O 5.92302 5.64535 10.1917
O 8.77473 0.912701 10.1255
O 7.46835 2.36154 8.50992
O 9.72558 6.85366 8.44724
O 6.75484 0.682316 6.72054
O 9.04859 5.18065 6.49167
O 6.07136 3.22401 6.39286
O 8.64176 7.67221 6.28477
O 7.15429 6.45707 8.12367
O 10.127 1.93419 8.23176
O 6.67284 8.00967 10.1223
O 9.39739 3.53282 10.0605
Si 10.0581 4.32988 5.51731
Si 12.551 17.3269 5.52954
Si 11.1309 6.75776 9.24793
Si 13.8968 2.20423 9.28392
Si 11.3462 2.18984 7.31598
Si 13.5916 6.48218 7.28356
O 10.9448 5.5543 10.366
O 13.6207 0.960833 10.2711
O 12.5914 2.5625 8.33349
O 14.7336 6.90219 8.37383
O 11.6871 0.802527 6.50117
O 14.2131 5.28585 6.35447
O 11.0316 3.40526 6.3009
O 13.2345 7.64608 6.26926
O 12.1978 6.23237 8.14988
O 0.0225586 1.97112 8.2469
O 11.7688 8.00999 10.0528
O 14.2551 3.49404 10.1094
Si 0.0694637 12.9154 5.63135
Si 2.66213 8.65571 5.52977
Si 1.18826 15.4671 9.24411
Si 3.84254 11.0425 9.21534
Si 1.23194 10.6957 7.48899
Si 3.74569 14.8986 7.61265
O 0.709451 14.405 10.3707
O 3.49373 9.85292 10.3073
O 2.48216 11.2621 8.37735
O 4.72635 15.4991 8.67873
O 1.87101 9.38434 6.74035
O 4.40366 13.6724 6.79924
O 0.812197 11.7376 6.40699
O 3.43259 16.0746 6.55835
O 2.31475 14.6768 8.38808
O 4.91724 10.6199 8.18985
O 1.87551 16.731 9.92284
O 4.38568 12.3498 9.95048
Si 5.13668 12.9917 5.58169
Si 7.63394 8.50663 5.44783
Si 6.29219 15.3749 9.14926
Si 8.76643 10.9933 9.12502
Si 6.23651 10.6177 7.26319
Si 8.7516 15.3481 7.31669
O 6.18925 14.1842 10.1912
O 8.55833 9.71105 10.1128
O 7.47015 11.031 8.22584
O 9.85657 15.6547 8.513
O 6.69508 9.33262 6.51577
O 9.18297 13.9888 6.47309
O 5.99861 11.7657 6.15488
O 8.6161 16.5597 6.26896
O 7.32667 15.1103 8.0002
O 10.0242 10.6548 8.23998
O 6.8107 16.7302 9.85794
O 9.10051 12.3699 9.89812
Si 10.1302 13.122 5.46524
Si 12.5052 8.7234 5.47841
Si 11.2527 15.4064 9.27436
Si 13.8182 10.9798 9.33069
Si 11.32 10.9731 7.32138
Si 13.8085 15.1775 7.3588
O 11.0301 14.1289 10.127
O 13.5406 9.9584 10.5631
O 12.5497 11.2374 8.31179
O -0.166172 15.7702 8.35406
O 11.5968 9.72211 6.30751
O 14.3554 13.8392 6.739
O 11.0996 12.1571 6.33111
O 13.5099 16.2858 6.24408
O 12.4295 15.1422 8.1449
O -0.10675 10.4581 8.34002
O 11.6953 16.6493 10.1618
O 14.3941 12.3512 10.0644
Si 0.128309 4.40008 10.981
Si 2.59431 0.0984895 11.0972
Si 1.0721 6.51316 14.804
Si 3.81255 2.26329 14.5402
Si 1.1469 2.16985 12.7957
Si 3.67799 6.51557 12.9825
O 0.649446 5.3305 15.7226
O 3.50691 1.1498 15.65
O 2.3251 2.59306 13.8446
O 4.76785 6.85456 14.1066
O 1.62804 0.770855 12.2061
O 4.1547 5.29212 12.0893
O 1.11791 3.29481 11.6234
O 3.37677 7.70262 11.872
O 2.36598 6.33468 13.811
O 4.9002 1.77856 13.4911
O 1.64011 7.82324 15.6227
O 4.53562 3.51124 15.2422
Si 5.07214 4.55785 11.0879
Si 7.72996 0.0602171 10.9389
Si 6.17309 6.69923 14.6542
Si 8.80996 2.28248 14.7833
Si 6.35532 2.20073 12.7367
Si 8.70284 6.36495 12.8186
O 6.22239 5.45889 15.6921
O 8.61753 1.20949 15.9518
O 7.32498 2.36769 14.0094
O 9.81199 6.7727 13.9443
O 6.80229 1.10145 11.7346
O 9.03033 4.94402 12.1384
O 6.01935 3.50815 11.9121
O 8.64282 7.49297 11.6818
O 7.26044 6.47407 13.4744
O 9.89066 1.86311 13.6937
O 6.60196 8.03264 15.4163
O 9.30613 3.64677 15.4515
Si 10.1911 4.39646 11.1509
Si 12.6903 17.3788 11.1827
Si 11.232 6.66096 14.6882
Si 13.7828 2.2512 14.7378
Si 11.2814 2.12403 12.9208
Si 13.7265 6.50469 12.8731
O 11.0354 5.58445 15.875
O 13.623 0.805756 15.5738
O 12.3236 2.53426 14.0672
O 14.8708 6.86825 13.8496
O 11.8642 0.782579 12.28
O 14.2608 5.13947 12.0992
O 11.0606 3.2606 11.8244
O 13.5547 7.65633 11.7447
O 12.2793 6.28854 13.5742
O 14.8157 2.21007 13.5833
O 11.6914 8.05642 15.3351
O 14.1748 3.22931 15.9423
Si 15.2669 13.1802 11.1861
Si 2.57773 8.72245 10.9849
Si 1.14315 15.2603 14.6464
Si 3.63542 10.8328 14.5621
Si 1.04883 10.7335 12.8419
Si 3.75281 15.2159 12.8719
O 1.13861 13.9597 15.6169
O 3.42606 9.67849 15.6566
O 2.12132 10.9408 13.9697
O 4.83695 15.7522 13.9768
O 1.44643 9.40266 11.9416
O 4.3744 13.9731 12.0737
O 1.06484 12.0061 11.8757
O 3.49097 16.4028 11.8673
O 2.31063 15.085 13.5479
O 4.84797 10.509 13.5729
O 1.71007 16.5125 15.4953
O 4.17914 12.2016 15.2691
Si 5.32564 13.1117 11.0037
Si 7.7165 8.69901 11.0986
Si 6.22475 15.3971 14.6358
Si 8.64757 11.0499 14.7429
Si 6.2379 10.8139 12.8596
Si 8.64405 15.1533 12.8221
O 5.94155 14.206 15.7645
O 8.45712 9.8241 15.7485
O 7.21192 11.3252 14.022
O 9.73284 15.471 13.9653
O 6.88505 9.56042 12.1404
O 9.20884 13.8563 12.0573
O 6.05486 11.9666 11.7572
O 8.44164 16.4125 11.8403
O 7.20996 14.8523 13.4131
O 9.7648 10.5915 13.588
O 7.01418 16.5322 15.4013
O 9.25211 12.378 15.3341
Si 10.0815 13.0539 10.9044
Si 12.5929 8.72314 11.1392
Si 11.107 15.2967 14.8217
Si 13.6185 11.0077 14.6031
Si 11.1604 10.8621 12.9022
Si 13.703 15.0937 13.042
O 10.9809 14.0597 15.819
O 13.3378 9.84315 15.6802
O 12.2137 11.391 13.9627
O 14.8121 15.5222 14.1271
O 11.7028 9.47991 12.2139
O 14.3798 13.7896 12.3578
O 10.9021 11.9098 11.7616
O 13.5539 16.206 11.8856
O 12.2212 14.9508 13.6422
O 14.6939 10.5677 13.5633
O 11.6031 16.5748 15.5983
O 14.3734 12.1592 15.372
324
 Atoms. Timestep: 30000
Si 0.137039 4.50195 0.0811321
Si 2.54568 17.4287 16.6554
Si 1.23125 6.52274 3.57587
Si 3.79336 2.24274 3.53763
Si 1.17863 2.21007 1.82755
Si 3.6803 6.27467 1.94978
O 1.09377 5.38228 4.67588
O 3.46549 0.964405 4.47746
O 2.47593 2.56651 2.66841
O 4.69317 6.53755 3.06911
O 1.51537 0.821677 1.04357
O 4.22512 5.08541 1.09129
O 1.05934 3.41968 0.745168
O 3.65039 7.63475 0.903069
O 2.13276 5.98822 2.37494
O 5.02807 1.9843 2.59832
O 1.86217 7.72672 4.313
O 4.34379 3.43309 4.4353
Si 5.17211 4.42799 16.4931
Si 7.41002 17.3216 16.4935
Si 6.28188 6.45616 3.63813
Si 8.75972 2.19422 3.64129
Si 6.32787 2.17171 1.76474
Si 8.69387 6.36124 1.74024
O 6.18828 5.32634 4.78584
O 8.37569 1.14011 4.74441
O 7.59593 2.45822 2.62293
O 9.73581 6.77704 3.03533
O 6.5688 0.798642 0.970989
O 9.27385 5.10362 0.991362
O 6.06622 3.22436 0.596735
O 8.44043 7.5798 0.799403
O 7.29956 6.04074 2.55387
O 9.96516 1.66583 2.80042
O 6.72388 7.72421 4.38303
O 9.20179 3.52991 4.34515
Si 10.0739 4.15086 16.4763
Si 12.7322 17.4648 16.5502
Si 11.0786 6.68684 3.77878
Si 13.8199 2.41847 3.76316
Si 11.2877 2.09488 1.91306
Si 13.6766 6.51646 1.92396
O 11.0629 5.36503 4.67834
O 13.6675 1.11561 4.73301
O 12.3749 2.55367 3.01764
O 14.8102 6.77107 2.98151
O 11.9552 0.763282 1.27107
O 14.3313 5.25266 1.16476
O 11.0215 3.18808 0.753181
O 13.5527 7.741 0.857168
O 12.2315 6.46392 2.67019
O 15.0634 2.19961 2.77668
O 11.5455 7.90231 4.63559
O 14.2161 3.6345 4.68039
Si 0.095064 12.9527 16.5099
Si 2.80813 8.81243 0.247141
Si 1.33786 15.3961 3.54815
Si 3.66666 11.0581 3.62895
Si 1.12855 10.7487 1.79304
Si 3.80773 15.1301 1.81223
O 0.962727 14.1032 4.55942
O 3.42583 9.73212 4.4831
O 2.25442 11.2614 2.80291
O 5.07289 15.3996 2.75972
O 1.88176 9.39366 1.36464
O 4.18908 13.7798 1.04171
O 0.943115 11.7843 0.616817
O 3.43261 16.3743 0.894604
O 2.5202 14.9253 2.74481
O 4.79635 10.6219 2.62875
O 1.73472 16.5781 4.5557
O 4.14117 12.3106 4.58427
Si 5.15023 13.0623 16.4673
Si 7.68254 8.77304 0.0827509
Si 6.3513 15.2887 3.72457
Si 8.54881 10.9572 3.6906
Si 6.15573 10.8192 1.83439
Si 8.79844 15.0087 1.80938
O 5.86842 14.2883 4.91312
O 8.30735 9.66387 4.59289
O 7.23071 11.3179 2.89709
O 10.0566 15.5323 2.69567
O 6.83172 9.51245 1.17232
O 9.27538 13.8026 0.959075
O 5.90243 11.9294 0.696097
O 8.11102 16.1166 0.714832
O 7.60237 14.8606 2.77205
O 9.64646 10.7194 2.56294
O 6.80724 16.5675 4.4434
O 9.1304 12.307 4.43242
Si 10.0417 13.0243 16.2997
Si 12.6367 8.7076 0.0636549
Si 11.3793 15.3456 3.57288
Si 13.5536 11.0488 3.66757
Si 11.0653 10.7529 1.70932
Si 13.8997 15.0494 1.84183
O 10.957 14.2187 4.72242
O 13.4193 9.84459 4.69344
O 12.1533 11.1798 2.90183
O 15.1451 15.5734 2.6715
O 11.5519 9.497 0.941682
O 14.3933 13.6981 1.11234
O 10.7943 11.8173 0.541339
O 13.6101 16.2788 0.625837
O 12.5228 14.7515 2.5241
O 14.7844 10.5899 2.60344
O 12.0513 16.5949 4.35509
O 14.0406 12.4197 4.34929
Si 0.139619 4.5149 5.58859
Si 2.62505 17.4852 5.50611
Si 1.26247 6.70665 9.21226
Si 3.80884 2.2775 9.29898
Si 1.23915 2.191 7.38117
Si 3.79524 6.5693 7.2875
O 0.851827 5.48512 10.0604
O 3.45378 1.17631 10.4343
O 2.4529 2.44243 8.45614
O 4.98072 6.65743 8.37551
O 1.85559 0.965806 6.54294
O 4.28855 5.25905 6.39709
O 0.867595 3.30209 6.34067
O 3.52398 7.85268 6.3485
O 2.36305 6.32397 8.11943
O 4.91368 1.71976 8.35761
O 1.76176 7.87252 10.1516
O 4.41321 3.60647 10.0211
Si 5.1828 4.30428 5.48259
Si 7.51663 17.4588 5.56787
Si 6.3769 6.53941 9.23835
Si 8.81964 2.21121 9.27681
Si 6.24774 2.04242 7.51655
Si 8.84721 6.37684 7.30805
O 6.18247 5.45414 10.465
O 8.58008 1.04247 10.4404
O 7.42241 2.38472 8.53656
O 10.1317 6.64331 8.28185
O 6.64499 0.770696 6.69207
O 9.23345 5.16433 6.36011
O 5.95395 3.27958 6.44086
O 8.3923 7.68701 6.42595
O 7.59382 6.12064 8.30828
O 9.84011 1.65634 8.13891
O 6.89155 8.03799 9.74433
O 9.38845 3.50179 10.0017
Si 10.1859 4.2935 5.37541
Si 12.7222 17.4417 5.50698
Si 11.3929 6.54169 9.22838
Si 13.7418 2.31967 9.09556
Si 11.1999 1.93174 7.25375
Si 13.8813 6.64997 7.38525
O 11.1 5.2897 10.2266
O 13.4397 1.15334 10.1456
O 12.4779 2.25884 8.16382
O 14.937 7.25065 8.41745
O 11.6481 0.695183 6.37861
O 14.4826 5.46851 6.57748
O 10.9574 3.13282 6.26253
O 13.6279 7.77497 6.25174
O 12.5767 6.19565 8.17835
O 15.0686 1.9108 8.28012
O 11.8748 7.7341 10.0855
O 14.1017 3.68528 9.89805
Si 15.0962 13.1208 5.43616
Si 2.64601 8.67056 5.31994
Si 1.11502 15.3553 9.28348
Si 3.75725 10.9391 9.08616
Si 1.20561 10.7968 7.14295
Si 3.64673 15.293 7.40785
O 1.11877 14.0924 10.3315
O 3.4234 9.86605 10.173
O 2.56656 11.0842 8.00083
O 4.85024 15.4961 8.43226
O 1.50733 9.57973 6.15321
O 4.06173 13.9516 6.67436
O 0.764816 12.0159 6.23029
O 3.53077 16.5163 6.37406
O 2.21387 15.111 8.20355
O 5.14433 10.5001 8.35391
O 1.65492 16.6534 10.0826
O 4.05923 12.2762 9.89339
Si 4.96644 13.2012 5.62195
Si 7.50335 8.63273 5.47566
Si 6.23281 15.3008 9.32929
Si 8.85327 11.026 9.17928
Si 6.27601 10.8067 7.34773
Si 8.69851 15.1764 7.40137
O 5.89321 14.0467 10.2138
O 8.48972 9.96698 10.3301
O 7.74552 10.8972 8.03964
O 9.78448 15.5791 8.49327
O 6.44937 9.49169 6.40629
O 9.32826 13.7968 6.7307
O 5.7764 12.0271 6.44317
O 8.41222 16.3656 6.39516
O 7.34942 14.9069 8.21015
O 10.1988 10.8369 8.3473
O 6.75358 16.4768 10.2086
O 8.97479 12.473 10.0066
Si 10.1943 13.0334 5.48436
Si 12.6344 8.77191 5.51496
Si 11.1803 15.3171 9.21175
Si 14.0044 10.8959 9.16528
Si 11.4125 10.8479 7.34718
Si 13.6228 15.1951 7.38917
O 10.8887 14.1656 10.2479
O 13.4704 9.72993 10.1344
O 12.8011 11.3177 8.22231
O 14.7881 15.3097 8.58969
O 11.8803 9.44892 6.77013
O 14.1677 14.0723 6.37647
O 11.0226 11.8458 6.14764
O 13.6273 16.5301 6.47893
O 12.1473 14.8677 8.01402
O 0.12079 10.4833 8.24503
O 11.8513 16.5737 9.9216
O 14.4925 12.1335 10.0592
Si 0.0103501 4.43712 10.9687
Si 2.6189 -0.0701485 11.1631
Si 1.277 6.75367 14.7919
Si 3.63561 2.35396 14.8084
Si 1.13043 2.08771 12.8371
Si 3.83224 6.56248 12.9616
O 1.06452 5.61971 15.7989
O 3.30457 1.1798 15.8495
O 2.31339 2.53025 13.9011
O 4.89305 7.00826 14.0144
O 1.64177 0.676453 12.1778
O 4.42128 5.2319 12.2492
O 0.905237 3.27726 11.7009
O 3.58171 7.71085 11.8884
O 2.41714 6.39387 13.7049
O 4.75125 1.7544 13.7298
O 1.94683 7.96823 15.6801
O 4.29029 3.67232 15.4592
Si 5.31162 4.37675 11.1967
Si 7.74688 -0.113287 11.1507
Si 6.33398 6.70696 14.7568
Si 8.73125 1.97068 14.7288
Si 6.1103 1.89006 12.941
Si 8.78273 6.59568 12.7943
O 6.03183 5.53585 15.7413
O 8.40159 0.791145 15.7577
O 7.3934 2.3133 13.952
O 9.91619 6.91665 13.8638
O 6.83612 0.533811 12.2827
O 9.2927 5.23586 12.057
O 5.9915 3.1271 11.9543
O 8.61139 7.72382 11.6897
O 7.40486 6.37242 13.6454
O 9.9605 1.65758 13.7795
O 6.76154 8.03462 15.5745
O 9.11898 3.27411 15.5761
Si 10.1904 4.33662 11.0702
Si 12.7054 -0.0253048 10.9645
Si 11.2428 6.52837 14.6971
Si 13.8151 2.34823 14.7909
Si 11.3594 2.05635 12.9702
Si 13.9315 6.57088 12.918
O 10.9591 5.21207 15.5369
O 13.5997 1.23326 15.9124
O 12.4723 2.44859 14.0406
O 14.9491 6.96984 14.0792
O 11.9063 0.750826 12.167
O 14.4882 5.27289 12.147
O 11.0378 3.26482 11.9872
O 13.6585 7.85254 12.0213
O 12.4799 6.15726 13.5822
O 14.8919 1.87756 13.7058
O 11.7553 7.73856 15.5567
O 14.3166 3.687 15.5085
Si 0.220522 13.1314 11.0785
Si 2.67778 8.7822 11.0771
Si 1.17734 15.2376 14.7321
Si 3.68078 10.9921 14.7582
Si 1.18774 10.8549 13.0603
Si 3.62144 15.0249 12.9138
O 0.993524 14.0739 15.8199
O 3.60911 10.0515 16.0487
O 2.24129 11.169 14.2234
O 4.69806 15.2634 14.006
O 1.86969 9.67868 12.1639
O 3.99879 13.7377 12.0151
O 0.860659 12.09 12.0881
O 3.50013 16.2884 11.8767
O 2.1711 14.8824 13.4781
O 4.75793 10.4315 13.6299
O 1.75007 16.5076 15.5452
O 4.23832 12.4444 15.3253
Si 4.95418 12.9918 10.9932
Si 7.62492 8.80541 10.9789
Si 6.12406 15.3155 14.6875
Si 8.64559 11.0043 14.4834
Si 6.03055 10.6015 12.8075
Si 8.80814 15.0835 12.9598
O 6.06625 14.2307 15.8549
O 8.46198 9.90678 15.7957
O 7.3257 10.9742 13.6693
O 9.89705 15.5311 14.0322
O 6.55332 9.28961 12.0676
O 9.16486 13.8255 12.2074
O 5.72216 11.8624 11.8625
O 8.75798 16.2286 11.7897
O 7.34919 15.01 13.6928
O 9.94728 10.5513 13.7241
O 6.41209 16.6852 15.4063
O 9.09569 12.4056 15.2284
Si 10.0115 13.2186 11.0619
Si 12.6995 8.74271 11.11
Si 11.2969 15.4049 14.7195
Si 13.6863 10.9702 14.7185
Si 11.2542 10.8689 12.7793
Si 13.8188 15.1713 12.7865
O 11.0839 14.1903 15.7574
O 13.438 9.90235 15.8883
O 12.3729 11.1687 13.8621
O 14.8377 15.4702 13.9869
O 11.6683 9.52274 12.0779
O 14.184 13.929 11.9551
O 10.8288 12.0156 11.7943
O 13.7131 16.4113 11.7526
O 12.3825 15.0272 13.5066
O 14.8823 10.481 13.7791
O 11.7263 16.7939 15.4401
O 14.1896 12.3382 15.4463
324
 Atoms. Timestep: 30500
Si 0.0769232 4.40245 16.306
Si 2.50038 0.0905101 0.0687539
Si 1.25052 6.54317 3.63879
Si 3.60161 2.5392 3.56667
Si 1.03621 2.27513 1.88998
Si 3.79992 6.31754 1.81544
O 1.05357 5.39082 4.69714
O 3.33209 1.29958 4.63875
O 2.1801 2.8137 2.95463
O 4.97474 6.81619 2.80379
O 1.75905 1.01158 1.1785
O 4.15446 4.99731 1.12853
O 0.719527 3.36721 0.848031
O 3.54452 7.45826 0.773526
O 2.37638 6.08945 2.51418
O 4.69111 2.02576 2.57279
O 1.99912 7.8359 4.22176
O 4.2748 3.88027 4.2714
Si 5.18346 4.35136 0.0615985
Si 7.54694 17.4221 0.00313394
Si 6.2796 6.70079 3.68385
Si 8.81023 2.11643 3.6642
Si 6.16987 2.17699 2.01152
Si 8.84391 6.42048 1.85218
O 6.00732 5.61466 4.79366
O 8.66715 1.00367 4.81669
O 7.3861 2.44176 3.06454
O 9.98982 6.64124 2.9217
O 6.56628 0.854187 1.05711
O 9.35795 5.22709 0.926092
O 6.13539 3.50232 1.00398
O 8.61782 7.72565 1.04548
O 7.51851 6.1849 2.71306
O 9.82973 1.69649 2.488
O 6.7857 8.02359 4.4336
O 9.3453 3.40078 4.51914
Si 10.2136 4.18291 -0.0171952
Si 12.8217 0.00919456 16.5058
Si 11.3965 6.45556 3.58481
Si 13.6647 2.16656 3.8718
Si 11.2771 2.00934 1.97722
Si 13.8787 6.53466 1.69909
O 11.2635 5.17842 4.53869
O 13.464 0.894484 4.85308
O 12.1883 2.33669 3.2339
O 14.9347 6.88457 2.91624
O 11.8592 0.732384 1.0899
O 14.3487 5.35986 0.780239
O 11.1027 3.22956 0.955825
O 13.543 7.83526 0.929486
O 12.5712 6.1281 2.50774
O 14.7003 1.95922 2.67458
O 11.8538 7.87462 4.42685
O 14.1899 3.47557 4.60188
Si 0.0110639 12.974 16.5746
Si 2.6529 8.62346 0.0703331
Si 1.19079 15.4582 3.72197
Si 3.63005 11.0346 3.56604
Si 1.16122 10.6834 1.8877
Si 3.72911 15.1667 1.91993
O 0.977484 14.3628 4.87677
O 3.60044 9.91273 4.64397
O 2.2131 11.1077 3.01486
O 4.90245 15.782 2.85457
O 1.66319 9.49015 1.0095
O 4.34428 13.8645 1.24848
O 0.905787 11.8625 0.71655
O 3.30318 16.267 0.777159
O 2.37625 14.9748 2.72514
O 4.74115 10.7038 2.4666
O 1.69353 16.7641 4.39439
O 4.25271 12.3396 4.31198
Si 5.25357 13.0864 0.126637
Si 7.75554 8.75124 0.0654115
Si 6.20352 15.317 3.70991
Si 8.68343 10.9385 3.70168
Si 6.25475 10.8518 1.86302
Si 8.72687 15.072 1.88156
O 5.90996 14.2334 4.71171
O 8.87408 9.57772 4.5438
O 7.17725 11.0486 3.1719
O 9.88444 15.5193 2.99327
O 6.76268 9.63435 0.992013
O 9.41325 13.857 1.08848
O 6.21793 12.1604 0.997635
O 8.38819 16.2398 0.837664
O 7.3207 14.85 2.60519
O 9.72235 10.9336 2.41926
O 6.8717 16.5923 4.51706
O 9.1773 12.1162 4.6878
Si 10.1404 13.0621 16.4754
Si 12.5449 8.74814 0.0441152
Si 11.3097 15.2949 3.67007
Si 13.7158 11.0604 3.61743
Si 11.1598 10.9537 1.73224
Si 13.8042 15.2294 1.78273
O 11.0378 14.0352 4.6472
O 13.6068 9.88803 4.65925
O 12.259 11.3369 2.89243
O 14.9715 15.6449 2.82551
O 11.6175 9.41242 1.14842
O 14.2489 13.8222 1.10481
O 11.023 11.8572 0.468735
O 13.6879 16.22 0.624793
O 12.4663 15.1316 2.60194
O 14.8058 10.6028 2.54252
O 11.6159 16.5818 4.57349
O 14.2606 12.4912 4.24548
Si 0.162544 4.2929 5.55328
Si 2.66868 0.0380019 5.44287
Si 1.26524 6.61023 9.27481
Si 3.63692 2.12487 9.30323
Si 1.23163 1.98259 7.31968
Si 3.88293 6.62587 7.4612
O 1.16661 5.29266 10.233
O 3.35235 0.848762 10.3207
O 2.28711 2.3836 8.45952
O 5.16091 6.86665 8.25293
O 1.77035 0.675693 6.66331
O 4.18938 5.37724 6.55387
O 1.05834 3.14602 6.20559
O 3.55703 7.80682 6.41866
O 2.56432 6.44513 8.25983
O 4.8335 1.85743 8.18969
O 1.52947 7.79732 10.1986
O 4.21884 3.3167 10.2002
Si 5.09204 4.56329 5.53567
Si 7.59957 0.068541 5.56468
Si 6.41718 6.42322 9.15838
Si 8.5984 2.31548 9.226
Si 6.1184 2.20143 7.29158
Si 8.74707 6.38362 7.29396
O 5.95651 5.15547 10.0776
O 8.26073 1.07173 10.1427
O 7.25327 2.61517 8.40511
O 9.86555 6.80792 8.34743
O 6.52965 0.880512 6.43367
O 9.46655 5.22938 6.44613
O 5.79403 3.30823 6.24421
O 8.53993 7.60853 6.37062
O 7.46403 5.97797 8.06665
O 9.77803 1.96246 8.12105
O 6.90474 7.57048 10.1267
O 9.17847 3.54023 10.0276
Si 10.341 4.25041 5.4538
Si 12.5295 17.2855 5.60419
Si 11.2606 6.56399 9.08217
Si 13.7363 2.34684 9.07901
Si 11.2274 2.07132 7.41487
Si 13.8841 6.50856 7.30048
O 11.1253 5.33765 10.0457
O 13.519 1.20725 10.2457
O 12.2451 2.60355 8.53364
O 15.0235 6.88349 8.44201
O 11.7943 0.745332 6.74101
O 14.4539 5.19826 6.52361
O 11.1427 3.22876 6.33915
O 13.6474 7.80138 6.3585
O 12.46 6.26731 8.02983
O 14.7412 1.8551 7.90419
O 11.6672 7.83726 9.90868
O 14.3358 3.59543 9.91461
Si 15.1978 13.1805 5.42816
Si 2.75306 8.71174 5.42635
Si 1.2081 15.2807 9.19029
Si 3.72603 10.8623 9.0934
Si 1.32185 10.8459 7.13088
Si 3.65104 15.2224 7.21779
O 0.974884 14.0888 10.2639
O 3.29911 9.71162 10.1127
O 2.58527 11.1808 8.04565
O 4.95479 15.534 8.17177
O 1.63044 9.55981 6.20928
O 3.91962 13.8273 6.41016
O 0.976034 12.1122 6.17153
O 3.65982 16.3315 6.05593
O 2.42207 15.1129 8.1889
O 5.0765 10.3319 8.26528
O 1.37205 16.6404 9.95668
O 4.01217 12.058 10.1294
Si 5.04851 13.1233 5.45484
Si 7.78445 8.70835 5.45408
Si 6.12492 15.2312 9.1315
Si 8.81424 11.0543 9.36536
Si 6.35206 10.8898 7.39218
Si 8.6782 15.1066 7.39533
O 5.78147 14.0068 10.2595
O 8.45156 9.78607 10.2561
O 7.47858 11.3454 8.388
O 9.75306 15.2711 8.53264
O 7.00567 9.71752 6.46076
O 9.21846 14.0616 6.35389
O 5.83985 11.9979 6.3064
O 8.36265 16.4672 6.50536
O 7.33757 14.713 8.16837
O 10.0426 10.7258 8.34958
O 6.57654 16.4725 10.0072
O 9.25179 12.2381 10.1952
Si 10.1146 13.0418 5.57347
Si 12.6951 8.74189 5.44173
Si 11.1695 15.3281 9.31806
Si 13.8518 10.9929 9.36379
Si 11.3293 10.8014 7.44365
Si 13.712 15.0243 7.42461
O 11.0358 14.1616 10.3917
O 13.5649 9.67143 10.1974
O 12.5491 11.2266 8.43245
O 14.9587 15.3277 8.32771
O 11.7787 9.58658 6.55473
O 14.1149 13.7545 6.48945
O 10.965 11.9698 6.35228
O 13.3523 16.1785 6.40215
O 12.3595 15.0633 8.28429
O 0.0457581 10.8113 8.2196
O 11.6452 16.7728 9.86631
O 14.307 12.2025 10.2106
Si 0.13918 4.2996 11.0368
Si 2.30938 17.3534 11.1038
Si 1.35552 6.69104 14.5746
Si 3.65037 2.2788 14.746
Si 1.19037 2.07083 12.9476
Si 3.98395 6.57536 12.9098
O 1.03164 5.24694 15.4355
O 3.40081 1.04863 15.7236
O 2.37988 2.68334 13.955
O 5.20528 6.90728 13.853
O 1.62951 0.700709 12.386
O 4.33325 5.24429 12.0775
O 0.922749 3.07944 11.7537
O 3.64673 7.63104 11.6924
O 2.5685 6.44134 13.649
O 4.67397 1.81987 13.5875
O 1.76214 7.86233 15.5356
O 4.27276 3.4644 15.6317
Si 5.08612 4.19825 11.0799
Si 7.41175 17.3343 11.0032
Si 6.45825 6.53459 14.746
Si 8.61406 2.20417 14.652
Si 6.1109 2.01661 12.9514
Si 9.02945 6.4761 12.9082
O 5.99561 5.45128 15.8273
O 8.56808 1.07692 15.821
O 7.13619 2.33614 14.1436
O 10.1171 6.71462 14.0615
O 6.6615 0.776755 12.1171
O 9.39583 5.40191 11.8626
O 6.0383 3.25231 11.9573
O 8.63104 7.82033 12.0615
O 7.68985 6.08884 13.7616
O 9.73745 1.97235 13.5213
O 7.08029 7.72699 15.5834
O 9.18104 3.44426 15.5684
Si 10.1721 4.38047 10.9175
Si 12.5518 0.104755 10.9529
Si 11.4653 6.43412 14.8114
Si 13.691 2.26418 14.7439
Si 11.1627 2.2343 12.8559
Si 13.9158 6.45262 12.7973
O 11.1611 5.06787 15.6057
O 13.507 1.22921 15.8882
O 12.3522 2.47027 13.8923
O 0.0302883 7.04006 13.7452
O 11.7497 0.944609 12.0768
O 14.3747 5.06636 12.1388
O 10.9556 3.44105 11.8691
O 13.4997 7.43769 11.6541
O 12.6747 6.35151 13.7893
O 14.9735 1.88075 13.7597
O 11.7582 7.74328 15.7235
O 14.1739 3.71297 15.2742
Si 0.270882 13.0666 11.1049
Si 2.53082 8.64354 11.0478
Si 1.02052 15.3951 14.8664
Si 3.81486 10.8743 14.8834
Si 1.30841 10.7873 13.028
Si 3.65402 15.2034 12.8873
O 0.807571 14.0929 15.7603
O 3.59086 9.6729 15.8161
O 2.38493 11.2714 14.1564
O 4.90182 15.5494 13.7129
O 1.84532 9.47968 12.3041
O 3.9344 13.8351 12.0701
O 1.06465 11.9746 12.0064
O 3.2581 16.2121 11.7381
O 2.22206 15.0974 13.8229
O 4.85809 10.4546 13.7682
O 1.55354 16.7385 15.6222
O 4.42126 12.106 15.6791
Si 4.87834 12.9893 11.1326
Si 7.70598 8.63802 11.1165
Si 6.16414 15.3102 14.6407
Si 8.69792 11.0318 14.6214
Si 6.17834 10.7845 12.9069
Si 8.81981 15.2357 12.9831
O 5.89809 14.1646 15.736
O 8.43246 9.95991 15.7721
O 7.38409 11.2027 13.858
O 9.94451 15.7742 13.9619
O 6.63075 9.5109 11.9447
O 9.45973 13.8982 12.2485
O 5.75286 12.058 12.0544
O 8.3302 16.2735 11.8221
O 7.3582 14.9141 13.6651
O 9.78491 10.5511 13.5316
O 6.71344 16.6067 15.3745
O 9.2169 12.4362 15.3515
Si 10.2063 13.0792 11.1255
Si 12.6388 8.56179 10.8812
Si 11.307 15.378 14.6985
Si 13.6605 10.9597 14.7169
Si 11.2587 10.612 12.7247
Si 13.6766 15.1601 12.8492
O 10.9251 14.3197 15.7806
O 13.3942 9.78904 15.83
O 12.3695 11.0283 13.8472
O 14.7806 15.6925 13.9553
O 11.6678 9.41127 11.8358
O 14.3922 13.9494 12.1258
O 11.0744 11.934 11.7676
O 13.2863 16.3055 11.6828
O 12.3168 14.7422 13.6092
O 14.9195 10.5819 13.6728
O 12.0268 16.6692 15.3093
O 14.1393 12.2681 15.5267
324
 Atoms. Timestep: 31000
Si 0.172718 4.25086 16.6056
Si 2.71862 0.0438114 -0.0176299
Si 1.43208 6.40115 3.80463
Si 3.60701 2.35655 3.70037
Si 1.11851 1.96172 1.89602
Si 3.89045 6.47107 1.70032
O 1.10183 4.98509 4.59166
O 3.42316 1.20978 4.84158
O 2.12699 2.42665 3.12849
O 5.22178 6.9992 2.49691
O 1.87132 0.857689 1.11455
O 4.36764 5.06491 0.98142
O 0.91092 3.15411 0.881336
O 3.30657 7.54913 0.622372
O 2.71462 6.15317 2.7704
O 4.83631 1.90675 2.71433
O 1.83933 7.59934 4.88856
O 4.08884 3.74995 4.45757
Si 5.2538 4.19749 16.5807
Si 7.62468 0.0829633 0.178592
Si 6.28513 6.72555 3.65892
Si 8.69066 2.1655 3.76678
Si 6.25873 2.06284 1.97563
Si 8.97407 6.53226 2.0199
O 5.8171 5.61635 4.66521
O 8.45639 1.19198 4.97818
O 7.2845 2.53164 3.08865
O 10.2076 7.02772 2.87263
O 6.76684 0.70306 1.35347
O 9.24114 5.23168 1.15164
O 6.0776 3.11385 0.813466
O 8.59551 7.73029 0.960548
O 7.65702 6.32784 2.89508
O 9.64837 1.72376 2.61354
O 6.64941 8.11829 4.49217
O 9.32946 3.52633 4.35104
Si 10.0484 4.44706 0.114337
Si 12.5103 0.000614181 16.4202
Si 11.4597 6.53032 3.79308
Si 13.6098 2.17662 3.53893
Si 10.9615 2.0196 1.80102
Si 13.9352 6.50841 1.91724
O 11.0275 5.46193 4.85888
O 13.4236 1.00715 4.5773
O 12.1757 2.48415 2.87291
O 0.145899 6.81963 2.85795
O 11.6371 0.789812 0.946857
O 14.3965 5.25479 1.00381
O 10.7329 3.20486 0.812781
O 13.5029 7.69891 0.90417
O 12.6605 6.0545 2.86185
O 14.6711 1.61845 2.42436
O 12.0411 7.77899 4.59973
O 14.1284 3.50801 4.28427
Si 0.0151388 13.1957 0.0697735
Si 2.48958 8.70434 -0.189784
Si 1.03678 15.335 3.79742
Si 3.72182 10.9774 3.56114
Si 1.23625 10.8597 1.77753
Si 3.58933 15.1225 1.97695
O 1.05311 14.2529 4.936
O 3.23821 9.79418 4.60894
O 2.46007 11.251 2.63845
O 4.6752 15.5061 3.06809
O 1.74152 9.55877 0.908367
O 4.2434 13.9332 1.09224
O 0.83523 12.0866 0.904231
O 3.41422 16.3257 0.882913
O 2.18244 14.8921 2.68157
O 4.95994 10.6447 2.63871
O 1.45559 16.7886 4.5014
O 4.17223 12.1479 4.54483
Si 5.12541 13.1607 0.0414137
Si 7.85356 8.69621 16.5212
Si 6.15634 15.4442 3.6962
Si 8.87898 11.0746 3.69662
Si 6.30145 10.8794 1.88578
Si 8.61726 15.2327 1.88799
O 6.02196 14.1567 4.7114
O 8.56263 9.94968 4.81658
O 7.47467 11.1084 2.91687
O 9.72807 15.3905 2.9599
O 6.87862 9.66341 0.929801
O 9.00005 13.8741 1.05719
O 5.96918 12.1418 0.969799
O 8.66275 16.5421 0.883176
O 7.14677 15.123 2.52407
O 10.0761 10.5704 2.67325
O 6.66717 16.7777 4.45098
O 9.24516 12.4082 4.48002
Si 10.0118 13.1652 16.5773
Si 12.7947 8.8398 -0.0252181
Si 11.132 15.3354 3.80952
Si 13.9471 10.9845 3.73696
Si 11.4276 10.9999 1.87026
Si 13.6127 15.2031 1.91152
O 11.0016 14.2562 4.95608
O 13.7177 9.85755 4.82171
O 12.5319 11.0796 2.97916
O 14.7604 15.5687 2.99225
O 11.9 9.95467 0.758955
O 14.2449 13.9577 1.16175
O 11.0645 12.3553 0.993693
O 13.3452 16.3118 0.748009
O 12.238 15.0593 2.73479
O 15.0605 10.5932 2.69956
O 11.3894 16.7636 4.39984
O 14.4417 12.3049 4.45589
Si -0.0744577 4.23997 5.29856
Si 2.468 0.103298 5.5389
Si 1.21758 6.67528 9.30201
Si 3.51606 2.22776 9.1764
Si 0.9374 2.0162 7.37306
Si 3.81832 6.71962 7.44077
O 1.08214 5.25823 10.1946
O 3.50387 0.952586 10.2105
O 2.04446 2.41188 8.50102
O 4.89956 6.99744 8.64382
O 1.58873 0.796833 6.62873
O 4.19059 5.40739 6.64296
O 0.579544 3.24555 6.39898
O 3.7643 7.87856 6.37051
O 2.41202 6.56822 8.24559
O 4.62022 1.97747 8.02852
O 1.38661 7.99027 10.2623
O 3.98891 3.49096 10.002
Si 4.9641 4.59621 5.54428
Si 7.54292 0.0160693 5.59587
Si 6.30215 6.65093 9.20815
Si 8.67312 2.34379 9.06388
Si 6.03458 2.16794 7.24297
Si 8.73509 6.40646 7.21321
O 6.13625 5.23512 10.0579
O 8.53704 1.22397 10.2378
O 7.20472 2.48104 8.35164
O 9.79549 6.89935 8.27121
O 6.5415 0.807814 6.587
O 9.15656 5.03182 6.46757
O 5.84338 3.41918 6.26877
O 8.58193 7.60689 6.05551
O 7.31281 6.27156 7.93543
O 9.82546 1.83313 8.07519
O 6.92359 7.83149 10.0718
O 9.05372 3.65652 9.80134
Si 10.1295 4.27932 5.50153
Si 12.5098 17.3686 5.39083
Si 11.1669 6.66722 9.03609
Si 13.6711 2.17304 9.22236
Si 11.2156 1.92758 7.38157
Si 13.7956 6.42031 7.30441
O 10.9653 5.39704 10.0124
O 13.4711 1.06415 10.3695
O 12.2572 2.45078 8.53357
O 14.8915 6.60083 8.47279
O 11.7843 0.722739 6.59775
O 14.1254 5.29567 6.24987
O 10.9763 3.21051 6.2893
O 13.7431 7.69181 6.40456
O 12.3159 6.36759 7.98024
O 14.6648 1.67165 8.08667
O 11.6365 7.97871 9.95528
O 14.447 3.40151 9.87281
Si 0.157413 13.0442 5.62793
Si 2.7208 8.80562 5.65512
Si 1.15987 15.2285 9.13245
Si 3.72405 11.0951 9.1935
Si 1.17776 10.8362 7.41224
Si 3.67471 15.2485 7.28121
O 0.890215 14.0643 10.1548
O 3.40073 9.65315 9.97384
O 2.27482 11.3387 8.55214
O 4.72374 15.4606 8.38016
O 1.7579 9.566 6.70059
O 4.1739 13.9568 6.4011
O 1.03951 12.0223 6.44191
O 3.45775 16.4822 6.26755
O 2.28448 15.0083 7.97916
O 4.80886 10.8907 8.09486
O 1.72561 16.4772 10.028
O 4.369 12.1796 10.189
Si 5.16937 13.0356 5.44969
Si 7.69183 8.79934 5.53395
Si 6.07338 15.406 9.19873
Si 8.78116 10.8879 9.0884
Si 6.28327 10.8612 7.3077
Si 8.69491 15.0221 7.49432
O 5.83682 14.3735 10.4527
O 8.43527 9.79029 10.2282
O 7.40627 11.1013 8.36423
O 9.83103 15.5745 8.52472
O 6.76806 9.43042 6.70215
O 9.20519 13.6453 6.80871
O 6.11591 12.0088 6.22927
O 8.25186 16.2056 6.41475
O 7.203 14.7595 8.25411
O 9.87792 10.3737 8.00375
O 6.69453 16.7551 9.77878
O 9.31186 12.1721 9.93828
Si 10.195 13.042 5.64394
Si 12.8948 8.71465 5.53048
Si 11.2325 15.2492 9.14261
Si 13.6934 10.8411 9.15505
Si 11.2952 10.67 7.28309
Si 13.6296 15.0626 7.31217
O 10.9465 14.2447 10.3058
O 13.5719 9.59224 10.1384
O 12.2522 11.0902 8.48915
O 14.7855 15.5132 8.39492
O 11.9915 9.53061 6.4297
O 14.2656 13.7764 6.62464
O 11.0626 11.9069 6.2988
O 13.307 16.0685 6.07544
O 12.2234 14.6992 7.97157
O 14.8499 10.6042 8.11169
O 11.894 16.5249 9.98982
O 14.1641 12.1992 9.983
Si 0.210581 4.17667 10.9812
Si 2.59343 17.3084 11.0307
Si 1.3741 6.3842 14.6831
Si 3.87762 2.13239 14.7626
Si 1.316 2.01314 12.9233
Si 3.89711 6.50167 12.776
O 1.13897 5.15518 15.7057
O 3.77472 1.03741 15.9771
O 2.42739 2.25497 13.9992
O 5.18207 6.80199 13.7817
O 1.80276 0.745618 12.0377
O 4.34581 5.17352 11.9604
O 1.16022 3.23268 11.9219
O 3.50368 7.55596 11.6761
O 2.61569 6.13749 13.708
O 4.88911 1.66987 13.5909
O 1.57445 7.84237 15.3631
O 4.26435 3.50098 15.4654
Si 5.12697 4.22675 10.9427
Si 7.61378 0.0367434 10.8566
Si 6.42078 6.51259 14.6788
Si 8.58669 2.46524 14.7912
Si 6.25107 1.98283 12.8839
Si 8.99792 6.55927 12.9102
O 6.06441 5.19607 15.5655
O 8.27893 1.38713 15.996
O 7.24078 2.57534 13.9208
O 10.2717 6.70319 13.8471
O 6.8023 0.806523 11.9997
O 9.26426 5.27291 11.9378
O 5.96589 3.18469 11.7555
O 8.70129 7.78901 11.92
O 7.68753 6.34229 13.8074
O 9.68178 1.89008 13.6835
O 6.83881 7.75283 15.6118
O 9.19271 3.71987 15.4998
Si 9.9914 4.35174 10.8367
Si 12.669 17.3976 11.1409
Si 11.6173 6.53436 14.834
Si 13.7011 2.26416 14.5825
Si 11.0408 2.06522 12.84
Si 13.85 6.24879 12.7578
O 11.0684 5.50444 16.0302
O 13.4502 1.0487 15.6037
O 12.2685 2.51173 13.7913
O 0.0369598 6.6013 13.801
O 11.6123 0.775392 12.1022
O 14.2338 4.99181 11.9332
O 10.8151 3.20394 11.6238
O 13.4615 7.52571 11.8321
O 12.7402 6.01719 13.8553
O 14.9109 1.85264 13.5986
O 11.991 7.90008 15.5168
O 14.2343 3.39143 15.6581
Si -0.0253951 13.0742 10.963
Si 2.64556 8.72685 11.0017
Si 1.29256 15.337 14.8128
Si 3.74756 11.0267 14.7159
Si 1.32313 10.9618 12.8614
Si 3.73719 15.0744 12.9704
O 0.933757 14.2878 15.946
O 3.36222 9.64196 15.594
O 2.41528 11.5183 13.9242
O 4.77884 15.5944 14.1321
O 2.05982 9.65296 12.147
O 4.13385 13.6957 12.3506
O 0.846619 11.9896 11.7696
O 3.53516 16.2568 11.8359
O 2.40508 14.8348 13.7568
O 4.9266 10.7153 13.7464
O 1.86383 16.7118 15.3782
O 4.21136 12.1905 15.6673
Si 5.15479 13.109 11.1966
Si 7.68588 8.72143 11.0649
Si 6.21944 15.3706 14.7807
Si 9.0355 10.8165 14.6648
Si 6.37367 10.9022 12.9382
Si 8.67163 15.1151 12.6881
O 6.0195 14.1348 15.7094
O 8.79375 9.57404 15.583
O 7.60722 11.1789 13.9007
O 9.8778 15.5059 13.6836
O 6.82613 9.61242 12.1317
O 9.16277 13.7767 12.0603
O 6.10738 12.1486 12.0176
O 8.45755 16.1679 11.4618
O 7.31031 15.0328 13.5774
O 10.0977 10.4979 13.5366
O 6.80432 16.6641 15.6798
O 9.30001 12.0747 15.597
Si 10.1135 13.061 11.0196
Si 12.6684 8.60134 10.9822
Si 11.1875 15.3465 14.5715
Si 13.9467 11.056 14.6833
Si 11.4223 10.8247 12.7873
Si 13.8188 15.1467 12.9621
O 10.7037 14.2628 15.7163
O 13.918 9.79516 15.741
O 12.5811 11.1803 13.7714
O 15.0134 15.3835 13.9881
O 11.9026 9.47878 12.0059
O 14.2631 13.8875 12.0128
O 11.0666 12.1492 11.9655
O 13.637 16.4338 12.0736
O 12.4145 14.8653 13.7119
O 15.0586 10.6476 13.6114
O 11.6535 16.5949 15.3888
O 14.2514 12.4358 15.3854
324
 Atoms. Timestep: 31500
Si 15.169 4.37521 16.4628
Si 2.48996 17.4259 16.5416
Si 1.42735 6.60494 3.79002
Si 3.66893 2.24555 3.72588
Si 1.19932 2.13523 1.845
Si 3.85642 6.6038 1.79592
O 1.08197 5.44625 4.81861
O 3.3519 1.03043 4.72815
O 2.30577 2.51113 2.85512
O 5.09181 6.64458 2.71618
O 1.76249 0.751148 1.1647
O 4.02279 5.40445 0.736316
O 0.95926 3.24179 0.657377
O 3.48448 7.86031 0.84171
O 2.62251 6.39122 2.85081
O 4.79028 1.74442 2.70285
O 1.69299 7.98371 4.56523
O 4.15173 3.54648 4.48074
Si 5.01299 4.45418 16.4965
Si 7.49999 0.150368 16.4454
Si 6.31194 6.54509 3.84306
Si 8.69185 2.4433 3.71653
Si 6.08768 2.2228 1.92352
Si 8.85421 6.42419 2.07368
O 5.88864 5.3415 4.8002
O 8.36157 1.16976 4.62319
O 7.29178 2.66235 2.9228
O 10.197 7.07564 2.81665
O 6.57623 0.973168 0.933549
O 9.23605 5.02863 1.34128
O 5.68975 3.43109 0.913564
O 8.47476 7.43664 0.876991
O 7.63205 6.35651 3.0941
O 9.73446 2.12156 2.53779
O 6.61117 7.81834 4.66858
O 9.3503 3.56961 4.55346
Si 10.06 4.38509 0.0873987
Si 12.3623 -0.120391 16.5198
Si 11.4796 6.65752 3.64255
Si 13.7242 2.32927 3.54425
Si 11.1774 2.13825 1.72426
Si 13.995 6.54982 1.82242
O 11.0202 5.45285 4.61747
O 13.4928 1.13103 4.61031
O 12.3107 2.46967 2.817
O 0.108334 6.64018 2.82537
O 11.4118 0.752407 0.951658
O 14.289 5.26977 0.926315
O 10.9833 3.31677 0.693436
O 13.7388 7.8952 0.92569
O 12.6618 6.32186 2.63519
O 14.9693 1.91226 2.62521
O 11.9491 7.86136 4.52301
O 14.2616 3.62091 4.40061
Si 0.182219 13.1544 0.0832109
Si 2.65284 8.81025 16.3703
Si 1.05939 15.4197 3.58146
Si 3.94488 10.9396 3.77341
Si 1.36249 10.8303 1.72733
Si 3.52539 15.142 1.79848
O 0.925054 14.2879 4.73475
O 3.63855 9.70112 4.8002
O 2.67869 11.1196 2.69005
O 4.63194 15.4883 2.97989
O 1.64773 9.66424 0.773963
O 4.12698 13.8623 1.0117
O 1.08025 12.0861 0.762686
O 3.36907 16.278 0.704255
O 2.02362 14.8253 2.43436
O 5.36254 10.7637 3.00901
O 1.7219 16.6396 4.28373
O 4.11802 12.2676 4.56879
Si 5.13952 13.1229 -0.0550286
Si 7.68433 8.58091 0.116694
Si 6.04665 15.2509 3.68418
Si 8.92533 10.9616 3.71626
Si 6.53049 10.8422 1.92919
Si 8.61727 15.2914 1.86242
O 6.01507 14.0142 4.70885
O 8.27409 9.88663 4.72619
O 7.87706 11.3044 2.63483
O 9.68823 15.6748 2.96063
O 6.83188 9.466 1.14578
O 9.18113 13.9727 1.13027
O 6.01939 11.9513 0.720199
O 8.36383 16.462 0.785839
O 7.15905 14.9821 2.57805
O 10.172 10.4396 2.9865
O 6.65305 16.5256 4.33289
O 9.34729 12.2672 4.55819
Si 10.0717 13.0077 0.154423
Si 12.749 8.7404 0.00317393
Si 11.0722 15.4328 3.67174
Si 14.0701 11.0112 3.79868
Si 11.3891 10.6619 1.98781
Si 13.5947 15.0827 1.8789
O 11.0165 14.2351 4.7968
O 13.7543 9.88466 4.98755
O 12.7288 11.026 2.80848
O 14.7922 15.6735 2.7356
O 11.66 9.47734 0.977856
O 14.2521 13.8337 1.12072
O 10.8511 11.9197 1.09232
O 13.2108 16.2459 0.762058
O 12.1713 14.8528 2.60721
O 0.211123 10.6463 2.8038
O 11.581 16.7549 4.36025
O 14.3377 12.3933 4.55231
Si 0.185608 4.33166 5.53749
Si 2.59366 17.298 5.44984
Si 1.29194 6.50714 9.24515
Si 3.53815 2.26758 9.1009
Si 1.05393 1.86251 7.29053
Si 3.62072 6.34433 7.45528
O 1.0379 5.41326 10.3157
O 3.42172 1.17053 10.1791
O 2.13943 2.4555 8.33737
O 4.70672 6.72501 8.57956
O 1.65774 0.589592 6.54422
O 4.23744 5.07316 6.69403
O 0.842575 3.01084 6.15026
O 3.28941 7.57618 6.48065
O 2.23265 6.09848 8.10532
O 4.66524 1.80482 8.04561
O 2.01544 7.80296 9.85543
O 4.1577 3.65083 9.78608
Si 5.00813 4.28265 5.54773
Si 7.53357 0.0829973 5.32618
Si 6.1696 6.62048 9.26192
Si 8.5933 2.22257 9.28308
Si 6.11231 2.07159 7.37435
Si 8.73821 6.53735 7.39009
O 6.08699 5.36991 10.2958
O 8.4219 0.851523 10.1827
O 7.25533 2.53314 8.42417
O 9.88238 6.84976 8.43727
O 6.66723 0.838559 6.40469
O 9.16686 5.25008 6.57058
O 6.01294 3.19658 6.1612
O 8.54926 7.83855 6.46204
O 7.28828 6.34758 8.15563
O 9.72 2.06073 8.11932
O 6.60745 7.9176 10.1219
O 9.12043 3.49193 10.1631
Si 10.1544 4.4856 5.54888
Si 12.5052 0.124771 5.37776
Si 11.26 6.55019 9.19862
Si 13.6925 2.10537 9.27794
Si 11.1623 2.13864 7.41342
Si 13.9092 6.43 7.45371
O 10.9928 5.34064 10.2332
O 13.4384 1.13404 10.4839
O 12.2856 2.3385 8.57128
O 14.9794 6.87103 8.56827
O 11.6707 0.874695 6.49615
O 14.5523 5.15698 6.76552
O 11.0448 3.36685 6.43885
O 13.5502 7.63049 6.44541
O 12.4676 6.23347 8.18527
O 14.8016 1.55941 8.2003
O 11.7004 7.80544 10.0569
O 14.365 3.38885 9.92542
Si 0.129877 13.2069 5.53065
Si 2.60952 8.79015 5.63291
Si 1.10076 15.279 9.09182
Si 3.67203 10.9996 9.30394
Si 1.17229 10.9922 7.44706
Si 3.65039 15.0516 7.30088
O 0.733042 14.1839 10.1396
O 3.67197 9.82258 10.3904
O 2.2221 11.1569 8.63443
O 4.69456 15.4355 8.45558
O 1.77277 9.73421 6.60856
O 4.36867 13.701 6.70618
O 1.05517 12.2032 6.41773
O 3.39653 16.2218 6.25604
O 2.22356 14.7698 8.06749
O 4.79095 10.6182 8.13238
O 1.82719 16.5508 9.75556
O 4.28283 12.279 9.97315
Si 5.17509 13.0338 5.55086
Si 7.55506 8.76078 5.61645
Si 6.11152 15.3742 9.21027
Si 8.70663 10.9579 9.15845
Si 6.19358 10.8168 7.41547
Si 8.6008 15.3307 7.33636
O 6.11554 14.1014 10.13
O 8.46309 9.73577 10.0959
O 7.32531 11.2697 8.51367
O 9.78824 15.7227 8.35469
O 6.65018 9.45602 6.75164
O 9.0833 13.9356 6.63211
O 6.03418 11.8915 6.26713
O 8.55312 16.3669 6.11228
O 7.25825 15.3239 8.06363
O 9.67083 10.5934 7.97563
O 6.52123 16.5685 10.1617
O 9.46964 12.2092 9.81924
Si 10.1771 13.1681 5.61548
Si 12.7396 8.80047 5.64827
Si 11.1791 15.3695 9.1623
Si 13.7276 10.8723 9.25775
Si 11.1176 10.8272 7.45181
Si 13.7654 15.3259 7.28591
O 10.9685 14.2108 10.2302
O 13.6765 9.67179 10.2831
O 12.2829 10.9947 8.52845
O 14.9366 15.739 8.19052
O 11.7012 9.65418 6.52318
O 14.2756 13.9556 6.60115
O 11.061 12.2378 6.62689
O 13.2579 16.3377 6.09865
O 12.4839 15.0541 8.27292
O 14.8109 10.6848 8.10219
O 11.5814 16.7702 9.91331
O 14.1841 12.1545 10.1265
Si 0.0952538 4.27495 10.9767
Si 2.57203 17.3669 10.9007
Si 1.36864 6.53013 14.6527
Si 3.76511 2.30337 14.5626
Si 1.12853 1.93326 12.7674
Si 3.74356 6.31564 12.8905
O 0.904118 5.53884 15.6891
O 3.39638 1.08357 15.6476
O 2.46488 2.31546 13.6223
O 4.97322 6.72631 13.8036
O 1.61553 0.684141 11.8951
O 4.27516 4.95211 12.1243
O 0.832047 3.14656 11.7465
O 3.40315 7.676 12.0184
O 2.47451 5.92945 13.6653
O 5.05036 1.93884 13.7994
O 1.87125 7.89098 15.3401
O 4.12719 3.60057 15.4073
Si 5.14509 4.18555 10.9902
Si 7.62909 17.2385 11.1129
Si 6.32247 6.6168 14.7121
Si 8.73762 2.46175 14.7001
Si 6.27622 1.96143 12.82
Si 8.93304 6.54364 12.8981
O 6.01091 5.35532 15.6468
O 8.50826 1.25495 15.757
O 7.49297 2.605 13.6904
O 10.1387 6.91731 13.952
O 6.84431 0.607145 12.2951
O 9.55504 5.20246 12.1787
O 5.94964 2.94066 11.6282
O 8.58405 7.50348 11.6798
O 7.60709 6.41287 13.748
O 9.9412 2.03133 13.795
O 6.66295 7.89576 15.6902
O 9.14369 3.77843 15.5238
Si 10.2475 4.27311 11.089
Si 12.4775 17.4173 11.1062
Si 11.4496 6.59951 14.8207
Si 13.8211 2.15266 14.7397
Si 11.3108 2.03738 12.9429
Si 13.8466 6.43953 12.8725
O 11.0366 5.54708 15.9431
O 13.3672 1.01498 15.909
O 12.496 2.40673 13.9631
O 0.039183 6.76308 13.7089
O 11.6601 0.618852 12.2847
O 14.206 5.02215 12.0274
O 11.1316 3.09344 11.7693
O 13.6144 7.53601 11.7725
O 12.5393 6.22919 13.7705
O 14.9487 1.59502 13.8125
O 11.9898 7.85942 15.5243
O 14.3727 3.5213 15.363
Si 0.0189074 12.9827 11.0776
Si 2.73231 8.67473 11.0212
Si 1.16254 15.4068 14.5408
Si 3.82919 11.1242 14.5285
Si 1.24872 10.8543 12.704
Si 3.72027 15.1544 12.8223
O 0.893477 14.2473 15.6756
O 3.60141 9.89571 15.554
O 2.51092 11.2677 13.6618
O 4.78872 15.6754 13.9515
O 1.61771 9.52755 11.8842
O 4.43631 13.8942 12.0844
O 1.10693 12.0658 11.6981
O 3.55489 16.337 11.727
O 2.32971 14.922 13.5543
O 5.11272 10.7587 13.5175
O 1.62102 16.6798 15.402
O 4.32875 12.4008 15.3837
Si 5.25203 12.9964 11.0228
Si 7.73122 8.65228 10.9978
Si 6.16799 15.4289 14.7217
Si 8.89122 10.8839 14.849
Si 6.52644 10.8187 12.8637
Si 8.60796 14.8822 12.883
O 5.96332 14.3257 15.8631
O 8.5515 9.59406 15.8173
O 7.58341 11.1643 13.9556
O 9.82496 15.1641 13.9477
O 6.99308 9.44611 12.1855
O 9.11692 13.6689 12.0027
O 6.18709 11.8548 11.7077
O 8.51941 16.1166 11.8015
O 7.26649 14.8272 13.6722
O 10.1025 10.5379 13.8833
O 6.81988 16.7136 15.3284
O 9.26114 12.118 15.7312
Si 10.2188 13.0203 11.0039
Si 12.7632 8.59172 11.0993
Si 11.2264 15.0081 14.7154
Si 13.8964 11.1089 14.6726
Si 11.2952 10.7688 12.878
Si 13.7814 15.119 12.8368
O 11.0526 13.843 15.8044
O 13.5118 9.85193 15.7127
O 12.5507 11.2993 13.8507
O 14.957 15.7926 13.6782
O 11.7806 9.48841 12.0765
O 14.2931 13.8502 12.0846
O 11.0474 11.9319 11.8094
O 13.4182 16.237 11.6954
O 12.5077 14.7707 13.6757
O 15.0373 10.7496 13.6736
O 11.5857 16.4958 15.3819
O 14.2818 12.3251 15.6454
324
 Atoms. Timestep: 32000
Si 0.232269 4.31375 0.059966
Si 2.42054 0.0325275 16.4361
Si 1.20981 6.73319 3.62669
Si 3.88183 2.02198 3.79362
Si 1.21248 2.02216 1.94735
Si 3.75519 6.58989 1.93487
O 0.965844 5.66458 4.8405
O 3.61654 0.929567 4.82951
O 2.49625 2.14219 2.9272
O 4.91305 6.62552 3.06443
O 1.49716 0.808569 0.921548
O 4.09988 5.45483 0.880316
O 1.11721 3.2677 0.982592
O 3.53921 7.85849 0.964901
O 2.36458 6.23785 2.57858
O 5.05737 1.73781 2.77449
O 1.55828 8.0529 4.38568
O 4.24963 3.43692 4.47112
Si 4.98723 4.51958 16.4633
Si 7.65288 0.0427157 16.4566
Si 6.40055 6.44046 3.67815
Si 8.69349 2.33089 3.424
Si 6.14261 2.08064 1.71301
Si 8.82403 6.4952 1.76103
O 6.18413 5.20267 4.67869
O 8.44052 1.1214 4.4136
O 7.3777 2.63519 2.55683
O 9.86926 6.98204 2.93692
O 6.7163 0.93465 0.839002
O 9.40357 5.25907 1.01663
O 5.66181 3.2848 0.780974
O 8.6158 7.66529 0.663135
O 7.43722 6.29177 2.46145
O 9.90469 2.06421 2.46007
O 7.02536 7.72542 4.48846
O 9.07956 3.70651 4.22242
Si 10.257 4.40681 16.4616
Si 12.673 17.368 0.199887
Si 11.2265 6.73949 3.70708
Si 13.7177 2.43001 3.7169
Si 11.3179 2.23681 1.8319
Si 13.7206 6.40818 1.86202
O 10.9096 5.52548 4.73598
O 13.4216 1.25916 4.80796
O 12.3318 2.7203 2.93351
O 14.9406 6.88304 2.8259
O 11.914 0.839008 1.30129
O 14.2868 5.01276 1.10656
O 11.16 3.34823 0.70421
O 13.5011 7.48593 0.735806
O 12.4005 6.30238 2.74466
O 14.8799 1.9471 2.68212
O 11.7697 7.99976 4.53477
O 14.2825 3.79568 4.34741
Si 0.204211 13.0581 0.0443996
Si 2.66878 8.76393 16.614
Si 1.16473 15.2837 3.64978
Si 3.79437 10.8701 3.65722
Si 1.36791 10.9531 1.72907
Si 3.6518 15.1837 1.78394
O 1.02443 14.0822 4.70191
O 3.54805 9.77269 4.73201
O 2.52185 11.0064 2.79598
O 4.87185 15.5722 2.72154
O 1.64611 9.68293 0.779871
O 4.17181 13.9555 0.943043
O 1.24356 12.1716 0.812764
O 3.29867 16.4047 0.797689
O 2.33387 14.8928 2.65393
O 5.09059 10.5203 2.7639
O 1.72032 16.5467 4.45877
O 4.12328 12.1659 4.53943
Si 5.18327 13.1353 16.5779
Si 7.70768 8.74249 16.4233
Si 6.18568 15.2148 3.54643
Si 8.89294 10.9482 3.66403
Si 6.39962 10.8061 1.78087
Si 8.7348 15.2429 1.87053
O 5.93404 13.9772 4.54001
O 8.43483 9.90265 4.74194
O 7.69282 11.0969 2.61386
O 9.88467 15.7159 2.90808
O 6.86167 9.57563 0.911793
O 9.36021 13.9491 1.11416
O 5.86983 12.0577 0.921191
O 8.45655 16.3948 0.814951
O 7.42204 14.9647 2.55368
O 10.0834 10.4343 2.73961
O 6.61067 16.5772 4.47003
O 9.31809 12.3477 4.3354
Si 10.2266 12.9934 0.112472
Si 12.6624 8.72068 0.0724883
Si 11.258 15.4958 3.60597
Si 13.8884 10.9156 3.75259
Si 11.3872 10.7331 1.95311
Si 13.7422 15.0363 1.7598
O 10.921 14.2957 4.58307
O 13.7131 9.65327 4.68185
O 12.4969 11.1513 3.07575
O 14.7829 15.3212 3.03833
O 11.9259 9.51687 1.19663
O 14.1667 13.751 0.986107
O 11.0751 11.9401 0.968644
O 13.7229 16.3175 0.865942
O 12.3443 14.9536 2.48973
O -0.0508299 10.7783 2.56926
O 11.9047 16.7116 4.40945
O 14.4243 12.1922 4.55418
Si 0.0876092 4.47754 5.50739
Si 2.52599 17.4276 5.537
Si 1.12341 6.40169 9.33936
Si 3.79614 2.07358 9.12882
Si 1.2607 2.24188 7.36767
Si 3.70421 6.47358 7.44035
O 0.718958 5.21159 10.2656
O 3.45608 1.0135 10.2764
O 2.5042 2.36792 8.26105
O 4.97686 6.76772 8.27227
O 1.60206 0.970154 6.43899
O 4.3394 5.14029 6.5393
O 0.972971 3.35516 6.2148
O 3.29182 7.48376 6.31239
O 2.44342 6.1442 8.34796
O 4.95405 1.56618 8.12447
O 1.56883 7.66343 10.2237
O 4.26478 3.47363 9.80867
Si 5.27412 4.23438 5.59004
Si 7.65437 0.0394179 5.28885
Si 6.33336 6.49953 9.11249
Si 8.72114 2.13684 9.28693
Si 6.38889 1.9817 7.48029
Si 8.84149 6.50067 7.28164
O 6.03555 5.27602 10.0988
O 8.6393 1.03523 10.4243
O 7.27095 2.0993 8.70085
O 9.99418 6.79149 8.33034
O 6.91081 0.857722 6.49273
O 9.23068 5.18626 6.50323
O 6.07107 3.21901 6.50228
O 8.65938 7.84252 6.4485
O 7.49186 6.14446 8.04827
O 9.8187 1.83946 8.19051
O 6.69018 7.85867 9.85597
O 9.1726 3.58472 9.98587
Si 10.0313 4.33356 5.35617
Si 12.5843 0.110893 5.57404
Si 11.244 6.62202 9.31652
Si 13.6617 2.31935 9.18841
Si 11.1754 2.09379 7.30481
Si 13.6789 6.33098 7.48766
O 10.9346 5.53785 10.4276
O 13.4607 1.03051 10.1232
O 12.3989 2.49494 8.18436
O 14.8395 6.6883 8.53487
O 11.5334 0.76395 6.56413
O 14.233 5.0593 6.5559
O 10.9069 3.23134 6.17374
O 13.3869 7.63938 6.47895
O 12.3604 6.0623 8.30582
O 15.0428 2.32475 8.2843
O 11.8668 7.83189 10.1942
O 13.9607 3.50824 10.2776
Si 0.0233081 13.201 5.56402
Si 2.54759 8.72153 5.53029
Si 1.10621 15.3591 9.26862
Si 3.54831 10.8723 9.23754
Si 1.06515 10.7918 7.4012
Si 3.67948 15.0787 7.40928
O 0.974379 14.2375 10.4199
O 3.31432 9.6152 10.1363
O 2.21824 11.1941 8.47317
O 4.64688 15.7557 8.5463
O 1.70775 9.6191 6.54056
O 4.21421 13.9009 6.60216
O 0.766822 12.2363 6.56718
O 3.36567 16.2855 6.31711
O 2.26406 15.0799 8.22375
O 4.69656 10.5655 8.12212
O 1.55279 16.6923 10.0317
O 4.03617 12.2766 10.0527
Si 5.01066 13.0404 5.49744
Si 7.61852 8.8069 5.51355
Si 6.0646 15.4241 9.28239
Si 8.75423 10.9354 9.06219
Si 6.08519 10.7622 7.37668
Si 8.552 15.2454 7.28876
O 5.90226 14.0871 10.1746
O 8.549 9.64339 9.97846
O 7.28462 11.1272 8.35802
O 9.6245 15.6491 8.43394
O 6.50931 9.4772 6.45736
O 9.21215 13.9369 6.51458
O 5.92747 11.9998 6.34203
O 8.62657 16.4576 6.06874
O 7.0543 15.1227 7.99413
O 9.871 10.671 7.97619
O 6.86545 16.4954 10.1771
O 9.30844 12.152 10.0317
Si 10.133 13.2343 5.43217
Si 12.711 8.74124 5.54704
Si 11.0412 15.3707 9.16747
Si 13.7578 10.9902 9.21402
Si 11.2412 10.9794 7.27464
Si 13.623 15.3807 7.40683
O 10.8258 14.1518 10.207
O 13.4428 9.89949 10.4117
O 12.315 11.2332 8.52461
O 14.7865 15.5318 8.54201
O 11.8235 9.83049 6.41068
O 14.1352 14.1276 6.4476
O 11.0891 12.258 6.25184
O 13.4601 16.6381 6.59225
O 12.1377 15.1319 8.02456
O 14.8045 10.3777 8.15085
O 11.6445 16.5804 10.0394
O 14.4327 12.1483 9.95898
Si 15.0555 4.18388 11.2013
Si 2.61151 17.3812 11.0831
Si 1.2409 6.61162 14.6725
Si 3.63322 2.4206 14.6763
Si 1.12755 1.94482 12.9345
Si 3.72698 6.3969 12.7062
O 0.969428 5.4437 15.7525
O 3.2995 1.21523 15.6536
O 2.29981 2.47838 13.8639
O 4.87414 6.76238 13.6768
O 1.75615 0.602286 12.3532
O 4.13533 5.07916 11.9221
O 0.932452 3.00001 11.7627
O 3.63693 7.52477 11.6221
O 2.30628 6.34481 13.5419
O 4.84316 1.97312 13.658
O 1.90544 7.74141 15.5888
O 4.10971 3.74827 15.4726
Si 5.16759 4.25044 10.9172
Si 7.81242 17.3233 11.2029
Si 6.16351 6.69199 14.6728
Si 8.87857 2.26931 14.6898
Si 6.22994 2.05357 12.8344
Si 8.67918 6.31838 12.8696
O 6.03756 5.49649 15.7409
O 8.5929 1.00985 15.6551
O 7.47525 2.5025 13.9268
O 9.76836 6.8474 13.9535
O 6.79734 0.734456 12.0934
O 9.26606 5.02449 12.2403
O 6.00641 3.15042 11.6965
O 8.49809 7.4777 11.7302
O 7.30009 6.19189 13.6298
O 10.0579 1.87826 13.6688
O 6.60425 7.97298 15.5049
O 9.2562 3.56126 15.5188
Si 10.1182 4.32421 11.0931
Si 12.6356 17.3359 11.0619
Si 11.1663 6.7972 14.7443
Si 13.823 2.23071 14.7168
Si 11.3911 2.15921 12.886
Si 13.82 6.53294 12.9602
O 11.0477 5.47919 15.6396
O 13.4193 1.08803 15.7748
O 12.4746 2.702 13.9524
O 14.9086 6.96592 14.0306
O 11.9798 0.821999 12.2331
O 14.3849 5.1251 12.3439
O 11.1001 3.23861 11.7247
O 13.768 7.69015 11.8972
O 12.3531 6.48056 13.602
O 14.8848 1.79774 13.6002
O 11.5723 8.06688 15.6411
O 14.5451 3.40381 15.5193
Si 0.216568 12.9992 11.0766
Si 2.5498 8.53915 11.0226
Si 1.1598 15.3341 14.6578
Si 3.87659 10.9104 14.6357
Si 1.31197 10.6657 12.841
Si 3.69302 15.0845 12.9141
O 0.98329 14.2708 15.8401
O 3.4956 9.7966 15.611
O 2.42107 11.1835 13.8918
O 4.71967 15.5596 14.0163
O 1.82816 9.32556 12.2617
O 4.37565 13.7616 12.2299
O 1.07507 11.8236 11.7727
O 3.50359 16.2108 11.7867
O 2.27143 14.7617 13.6169
O 4.9369 10.3904 13.5847
O 1.69588 16.719 15.2488
O 4.44522 12.2397 15.386
Si 5.10032 13.0282 11.002
Si 7.74074 8.64693 10.9291
Si 6.13798 15.3417 14.6448
Si 8.76392 10.9865 14.6901
Si 6.28469 10.7898 12.8846
Si 8.69425 15.1302 13.0416
O 6.07697 14.2084 15.8455
O 8.57011 9.70622 15.596
O 7.35172 11.2483 14.0722
O 9.84542 15.4652 14.2199
O 7.01028 9.62042 12.0136
O 9.24186 13.8142 12.2079
O 5.93466 11.9226 11.7539
O 8.56573 16.3431 12.1245
O 7.22761 14.849 13.6298
O 9.85685 10.6654 13.5482
O 6.72459 16.5633 15.4324
O 9.43098 12.1964 15.5125
Si 10.1674 13.0651 11.0836
Si 12.7956 8.70111 11.203
Si 11.3335 15.3022 14.8844
Si 13.8633 10.8719 14.7904
Si 11.3472 10.8931 12.9334
Si 13.7584 15.0532 12.8714
O 11.2137 14.0602 15.9016
O 13.497 9.68858 15.7213
O 12.4813 11.1725 14.0148
O 14.8379 15.3835 13.9584
O 11.8563 9.41309 12.3595
O 14.336 13.7661 12.1417
O 11.205 12.0617 11.8133
O 13.5804 16.3022 11.8291
O 12.28 14.9991 13.6163
O 15.0016 10.5639 13.6024
O 11.794 16.5122 15.7591
O 14.5248 12.18 15.5235
324
 Atoms. Timestep: 32500
Si 0.129204 4.25525 0.163679
Si 2.82071 -0.0273255 16.6101
Si 1.07331 6.82361 3.64984
Si 3.76534 2.18444 3.69786
Si 1.34818 2.00399 1.87769
Si 3.65239 6.27132 1.92669
O 0.701965 5.73931 4.80517
O 3.54367 1.03656 4.8095
O 2.37615 2.54313 3.01248
O 4.74972 6.82241 3.04052
O 2.02299 0.695488 1.20752
O 4.31264 5.00846 1.24118
O 1.00679 3.0817 0.727161
O 3.52746 7.39821 0.775451
O 2.21717 6.20423 2.62804
O 4.83841 1.72355 2.56339
O 1.69618 8.15173 4.35353
O 4.30054 3.55115 4.35799
Si 5.21537 4.33686 0.0879168
Si 7.64637 17.2283 16.475
Si 6.17003 6.64729 3.6173
Si 8.84246 2.21086 3.70638
Si 6.2309 1.9098 1.81211
Si 8.62351 6.33998 1.66306
O 6.07589 5.48511 4.69736
O 8.71765 1.05572 4.87766
O 7.43371 2.31426 2.87701
O 9.73972 6.78794 2.73717
O 6.66321 0.612195 0.934055
O 9.2842 5.02909 0.916355
O 6.06635 3.14415 0.747151
O 8.37121 7.61627 0.699633
O 7.23043 6.18348 2.43879
O 10.0207 1.94315 2.64218
O 6.73364 7.98695 4.38968
O 9.11784 3.60808 4.46781
Si 10.2683 4.2804 16.4336
Si 12.7527 17.3805 0.0764277
Si 11.1404 6.5871 3.59486
Si 13.876 2.26661 3.65332
Si 11.3539 2.05434 1.81946
Si 13.742 6.49823 1.73024
O 10.9443 5.46272 4.72776
O 13.7161 1.22238 4.88211
O 12.5726 2.39427 2.80668
O 14.7264 7.04453 2.92539
O 11.7997 0.671421 1.07223
O 14.2816 5.12186 1.16661
O 11.0037 3.10566 0.662644
O 13.596 7.66315 0.594031
O 12.2834 6.22911 2.41191
O 14.9453 1.73699 2.59146
O 11.6535 7.96303 4.32602
O 14.4057 3.59055 4.40423
Si 0.130766 13.084 0.0774949
Si 2.7593 8.63238 0.00556973
Si 1.28273 15.3464 3.78533
Si 3.69379 11.056 3.69658
Si 1.18977 10.6954 1.88356
Si 3.77302 15.0648 1.83878
O 0.873557 14.0904 4.68374
O 3.44106 9.88013 4.76595
O 2.29831 11.2514 2.9428
O 5.10761 15.5045 2.65736
O 1.92695 9.42328 1.15684
O 4.06261 13.718 1.06929
O 0.975373 11.9391 0.839397
O 3.58602 16.1876 0.67147
O 2.58231 15.0635 2.81366
O 4.72625 10.7326 2.53783
O 1.63086 16.621 4.69235
O 4.36563 12.3604 4.43922
Si 5.10022 13.1315 16.5108
Si 7.54655 8.81157 16.5442
Si 6.39666 15.3703 3.63985
Si 8.66555 10.9783 3.68467
Si 6.15421 10.8442 1.78375
Si 8.9104 15.0838 1.87577
O 5.92935 14.4033 4.76864
O 8.6145 9.78391 4.67706
O 7.24245 11.2125 2.92592
O 10.0525 15.7827 2.78512
O 6.5916 9.51138 1.07508
O 9.42045 13.7638 1.12836
O 6.02591 12.0311 0.786219
O 8.49434 16.1964 0.768281
O 7.7133 14.8134 2.89248
O 9.79495 10.699 2.49068
O 6.82969 16.7797 4.26008
O 9.22254 12.2545 4.48219
Si 10.202 13.059 -0.0383658
Si 12.5878 8.73681 16.495
Si 11.3096 15.3767 3.69219
Si 13.646 11.0061 3.6436
Si 11.215 10.7959 1.70638
Si 13.8313 15.175 1.94399
O 10.9134 14.1786 4.62847
O 13.2222 9.94442 4.77169
O 12.3352 11.2384 2.72763
O 15.0046 15.6339 2.93337
O 11.6617 9.30862 1.05065
O 14.4025 13.7682 1.29265
O 11.1275 11.915 0.563281
O 13.5896 16.2422 0.852751
O 12.488 14.9519 2.70194
O 14.8003 10.4783 2.57116
O 11.9385 16.6762 4.47668
O 14.12 12.314 4.47231
Si -0.0111926 4.52193 5.55013
Si 2.59634 0.062452 5.66013
Si 1.20885 6.61889 9.17307
Si 3.78555 2.18792 9.3527
Si 1.34204 2.35171 7.40381
Si 3.62888 6.42968 7.27716
O 0.868801 5.57822 10.3344
O 3.64091 0.993186 10.489
O 2.4543 2.56083 8.59207
O 4.78397 6.82335 8.37631
O 1.77114 1.10101 6.57134
O 4.01265 5.28005 6.32776
O 0.97589 3.57944 6.44894
O 3.25483 7.68984 6.30756
O 2.33079 6.00139 8.15444
O 4.88972 1.97042 8.23108
O 1.90547 7.87453 9.78263
O 4.30883 3.42845 10.2122
Si 5.05143 4.45231 5.38305
Si 7.63267 -0.0143488 5.54327
Si 6.15929 6.64093 9.17894
Si 8.68486 2.25292 9.19437
Si 6.21011 2.24624 7.33269
Si 8.65423 6.41047 7.32035
O 5.94113 5.49571 10.3504
O 8.49518 1.18369 10.3737
O 7.38484 2.50165 8.34616
O 9.80064 6.87072 8.41086
O 6.67572 0.991332 6.42385
O 9.13786 5.09432 6.51694
O 5.84428 3.39201 6.33321
O 8.42001 7.65263 6.24804
O 7.29822 6.28044 8.13744
O 9.86202 1.74785 8.12746
O 6.6671 8.10144 9.92209
O 9.3856 3.59051 9.89104
Si 10.0966 4.34916 5.49597
Si 12.8447 0.0537385 5.57812
Si 11.1688 6.72369 9.23073
Si 13.7573 2.26876 9.06618
Si 11.2305 2.04516 7.36042
Si 13.6112 6.56278 7.24095
O 10.9635 5.56711 10.3232
O 13.5055 0.881548 9.9672
O 12.3137 2.49388 8.46031
O 14.9405 6.95222 8.23891
O 11.7959 0.794926 6.55707
O 13.8985 5.19904 6.51635
O 10.8862 3.26191 6.2959
O 13.4371 7.66483 6.15638
O 12.3205 6.38389 8.12283
O 14.8952 2.04257 8.0064
O 11.817 8.01352 10.0354
O 14.2905 3.48634 9.97098
Si 0.00414114 13.0526 5.54318
Si 2.55803 8.82529 5.46261
Si 1.27014 15.1945 9.41276
Si 3.91805 10.7845 9.21506
Si 1.2658 10.8099 7.40896
Si 3.62306 15.0883 7.52143
O 0.933867 14.1927 10.6278
O 3.74525 9.73411 10.4157
O 2.41082 10.9996 8.56557
O 4.93448 15.3939 8.37178
O 1.64094 9.63187 6.45579
O 4.08517 13.9548 6.503
O 1.02969 12.0514 6.44161
O 3.34833 16.3467 6.57985
O 2.44533 14.6838 8.44238
O 4.88939 10.4941 8.08342
O 1.76251 16.6221 9.95309
O 4.3044 12.2137 9.77846
Si 5.115 13.2204 5.55896
Si 7.63638 8.70692 5.41187
Si 6.22187 15.3453 9.13519
Si 8.79109 11.0284 9.24707
Si 6.26808 10.9103 7.31982
Si 8.71351 15.0887 7.36348
O 6.06413 14.1109 10.2821
O 8.58509 9.74922 10.3679
O 7.36537 11.1487 8.45097
O 9.71969 15.6865 8.46935
O 6.7442 9.71895 6.32906
O 9.3777 13.907 6.62858
O 5.95241 12.1764 6.38097
O 8.23357 16.1595 6.32895
O 7.3476 14.5946 8.15402
O 9.92362 10.7884 8.15744
O 6.7078 16.6813 9.83528
O 9.10948 12.3457 9.97632
Si 10.2185 13.0449 5.50139
Si 12.4726 8.70887 5.43702
Si 11.189 15.317 9.19627
Si 13.7936 11.102 9.19027
Si 11.3093 10.7327 7.29311
Si 13.822 15.2117 7.44542
O 11.0089 14.1193 10.1311
O 13.4219 9.99923 10.3063
O 12.5096 11.1894 8.22866
O 15.0171 15.4144 8.52469
O 11.6076 9.33192 6.64904
O 14.1773 13.9306 6.54074
O 11.0992 11.9101 6.18165
O 13.6555 16.389 6.41906
O 12.3666 15.0644 8.14963
O 14.9505 10.6651 8.17099
O 11.5887 16.5598 10.1724
O 14.3568 12.3997 9.97739
Si 15.131 4.41552 11.0028
Si 2.60746 17.3935 11.1282
Si 1.17858 6.64674 14.7147
Si 3.70381 2.33668 14.7878
Si 1.24711 2.13383 12.7729
Si 3.61031 6.25082 13.017
O 0.861358 5.51427 16.011
O 3.533 1.13738 15.8027
O 2.42757 2.46548 13.8435
O 4.77551 6.72811 14.0667
O 1.64602 0.819754 11.9931
O 4.21767 5.05415 12.1497
O 1.02677 3.35015 11.7434
O 3.4098 7.44495 11.894
O 2.22896 5.9409 13.7602
O 4.85376 1.96458 13.6594
O 1.82972 7.97243 15.4216
O 4.34666 3.68378 15.4311
Si 5.21645 4.37149 11.1538
Si 7.568 17.4087 10.9942
Si 6.14206 6.70582 14.8263
Si 8.83935 2.10547 14.747
Si 6.2307 2.04149 12.9418
Si 8.60807 6.27351 12.9173
O 6.07071 5.48848 15.8567
O 8.59572 0.877141 15.7148
O 7.38157 2.24969 14.0329
O 9.7469 6.72654 13.932
O 6.64217 0.717845 12.0945
O 9.19177 5.00644 12.1635
O 6.18798 3.34208 11.952
O 8.3379 7.4065 11.6921
O 7.28231 6.19739 13.7901
O 9.87363 1.75372 13.5139
O 6.491 8.1051 15.451
O 9.48866 3.44575 15.3053
Si 10.2351 4.35722 11.0322
Si 12.671 17.4097 10.991
Si 11.1779 6.71785 14.7307
Si 13.821 2.19454 14.7838
Si 11.3029 2.1497 12.8806
Si 13.6913 6.4393 12.8413
O 11.1078 5.47489 15.7978
O 13.6576 1.04587 15.8243
O 12.3876 2.51297 14.0254
O 14.9612 6.72235 13.83
O 11.9668 0.897767 12.0742
O 14.1272 5.16076 12.0304
O 11.0971 3.30414 11.8123
O 13.6225 7.74034 11.8695
O 12.2831 6.36259 13.6551
O 14.8807 2.02432 13.5494
O 11.8112 8.03442 15.3647
O 14.3618 3.50456 15.5514
Si 0.0515093 13.0512 11.2557
Si 2.74604 8.63836 11.0032
Si 1.25661 15.3912 14.7151
Si 3.77061 10.9236 14.7388
Si 1.17309 10.6068 12.9233
Si 3.75873 15.038 12.8517
O 1.01719 14.2007 15.8217
O 3.59585 9.79461 15.9321
O 2.36509 10.9245 13.9311
O 5.03845 15.4045 13.7553
O 1.65902 9.42703 11.823
O 4.11032 13.7236 12.0168
O 0.774622 11.8704 12.0288
O 3.34647 16.247 11.8843
O 2.388 14.9432 13.7336
O 4.88575 10.5012 13.6944
O 1.77604 16.7045 15.5321
O 4.24315 12.2605 15.4298
Si 5.13053 12.9461 10.9095
Si 7.59113 8.72037 11.0853
Si 6.37009 15.1857 14.6531
Si 8.75734 11.0146 14.7035
Si 6.24781 10.7996 12.9221
Si 8.8751 15.2257 12.8186
O 5.99788 14.1649 15.7655
O 8.41792 9.88203 15.7314
O 7.36894 11.3442 13.891
O 9.85205 15.6823 13.8552
O 6.77068 9.40112 12.2488
O 9.52896 13.9582 12.0485
O 5.94543 11.8315 11.7146
O 8.40858 16.281 11.7173
O 7.58495 14.792 13.7174
O 9.97795 10.692 13.6981
O 6.82495 16.4731 15.4201
O 9.24752 12.3488 15.4241
Si 10.1601 13.028 10.9635
Si 12.6445 8.8274 11.173
Si 11.2018 15.4133 14.6315
Si 13.8156 11.0001 14.7296
Si 11.324 10.8962 12.8793
Si 13.831 15.1576 12.8376
O 10.977 14.2827 15.7457
O 13.2918 10.0404 15.8818
O 12.5818 11.3381 13.754
O 14.9432 15.478 13.9448
O 11.7391 9.44451 12.3393
O 14.0908 13.7675 12.1833
O 11.0385 11.8549 11.5707
O 13.5868 16.3128 11.7554
O 12.3238 15.098 13.5089
O 15.0002 10.3011 13.8999
O 11.8545 16.6139 15.4956
O 14.4236 12.2611 15.4836
324
 Atoms. Timestep: 33000
Si -0.0463344 4.48638 -0.050903
Si 2.75356 17.3672 0.021345
Si 1.23134 6.69831 3.66213
Si 3.74062 2.23124 3.56377
Si 1.209 2.16802 1.8392
Si 3.60766 6.26459 1.7333
O 1.00731 5.53928 4.7763
O 3.49882 1.17136 4.75196
O 2.30829 2.45125 2.92857
O 4.66218 6.93723 2.75208
O 1.8691 1.05822 0.940436
O 4.44057 5.06808 1.08172
O 0.817642 3.4051 0.84719
O 3.28976 7.25687 0.486602
O 2.20779 6.14201 2.56267
O 4.8543 1.77713 2.51101
O 1.8677 7.97107 4.34107
O 4.34174 3.52115 4.30242
Si 5.27826 4.30013 0.0353467
Si 7.73612 17.185 16.6135
Si 6.08688 6.76414 3.59914
Si 8.81705 2.1455 3.87742
Si 6.41196 2.05359 1.85063
Si 8.73224 6.3596 1.85451
O 5.83652 5.53284 4.61863
O 8.45407 1.09716 4.97752
O 7.57193 2.26803 2.91977
O 9.74489 6.60252 3.03117
O 6.89503 0.749024 0.980723
O 9.0054 5.05024 0.995716
O 6.26379 3.32439 0.864203
O 8.72601 7.65695 0.853195
O 7.25023 6.33581 2.56415
O 10.0583 1.8066 3.01287
O 6.62007 8.037 4.37083
O 9.20624 3.47713 4.6378
Si 9.98668 4.25887 -0.0110616
Si 12.6563 0.14648 16.5893
Si 11.1685 6.61515 3.69548
Si 13.8818 2.34602 3.74453
Si 11.3437 2.20967 2.08253
Si 13.7852 6.52701 1.90343
O 11.0666 5.34342 4.7634
O 13.6216 1.02534 4.63011
O 12.4881 2.69396 3.09867
O 14.9035 6.79045 2.97481
O 11.9905 0.989651 1.24456
O 14.2956 5.26214 1.12565
O 10.9686 3.31412 0.962238
O 13.4082 7.66193 0.883403
O 12.3607 6.33991 2.68669
O 14.9158 1.87335 2.57754
O 11.3802 7.96861 4.42815
O 14.3298 3.59078 4.65764
Si 0.0642512 12.9097 0.0267334
Si 2.36979 8.54937 0.00850458
Si 1.39392 15.3795 3.65349
Si 3.66615 11.051 3.57515
Si 1.13701 10.6413 1.87692
Si 3.92185 15.1199 1.88577
O 0.847207 14.2385 4.56681
O 3.49242 9.99168 4.79772
O 2.1957 11.2434 2.8855
O 5.11411 15.5596 2.93825
O 1.71691 9.27706 1.37327
O 4.39167 13.8835 0.984521
O 0.920737 11.7756 0.780608
O 3.58652 16.4774 1.08163
O 2.59874 14.8687 2.82384
O 4.76395 10.3976 2.56865
O 1.81272 16.6924 4.46546
O 4.2736 12.3777 4.13829
Si 5.1155 12.9135 16.5507
Si 7.76706 8.66276 0.0642581
Si 6.42115 15.4073 3.84076
Si 8.73965 11.1434 3.47896
Si 6.15584 10.6 1.91527
Si 8.95081 15.1228 1.96614
O 6.10713 14.0954 4.77904
O 8.54768 9.69356 4.33832
O 7.27935 11.2476 2.86155
O 10.1539 15.4408 2.98614
O 6.70799 9.25091 1.14781
O 9.34544 13.8032 1.16998
O 6.01527 11.8558 0.786598
O 8.75392 16.2363 0.818251
O 7.60673 15.1105 2.88763
O 9.76731 10.8048 2.26283
O 6.84809 16.6062 4.72853
O 9.1635 12.1799 4.57376
Si 10.1763 13.1709 16.5391
Si 12.6077 8.68553 16.5481
Si 11.5678 15.1707 3.84875
Si 13.6098 11.003 3.52339
Si 11.2739 10.9349 1.68087
Si 13.9 15.2255 1.74923
O 11.1129 13.8825 4.6584
O 13.1874 9.83516 4.48387
O 12.2948 11.3523 2.76069
O 0.082704 15.6856 2.72133
O 11.7476 9.62773 0.967232
O 14.3494 13.934 0.9796
O 11.1406 12.1287 0.629263
O 13.4287 16.3945 0.690777
O 12.6774 14.8756 2.81126
O 14.8235 10.5046 2.60428
O 11.851 16.4198 4.77448
O 14.3128 12.1644 4.3456
Si 0.249732 4.41168 5.61647
Si 2.73627 0.0303556 5.5519
Si 1.11399 6.73288 9.02363
Si 3.61777 2.4424 9.20541
Si 1.19019 2.09643 7.34269
Si 3.75326 6.48335 7.25156
O 1.02883 5.42056 9.97593
O 3.32013 1.09084 10.0229
O 2.25099 2.68844 8.3763
O 4.73403 6.81234 8.53789
O 1.8685 0.755282 6.65246
O 4.23187 5.11101 6.5155
O 1.12152 3.33168 6.34577
O 3.69585 7.71749 6.20237
O 2.21434 6.50984 7.85916
O 4.86218 2.31657 8.10761
O 1.48014 7.89455 10.075
O 4.0909 3.53291 10.2373
Si 5.18496 4.32084 5.44697
Si 7.68619 0.0349208 5.78088
Si 6.18547 6.60918 9.21574
Si 8.79748 2.27769 9.19095
Si 6.254 2.23532 7.30214
Si 8.62429 6.44181 7.3143
O 5.85556 5.53701 10.2643
O 8.54715 0.959456 10.0635
O 7.39664 2.51917 8.45093
O 9.76125 6.7831 8.41556
O 6.75705 0.773691 6.78101
O 9.24787 5.05942 6.68129
O 6.15944 3.32219 6.15303
O 8.49404 7.4579 6.09222
O 7.18081 6.25907 7.99367
O 9.99856 2.06932 8.1054
O 6.71785 7.86962 9.94201
O 9.22813 3.52035 10.0028
Si 10.2079 4.26961 5.62685
Si 12.8333 17.3983 5.60374
Si 11.2001 6.61189 9.19376
Si 13.8568 2.36891 9.24145
Si 11.4066 2.16264 7.39716
Si 13.6385 6.51217 7.23671
O 10.9232 5.40067 10.2105
O 13.6045 1.24125 10.3263
O 12.5027 2.63578 8.50479
O 14.7545 6.99247 8.35229
O 12.0525 0.841895 6.6971
O 14.3437 5.26496 6.60088
O 11.234 3.26391 6.31603
O 13.2933 7.53313 6.06955
O 12.2592 6.23547 8.11016
O 14.9459 1.95792 8.11701
O 11.7073 8.01153 9.84376
O 14.3646 3.61 10.0027
Si 0.162235 13.0347 5.28863
Si 2.71199 8.77962 5.48219
Si 1.1698 15.3124 9.16183
Si 3.75884 10.8582 9.15939
Si 1.23879 10.7633 7.25097
Si 3.75672 15.1429 7.3095
O 0.891788 14.0399 10.0545
O 3.29516 9.78215 10.2397
O 2.46893 11.1334 8.21862
O 4.92462 15.3761 8.35466
O 1.70259 9.46003 6.5093
O 4.06569 13.7743 6.43358
O 1.05447 11.9595 6.10943
O 3.63427 16.3552 6.21992
O 2.38472 15.1736 8.14293
O 4.9674 10.3379 8.20823
O 1.55741 16.5449 10.119
O 4.29791 12.1178 9.96922
Si 5.03209 13.0677 5.3431
Si 7.74984 8.70374 5.35531
Si 6.23098 15.2531 9.29556
Si 8.65081 10.9426 9.15098
Si 6.21011 10.7338 7.30547
Si 8.81362 15.1488 7.5021
O 6.09164 14.002 10.3062
O 8.37409 9.90431 10.3387
O 7.3691 11.2539 8.32962
O 10.0938 15.4034 8.46651
O 6.92998 9.46548 6.5571
O 9.14624 13.8951 6.52195
O 5.74759 11.8862 6.28249
O 8.61402 16.3824 6.60499
O 7.54565 14.8831 8.38037
O 9.85602 10.4282 8.15207
O 6.49866 16.6654 9.96804
O 9.33733 12.2147 9.88783
Si 10.0852 13.0309 5.55705
Si 12.4874 8.74806 5.44536
Si 11.5201 15.1813 9.16551
Si 13.7872 10.8634 9.22734
Si 11.2449 10.8085 7.49288
Si 13.9292 15.0939 7.33677
O 11.2191 13.9488 10.1898
O 13.6098 9.68502 10.3795
O 12.3638 11.0717 8.54081
O 14.8762 15.5727 8.4432
O 11.9322 9.6098 6.61028
O 14.3508 13.8679 6.42631
O 11.0162 12.0337 6.52608
O 13.81 16.4292 6.32459
O 12.5453 14.8519 8.00391
O 14.9079 10.6735 8.14286
O 12.1054 16.4673 9.96557
O 14.1912 12.2125 10.08
Si 0.277425 4.49643 10.9322
Si 2.51031 0.105208 10.9984
Si 1.05173 6.83774 14.6173
Si 3.84998 2.1176 14.7263
Si 1.38507 2.28475 12.8794
Si 3.70076 6.5731 12.9018
O 0.792556 5.5796 15.5642
O 3.62911 0.745168 15.6063
O 2.45133 2.61065 14.0541
O 4.8638 6.90345 13.9392
O 1.77587 0.911753 12.1711
O 4.12688 5.218 12.2658
O 1.15712 3.48721 11.8168
O 3.47044 7.71991 11.8087
O 2.36863 6.53435 13.7656
O 4.8048 1.7497 13.5177
O 1.26539 7.99094 15.6455
O 4.40339 3.21476 15.7398
Si 4.99284 4.44181 11.1846
Si 7.6176 -0.0206626 10.9262
Si 6.22543 6.6444 14.7228
Si 8.69878 2.08024 14.6844
Si 6.2874 2.10191 12.8418
Si 8.60254 6.52932 12.8703
O 5.88514 5.37243 15.6459
O 8.56357 0.793225 15.642
O 7.30693 2.43712 13.9807
O 9.92534 6.80916 13.935
O 6.72713 0.877315 11.903
O 9.18161 5.18616 12.0702
O 6.00217 3.40471 11.8951
O 8.31548 7.70727 11.8546
O 7.2785 6.26813 13.6631
O 9.87655 1.86175 13.6369
O 6.88228 7.89393 15.5918
O 9.18579 3.41535 15.4898
Si 10.1044 4.35745 11.1005
Si 12.8597 0.0473863 11.0169
Si 11.2895 6.54019 14.7503
Si 13.8543 2.31635 14.682
Si 11.3297 2.02841 12.8181
Si 13.6399 6.2148 12.8647
O 10.9153 5.49311 15.9478
O 13.6509 1.03472 15.7303
O 12.5213 2.38835 13.8436
O 14.7401 6.92878 13.8285
O 11.7961 0.785576 11.9955
O 14.3767 5.19904 11.9609
O 11.0501 3.33382 11.8883
O 13.2232 7.51124 11.9115
O 12.37 5.902 13.7482
O 15.0966 2.05926 13.7609
O 11.7108 7.84504 15.4862
O 14.1457 3.62092 15.5486
Si 0.0606524 12.9859 10.9761
Si 2.43332 8.71923 11.0476
Si 1.19279 15.2068 14.788
Si 3.46674 10.8945 14.7818
Si 1.09418 10.7776 12.8606
Si 3.72755 15.3202 12.7515
O 0.962263 13.877 15.6794
O 3.18477 9.6826 15.811
O 2.1565 11.2957 14.0273
O 4.97293 15.5782 13.8318
O 1.60207 9.43404 12.2038
O 4.14421 13.9772 11.96
O 0.985825 11.8457 11.7082
O 3.56291 16.5568 11.7144
O 2.37363 15.0684 13.6072
O 4.58572 10.367 13.7168
O 1.72313 16.3785 15.7718
O 4.10516 12.1414 15.598
Si 5.05407 12.9853 11.0897
Si 7.43315 8.73174 11.0051
Si 6.27879 15.2227 14.6542
Si 8.61234 11.0086 14.7974
Si 6.01927 10.7323 12.9854
Si 8.7856 15.1584 12.7296
O 5.90719 13.9043 15.5402
O 8.59259 9.87938 15.9381
O 7.15663 11.0039 14.112
O 9.94337 15.6771 13.7484
O 6.47447 9.60039 12.0486
O 9.34478 13.8631 12.061
O 5.81901 11.9329 12.019
O 8.40878 16.2932 11.6981
O 7.46967 15.0173 13.6442
O 9.74575 10.665 13.724
O 6.75833 16.41 15.6858
O 9.11233 12.3731 15.5808
Si 10.193 12.9656 11.0089
Si 12.4783 8.71916 11.0937
Si 11.2364 15.4968 14.6821
Si 13.7619 10.9014 14.6985
Si 11.2018 10.8828 13.0119
Si 13.8219 15.2443 12.9065
O 11.0025 14.2879 15.7689
O 13.6034 9.61291 15.6945
O 12.3011 11.2151 14.105
O 14.8507 15.5793 14.0918
O 11.6757 9.58137 12.1655
O 14.3365 13.8564 12.1221
O 11.0803 12.0346 11.9604
O 13.8105 16.4121 11.8675
O 12.4442 15.0777 13.7075
O 14.7824 10.6219 13.5566
O 11.5772 16.8347 15.61
O 14.1623 12.117 15.6053
324
 Atoms. Timestep: 33500
Si 15.0422 4.39253 16.489
Si 2.59362 -0.0200148 0.1952
Si 1.19591 6.5405 3.70992
Si 3.75826 2.30352 3.57084
Si 1.13007 2.17708 1.7565
Si 3.64617 6.40895 1.79048
O 1.08958 5.39997 4.79855
O 3.4919 1.13153 4.60112
O 2.38265 2.56894 2.66985
O 4.7824 6.74542 2.81704
O 1.60405 0.7529 1.09141
O 4.12838 5.19371 0.848375
O 0.848918 3.18436 0.559994
O 3.32671 7.66399 0.848587
O 2.31445 6.13513 2.64921
O 5.07416 1.92216 2.67819
O 1.77141 7.82927 4.45778
O 4.13994 3.63805 4.49242
Si 5.22821 4.42208 16.4713
Si 7.5784 17.4219 0.0571744
Si 6.1318 6.73097 3.73469
Si 8.89595 2.20559 3.68408
Si 6.38641 2.25396 1.86591
Si 8.7352 6.52082 1.89901
O 5.81073 5.68403 4.89001
O 8.62081 1.02004 4.72024
O 7.58598 2.61364 2.81296
O 9.93684 6.86486 2.91473
O 6.79171 0.983829 1.01486
O 9.29922 5.24162 1.11041
O 6.01678 3.43554 0.88403
O 8.59554 7.61606 0.769048
O 7.34591 6.32796 2.76258
O 9.93424 1.56321 2.63073
O 6.5661 8.05947 4.40831
O 9.45577 3.53284 4.45841
Si 9.99296 4.21907 0.0849577
Si 12.7042 17.2721 16.3605
Si 11.2206 6.56129 3.70656
Si 13.7052 2.29366 3.71892
Si 11.2504 1.84214 1.77094
Si 13.666 6.4041 2.05964
O 10.9968 5.53677 4.8968
O 13.7217 1.05813 4.77298
O 12.3122 2.22803 2.8731
O 14.8049 6.67064 3.11173
O 11.6913 0.751189 0.776388
O 14.2153 5.16694 1.04243
O 10.9098 3.1765 0.877036
O 13.5104 7.67853 1.04141
O 12.2722 6.05936 2.64524
O 15.0111 2.03535 2.74193
O 11.896 7.87835 4.4409
O 14.1468 3.65366 4.45938
Si 0.0211716 12.8445 16.4478
Si 2.52347 8.70279 0.0956288
Si 1.54461 15.0563 3.64905
Si 3.72858 10.9126 3.63527
Si 1.1329 10.6885 1.86989
Si 3.94918 15.3092 1.88473
O 1.19948 13.7772 4.61754
O 3.38106 9.83786 4.66743
O 2.47994 11.2092 2.66831
O 5.14027 15.6589 2.93793
O 1.47662 9.24235 1.17772
O 4.57013 14.2357 0.887269
O 0.789421 11.6553 0.610457
O 3.57008 16.6444 1.16396
O 2.67029 14.6517 2.63208
O 5.00058 10.3917 2.76786
O 2.00803 16.3323 4.42285
O 4.14038 12.2651 4.35764
Si 5.24475 13.0884 16.5914
Si 7.70191 8.7005 0.0477289
Si 6.42878 15.263 3.83762
Si 8.72917 10.989 3.7963
Si 6.33072 10.7216 1.90338
Si 8.79918 15.1699 1.7727
O 6.1682 13.9334 4.7378
O 8.37262 9.86642 4.96393
O 7.42961 11.2666 2.9865
O 10.1627 15.3062 2.72567
O 6.97667 9.53091 1.16471
O 8.89837 13.9445 0.801993
O 5.96529 12.0068 0.939427
O 8.54665 16.5253 0.998947
O 7.60905 14.8923 2.80842
O 9.8232 10.3525 2.82865
O 7.03742 16.5292 4.68
O 9.38622 12.2897 4.42593
Si 9.96654 13.0483 16.4979
Si 12.6731 8.63675 16.5998
Si 11.5346 15.2315 3.63319
Si 13.6158 11.0328 3.72725
Si 11.0166 10.782 1.835
Si 14.03 15.1501 1.72569
O 11.3589 14.1311 4.84603
O 13.5532 9.81528 4.85565
O 12.2886 11.0457 2.87327
O 0.194423 15.3375 2.74578
O 11.6611 9.593 0.960885
O 14.2874 13.7553 0.937771
O 10.6947 12.0822 1.02128
O 13.5093 16.2786 0.737227
O 12.7296 14.8986 2.61931
O 14.886 10.7209 2.74712
O 11.9988 16.5493 4.29169
O 14.0927 12.3401 4.48113
Si 0.108697 4.37626 5.46181
Si 2.76985 17.358 5.39094
Si 1.1569 6.68228 9.36375
Si 3.67092 2.36834 9.27017
Si 1.19641 1.9712 7.22681
Si 3.65156 6.53213 7.49835
O 0.997057 5.55783 10.4326
O 3.61516 1.37388 10.5207
O 2.36833 2.34051 8.35701
O 4.70046 6.92871 8.58328
O 1.78286 0.724647 6.45417
O 4.1375 5.14466 6.76138
O 0.904896 3.27514 6.266
O 3.50229 7.64503 6.339
O 2.33509 6.37327 8.33489
O 4.82132 2.08538 8.17188
O 1.71516 8.0493 10.0628
O 4.03409 3.82472 9.89296
Si 5.00659 4.46898 5.59972
Si 7.77029 0.115434 5.67738
Si 6.17542 6.68082 9.33085
Si 8.77696 2.41292 9.11799
Si 6.20095 2.23698 7.32641
Si 8.5924 6.36318 7.27195
O 6.02176 5.42663 10.3209
O 8.42299 1.13751 10.0276
O 7.44538 2.63089 8.22014
O 9.75443 6.85895 8.23538
O 6.63687 0.982378 6.47157
O 9.19313 4.94555 6.74851
O 5.98909 3.44694 6.25547
O 8.1802 7.33865 6.12636
O 7.24583 6.2351 8.21492
O 9.9527 1.96233 8.09802
O 6.72794 8.04429 9.96572
O 9.34917 3.65726 9.94627
Si 10.2787 4.3364 5.61629
Si 12.813 -0.0939028 5.41714
Si 11.2485 6.59996 8.90658
Si 14.0015 2.16218 9.21726
Si 11.4003 2.08369 7.38019
Si 13.8086 6.32512 7.35241
O 11.0045 5.58842 10.1591
O 13.878 1.05062 10.3609
O 12.5396 2.24153 8.51675
O 14.8695 6.78088 8.48599
O 11.8879 0.855012 6.44574
O 14.3166 5.05029 6.50899
O 11.382 3.29936 6.28871
O 13.7048 7.5882 6.31417
O 12.2808 6.17182 7.7483
O 14.99 1.71265 8.05686
O 11.8507 7.90743 9.69857
O 14.49 3.56506 9.86772
Si 0.0924278 12.9643 5.44707
Si 2.58842 8.68775 5.48129
Si 1.30423 15.4179 9.10042
Si 3.63531 11.2262 9.16621
Si 1.21653 10.6825 7.30861
Si 3.77843 15.2217 7.31628
O 1.06939 14.2056 10.1153
O 3.42151 10.1164 10.3259
O 2.35617 11.3664 8.22449
O 4.89854 15.3698 8.47864
O 1.74942 9.41544 6.58452
O 4.25402 13.9461 6.4383
O 0.785181 11.7865 6.22039
O 3.73689 16.4607 6.35442
O 2.3645 15.0597 8.0214
O 4.84239 10.6964 8.19593
O 2.04878 16.613 10.0249
O 4.12994 12.5442 9.95341
Si 5.15469 12.933 5.47334
Si 7.5181 8.68706 5.5313
Si 6.34935 15.1829 9.21705
Si 8.73043 11.0537 9.26301
Si 6.22449 10.8037 7.40753
Si 8.7768 15.1312 7.46203
O 6.09689 14.185 10.4747
O 8.32693 10.0134 10.5011
O 7.41565 11.2791 8.41624
O 9.96395 15.3659 8.54067
O 6.7612 9.44512 6.73647
O 9.36575 14.0033 6.41648
O 5.93847 11.8065 6.20747
O 8.49196 16.5537 6.70023
O 7.40465 14.6963 8.18324
O 9.85479 10.4822 8.2741
O 6.82636 16.6019 9.78443
O 9.37544 12.2946 10.0099
Si 10.2979 13.0525 5.47478
Si 12.7381 8.66196 5.58075
Si 11.4367 15.2372 9.18621
Si 13.7878 11.0101 9.21522
Si 11.2486 10.7181 7.45054
Si 13.8873 15.1742 7.30936
O 11.2346 14.0591 10.2755
O 13.4787 9.93501 10.348
O 12.4318 11.2393 8.45437
O 14.9926 15.655 8.37468
O 11.7974 9.39557 6.64482
O 14.5208 13.9458 6.57377
O 10.9643 11.874 6.36324
O 13.6329 16.28 6.22554
O 12.4304 14.8446 8.01376
O 14.976 10.4896 8.17934
O 12.0196 16.6015 9.86583
O 14.4391 12.2806 9.96527
Si 0.0364042 4.3872 11.1139
Si 2.78798 0.118834 11.1295
Si 1.1386 6.64644 14.6461
Si 3.7431 2.20637 14.7945
Si 1.24348 2.09325 12.9325
Si 3.65509 6.73248 12.8929
O 0.89637 5.53345 15.7106
O 3.44586 1.0553 15.8139
O 2.49677 2.32678 13.8424
O 4.82437 6.98345 13.9629
O 1.58126 0.79901 12.0256
O 4.20009 5.43318 12.0635
O 0.917604 3.38351 12.0537
O 3.35846 7.96967 11.9225
O 2.27607 6.28428 13.5375
O 4.91208 1.75665 13.7383
O 1.78614 8.03931 15.3136
O 4.23462 3.49191 15.581
Si 4.98974 4.38242 11.0097
Si 7.57204 0.0571891 10.8257
Si 6.23554 6.66712 14.6716
Si 8.73502 2.21234 14.6744
Si 6.18021 2.03727 12.7974
Si 8.8095 6.56065 12.8446
O 6.08969 5.45646 15.6818
O 8.27734 0.962074 15.5055
O 7.40226 2.50262 13.8131
O 9.87301 6.96046 13.9375
O 6.55758 0.830436 11.8435
O 9.31646 5.35554 12.0774
O 5.82383 3.25947 11.8188
O 8.55507 7.7904 11.8718
O 7.41814 6.34239 13.5609
O 9.96216 1.89812 13.6552
O 6.76847 7.88525 15.5646
O 9.10767 3.37173 15.6216
Si 10.1603 4.49415 11.0253
Si 12.7734 17.4888 11.0594
Si 11.2299 6.54069 14.6875
Si 13.7456 2.24926 14.7552
Si 11.2541 2.14954 12.8024
Si 13.6599 6.45245 12.7385
O 10.8599 5.27937 15.666
O 13.6059 0.986633 15.677
O 12.3983 2.29884 13.8961
O 14.9011 6.92544 13.7049
O 11.7679 1.04959 11.7943
O 13.9658 5.03657 11.9735
O 11.0188 3.42031 11.8863
O 13.3487 7.60204 11.6917
O 12.3613 6.17011 13.5946
O 15.0336 1.98718 13.7887
O 11.9425 7.69405 15.5619
O 14.0641 3.59626 15.5046
Si 0.19424 13.1188 11.0396
Si 2.51693 8.95354 11.0123
Si 1.18722 15.2313 14.7819
Si 3.51259 11.0373 14.9763
Si 0.945148 10.869 12.8925
Si 3.727 15.2001 12.9598
O 0.984978 13.8945 15.684
O 3.4292 9.90485 16.0817
O 2.10067 11.0487 14.0821
O 4.87012 15.5168 13.9869
O 1.37344 9.68722 11.9602
O 4.32879 13.8038 12.3128
O 0.98608 12.2087 11.9998
O 3.4012 16.3571 12.0398
O 2.37965 14.877 13.7766
O 4.60096 10.8719 13.6586
O 1.81975 16.476 15.6555
O 4.13779 12.2667 15.7412
Si 5.06012 13.1056 11.1221
Si 7.4334 8.84321 11.138
Si 6.3005 15.1856 14.7064
Si 8.59157 10.8828 14.6291
Si 5.99372 10.8086 12.9163
Si 8.76418 15.3117 12.7512
O 6.25551 13.7974 15.5221
O 8.4452 9.78484 15.8235
O 7.19641 11.1307 13.9312
O 10.0658 15.6316 13.7327
O 6.4953 9.32121 12.3418
O 9.26929 14.093 11.9098
O 5.83506 11.8673 11.6666
O 8.49825 16.5593 11.7392
O 7.56687 15.0534 13.6879
O 9.59827 10.4062 13.4636
O 6.72411 16.2759 15.7655
O 9.26245 12.1763 15.3452
Si 10.2052 13.147 11.0821
Si 12.5765 8.74465 10.9137
Si 11.2762 15.1279 14.661
Si 13.4965 10.8656 14.6408
Si 10.9837 10.6029 12.7632
Si 13.7868 15.1007 12.9655
O 10.9348 14.0105 15.7288
O 13.5686 9.60467 15.6802
O 12.0628 10.9571 13.991
O 14.855 15.4686 14.1258
O 11.5209 9.37236 11.9452
O 14.3904 14.0132 12.0353
O 10.8777 11.9579 11.9134
O 13.4192 16.4405 12.0803
O 12.5159 14.681 13.6657
O 14.5716 10.7458 13.5047
O 11.8565 16.3857 15.4125
O 14.0439 12.1766 15.4622
324
 Atoms. Timestep: 34000
Si 0.135159 4.29774 -0.0348996
Si 2.52526 17.3667 16.5123
Si 1.20667 6.53912 3.71762
Si 3.78227 2.28308 3.79891
Si 1.25745 2.10199 1.84048
Si 3.72177 6.50148 1.8472
O 0.912298 5.2027 4.59459
O 3.57006 1.07836 4.76108
O 2.41473 2.44882 2.9669
O 5.04387 6.89853 2.68861
O 1.70584 0.754608 1.10676
O 4.10088 5.08959 1.17569
O 1.04438 3.23408 0.757225
O 3.39526 7.70352 0.723455
O 2.51651 6.37882 2.80745
O 4.96245 1.96089 2.69163
O 1.5455 7.71377 4.73639
O 4.11687 3.66423 4.53591
Si 5.0424 4.32801 0.0806231
Si 7.58794 0.0513271 0.0211461
Si 6.22944 6.4808 3.6088
Si 8.82072 2.25993 3.65018
Si 6.2697 2.18409 1.91669
Si 8.76789 6.2697 1.78933
O 5.9706 5.36935 4.78364
O 8.50027 1.04729 4.57546
O 7.44473 2.61539 2.90998
O 9.82844 6.80535 2.93314
O 6.81524 0.885312 1.15767
O 9.38052 4.97265 1.12979
O 6.07879 3.37094 0.883223
O 8.44726 7.35237 0.645836
O 7.44299 6.04041 2.56119
O 9.93282 1.71247 2.57524
O 6.76392 7.75504 4.57632
O 9.40986 3.61633 4.29624
Si 10.1406 4.2581 16.5132
Si 12.7991 17.2369 -0.00643334
Si 11.3151 6.7018 3.61456
Si 13.6075 2.31898 3.56358
Si 11.2123 1.88036 1.74534
Si 13.7835 6.37306 1.79742
O 11.1188 5.4994 4.70513
O 13.388 0.940923 4.47367
O 12.3252 2.60291 2.67
O 14.9917 6.91597 2.76633
O 12.0279 0.540784 1.17352
O 14.3694 5.03954 1.16914
O 10.8056 2.94083 0.583239
O 13.4957 7.52287 0.692567
O 12.467 6.33588 2.6277
O 14.8527 1.97326 2.589
O 11.6641 8.03591 4.56504
O 13.8835 3.44821 4.62857
Si 15.0879 12.9083 16.544
Si 2.37293 8.73699 0.0319775
Si 1.46963 15.1748 3.70058
Si 3.55211 10.8464 3.70201
Si 1.09905 10.8305 1.95262
Si 3.82092 15.1005 1.70518
O 1.23927 14.1063 4.8669
O 3.33323 9.61254 4.72708
O 2.21294 11.2424 2.98682
O 4.91065 15.5508 2.78174
O 1.70595 9.4404 1.27691
O 4.47961 13.9042 0.949035
O 0.917237 11.8642 0.794433
O 3.38969 16.2695 0.721163
O 2.61617 14.812 2.59418
O 4.79416 10.6073 2.58624
O 1.93212 16.589 4.3971
O 4.1174 12.1051 4.61002
Si 5.37289 13.0585 16.4853
Si 7.61488 8.60708 -0.000516777
Si 6.24924 15.2521 3.71412
Si 8.61975 11.0373 3.87727
Si 6.28188 10.7633 1.95298
Si 8.83059 15.2332 1.7417
O 5.9733 14.007 4.62989
O 8.18719 9.94383 4.95078
O 7.27163 11.2599 3.03621
O 10.034 15.3946 2.667
O 6.69224 9.29527 1.24894
O 9.25868 13.9562 0.780549
O 6.18284 11.8892 0.788693
O 8.45325 16.4555 0.82151
O 7.53656 15.0506 2.62948
O 9.80796 10.5947 2.86085
O 6.6941 16.466 4.68983
O 9.17265 12.4151 4.52267
Si 10.0757 12.8662 16.479
Si 12.4595 8.59746 0.0669947
Si 11.2319 15.3273 3.70895
Si 13.6773 11.0578 3.76153
Si 11.1856 10.6184 2.00029
Si 13.9678 15.1404 1.88656
O 10.9576 14.095 4.72025
O 13.5603 9.76464 4.68186
O 12.1857 11.2222 3.09412
O 0.0728713 15.2549 2.93206
O 11.8148 9.32739 1.2806
O 14.2776 13.8018 1.01815
O 10.7307 11.7158 0.832134
O 13.7904 16.3195 0.860429
O 12.629 15.2113 2.77685
O 14.7395 10.8055 2.63475
O 11.3608 16.7084 4.58586
O 14.2426 12.3514 4.52286
Si 0.0119485 4.14199 5.5278
Si 2.79495 17.3547 5.38917
Si 1.18275 6.73567 9.36081
Si 3.93919 2.23802 9.09057
Si 1.30286 1.88396 7.31603
Si 3.76782 6.44136 7.43756
O 0.943105 5.52931 10.3686
O 3.59183 1.24365 10.3462
O 2.52898 2.39364 8.28547
O 4.8783 6.84744 8.54492
O 1.70635 0.528235 6.50516
O 4.14052 5.04103 6.73736
O 0.787299 2.96472 6.28713
O 3.57915 7.6578 6.40804
O 2.38517 6.40182 8.34347
O 5.09873 1.68058 8.20627
O 1.57295 8.0001 10.1814
O 4.23712 3.59225 9.84684
Si 5.07702 4.34712 5.59221
Si 7.85601 17.3538 5.47832
Si 6.31018 6.55392 9.15053
Si 8.80713 2.43583 9.20694
Si 6.38755 2.06912 7.35131
Si 8.73693 6.48915 7.38892
O 6.1513 5.31185 10.252
O 8.47118 1.28415 10.2847
O 7.46642 2.5867 8.42085
O 9.92989 6.72521 8.50595
O 7.13674 0.82169 6.63287
O 9.11482 5.29696 6.34134
O 5.93462 3.10232 6.24506
O 8.55164 7.83865 6.5298
O 7.30847 6.1387 8.01719
O 9.94219 1.75897 8.19266
O 6.83616 7.78664 9.97539
O 9.36653 3.82949 9.8109
Si 10.1254 4.47194 5.40214
Si 12.5205 17.4451 5.42526
Si 11.3499 6.70434 9.16854
Si 13.7845 2.1434 9.20114
Si 11.2427 2.12485 7.36795
Si 13.9324 6.43362 7.37214
O 11.0229 5.86235 10.3937
O 13.485 1.06817 10.2945
O 12.5027 2.48011 8.29126
O 14.9914 6.93004 8.45091
O 11.7362 0.896601 6.46616
O 14.4276 5.14268 6.57605
O 10.764 3.36342 6.37095
O 13.6607 7.61871 6.27685
O 12.6251 6.22752 8.29114
O 14.9824 1.6587 8.26699
O 11.8561 8.24611 9.52083
O 14.2833 3.53152 9.92821
Si 0.147859 13.1195 5.56732
Si 2.499 8.59399 5.65249
Si 1.44694 15.3632 9.12097
Si 3.6994 11.1197 9.26878
Si 1.12954 10.827 7.44915
Si 3.97941 15.1585 7.27574
O 1.26562 14.0812 10.1485
O 3.4223 9.93577 10.3831
O 2.35037 11.21 8.42806
O 5.13525 15.6594 8.29827
O 1.60673 9.47583 6.70879
O 4.4301 13.7334 6.73832
O 0.992068 11.9179 6.28375
O 3.728 16.2536 6.08161
O 2.58851 15.0519 8.0109
O 4.86831 10.6954 8.35441
O 1.96252 16.6195 9.9258
O 4.1727 12.4659 9.96409
Si 5.1285 12.9306 5.50119
Si 7.51309 8.66717 5.64744
Si 6.42345 15.3308 9.15021
Si 8.75581 11.1008 9.17775
Si 6.15378 10.741 7.38322
Si 8.89672 15.1265 7.32087
O 5.95772 14.1436 10.1224
O 8.54015 9.91028 10.2135
O 7.29672 11.1357 8.40379
O 9.94578 15.5062 8.44532
O 6.58336 9.31975 6.82936
O 9.39802 13.7858 6.71402
O 5.98671 11.8225 6.2149
O 8.74256 16.3027 6.19635
O 7.50938 14.9484 8.07869
O 9.92364 10.8068 8.07968
O 7.00187 16.5184 10.1661
O 9.19462 12.4574 9.96983
Si 10.2174 12.9997 5.56363
Si 12.7208 8.70431 5.53215
Si 11.3163 15.2771 9.24646
Si 13.7858 11.0547 9.28904
Si 11.4125 10.8228 7.47392
Si 13.7988 15.2583 7.41022
O 11.0395 14.2286 10.3791
O 13.5302 9.949 10.4471
O 12.4109 11.3171 8.61401
O 15.0622 15.4876 8.44814
O 11.9715 9.48806 6.86546
O 14.2432 13.863 6.59056
O 11.1914 11.908 6.22082
O 13.3824 16.3247 6.30045
O 12.5088 15.0001 8.28089
O 14.8891 10.5027 8.22614
O 11.6297 16.6517 10.0543
O 14.3392 12.4113 9.88147
Si 0.0607652 4.36312 10.9916
Si 2.78357 0.0679427 11.0029
Si 1.13 6.66588 14.5937
Si 3.68411 2.21037 14.6245
Si 1.16481 2.04312 12.8214
Si 3.68735 6.49228 12.6544
O 0.860509 5.36646 15.6938
O 3.32508 0.937495 15.5477
O 2.28789 2.49468 13.8705
O 4.74637 6.87605 13.807
O 1.75918 0.764336 12.0193
O 4.19082 5.07638 12.0259
O 0.869328 3.23972 11.7572
O 3.58838 7.77763 11.7887
O 2.22229 6.28487 13.4448
O 4.85121 1.9118 13.5857
O 1.47019 7.98944 15.4712
O 4.21526 3.41884 15.6127
Si 5.07942 4.3428 10.9888
Si 7.83118 0.116559 11.1548
Si 5.99688 6.79627 14.7649
Si 8.60487 2.37244 14.6951
Si 6.16939 2.1198 12.8539
Si 8.70926 6.47749 12.8559
O 5.74153 5.51664 15.7378
O 8.4432 1.07638 15.7195
O 7.27769 2.68676 13.9371
O 9.93871 6.83781 13.804
O 6.90863 0.81368 12.2603
O 9.14195 5.17116 12.0094
O 5.90413 3.19215 11.7257
O 8.47967 7.68008 11.7981
O 7.29384 6.48389 13.7753
O 9.82794 2.31528 13.6532
O 6.52279 8.09679 15.4952
O 8.96737 3.76493 15.5128
Si 10.1719 4.61205 10.9655
Si 12.4555 0.136892 11.1169
Si 11.2316 6.48122 14.734
Si 13.7841 2.14807 14.6876
Si 11.225 2.31714 12.8968
Si 13.7299 6.44926 12.7933
O 11.0757 5.25027 15.7812
O 13.4417 0.87467 15.6032
O 12.4617 2.52714 13.8668
O 14.8682 6.88083 13.7728
O 11.5298 0.984694 12.0313
O 14.1502 5.10174 12.0315
O 11.0132 3.51152 11.7746
O 13.2795 7.56173 11.7373
O 12.4439 6.23287 13.7028
O 14.8962 1.78474 13.6136
O 11.5694 7.7658 15.6828
O 14.3309 3.37268 15.5832
Si 0.276872 13.2285 10.9
Si 2.57264 8.82179 11.131
Si 1.11954 15.2663 14.5755
Si 3.62417 11.0256 14.6671
Si 1.15204 10.8756 12.977
Si 3.75265 15.2862 12.8849
O 0.83407 13.9711 15.5841
O 3.08307 9.91013 15.6905
O 2.21868 11.5042 13.9627
O 4.89323 15.7046 13.9061
O 1.76478 9.54905 12.282
O 4.23614 13.9037 12.1934
O 0.851747 12.0078 11.8085
O 3.76515 16.538 11.8147
O 2.27581 15.077 13.5357
O 4.69771 10.6152 13.5242
O 1.63009 16.4282 15.5626
O 4.35793 12.1857 15.492
Si 5.08372 13.1556 11.0103
Si 7.67944 8.76028 11.0211
Si 6.20998 15.4028 14.6219
Si 8.61356 10.844 14.6698
Si 6.11758 10.8393 12.7874
Si 8.91375 15.2705 12.9679
O 6.10385 14.1343 15.5982
O 8.49186 9.68322 15.7162
O 7.15129 10.9983 14.013
O 10.0248 15.4929 14.1062
O 6.60769 9.61598 11.88
O 9.3563 14.0292 12.1433
O 6.07674 12.0929 11.8222
O 8.77313 16.5648 12.0871
O 7.46754 15.0922 13.6899
O 9.69128 10.4708 13.5572
O 6.64551 16.6808 15.5175
O 9.12749 12.1174 15.431
Si 10.106 13.115 11.1285
Si 12.5672 8.74607 10.8773
Si 11.4046 15.0402 14.7785
Si 13.5904 10.9223 14.7538
Si 11.0709 10.6622 12.765
Si 13.8722 15.2829 12.7408
O 11.1362 13.8319 15.7485
O 13.1345 9.70845 15.6764
O 12.262 11.1856 13.7875
O 14.8778 15.7078 13.8679
O 11.5917 9.40093 11.9778
O 14.6109 14.1795 11.8728
O 10.8733 11.9267 11.8033
O 13.357 16.5141 11.9171
O 12.5616 14.9061 13.7061
O 14.8772 10.6068 13.751
O 11.8131 16.2597 15.6605
O 14.1002 12.165 15.571
324
 Atoms. Timestep: 34500
Si 0.107734 4.23488 0.0340052
Si 2.5858 0.0881669 16.5412
Si 1.2749 6.6357 3.7266
Si 3.63618 2.29529 3.84139
Si 1.26591 2.1603 1.90645
Si 3.77512 6.51119 1.88662
O 1.05531 5.44227 4.82362
O 3.43695 1.08106 4.79182
O 2.22069 2.58938 3.14164
O 5.00361 6.71827 2.90848
O 1.68045 0.895497 1.02333
O 4.15601 5.25365 0.956332
O 1.02206 3.37089 0.933832
O 3.40871 7.70409 1.02759
O 2.5229 6.19263 2.83713
O 4.59704 1.84702 2.69352
O 1.6909 7.88721 4.59134
O 4.35541 3.60217 4.47763
Si 4.96907 4.21184 16.5687
Si 7.63146 -0.000397279 0.029338
Si 6.34752 6.5339 3.74167
Si 8.75925 2.19314 3.61049
Si 6.05451 1.95 1.95563
Si 8.86092 6.41532 1.94119
O 6.13014 5.49579 4.93452
O 8.6126 0.842562 4.54237
O 7.26786 2.33984 3.07054
O 9.97919 6.98907 2.92232
O 6.66536 0.699081 1.22836
O 9.44283 5.13228 1.19594
O 5.76531 3.12468 0.768343
O 8.43092 7.55219 0.91386
O 7.52355 6.15429 2.82152
O 9.78782 1.83615 2.51271
O 6.8551 7.84199 4.36477
O 9.26979 3.52845 4.30032
Si 10.2242 4.40522 16.5348
Si 12.6696 17.3469 0.0382667
Si 11.3813 6.64356 3.63047
Si 13.7874 2.23507 3.53032
Si 11.1387 1.99063 1.78545
Si 13.8764 6.4901 1.82152
O 11.0247 5.45507 4.61275
O 13.5054 1.16754 4.62205
O 12.384 2.3873 2.80606
O 15.0188 6.78583 2.932
O 11.6893 0.743197 0.977988
O 14.2395 5.28802 0.89044
O 11.1723 3.24117 0.701343
O 13.5874 7.75959 0.814515
O 12.4392 6.1178 2.55404
O 14.9247 1.76167 2.53774
O 12.121 7.90059 4.22151
O 14.431 3.58114 4.204
Si 0.102228 13.2647 -0.0307164
Si 2.71411 8.73565 16.452
Si 1.22921 15.3031 3.79822
Si 3.66182 11.0342 3.68403
Si 1.2168 10.8319 1.70585
Si 3.60144 15.0222 1.7088
O 1.08439 14.1121 4.86549
O 3.48614 9.77718 4.71356
O 2.24445 11.1111 2.89168
O 4.70125 15.36 2.86735
O 1.63741 9.59688 0.811058
O 4.07016 13.7515 0.913333
O 0.96059 12.096 0.767619
O 3.30869 16.2176 0.636631
O 2.19363 14.8625 2.55304
O 4.79236 10.6812 2.6472
O 1.76948 16.5509 4.54415
O 4.20061 12.2709 4.52657
Si 5.14011 13.0057 16.5251
Si 7.47794 8.50805 0.0687749
Si 6.19126 15.223 3.50189
Si 8.68367 10.8451 3.64275
Si 6.19097 10.7677 1.76302
Si 8.84893 15.2039 1.73759
O 5.98237 13.9855 4.55499
O 8.56819 9.73288 4.70162
O 7.38049 11.1036 2.74462
O 9.85308 15.5719 2.95284
O 6.51267 9.34004 1.06383
O 9.3447 13.8613 1.07394
O 6.03371 11.8272 0.596762
O 8.64604 16.4204 0.755956
O 7.30359 14.9857 2.40633
O 9.84701 10.5916 2.5871
O 6.63411 16.5279 4.32013
O 9.07073 12.197 4.41179
Si 10.1178 12.9469 16.588
Si 12.7116 8.83753 16.5027
Si 11.2718 15.281 3.66382
Si 13.8102 10.9139 3.6289
Si 11.2534 10.7209 1.862
Si 13.7683 15.2183 1.9399
O 11.0477 14.1619 4.7686
O 13.7361 9.84775 4.82777
O 12.388 10.9732 2.95607
O 14.8391 15.4528 3.11815
O 11.6902 9.32018 1.07085
O 14.1855 13.9239 1.08931
O 11.1211 11.8788 0.785764
O 13.7066 16.4296 0.94221
O 12.3291 14.9721 2.54568
O 14.8788 10.4821 2.47972
O 11.8278 16.5553 4.45482
O 14.3487 12.2492 4.38765
Si 0.11632 4.31745 5.44517
Si 2.67677 17.3657 5.58986
Si 1.29172 6.6894 9.0656
Si 3.72629 2.26039 9.15423
Si 1.22824 2.12873 7.40316
Si 3.85066 6.43267 7.24803
O 1.03095 5.63281 10.2584
O 3.51353 1.15046 10.3046
O 2.35369 2.49461 8.36439
O 5.08461 6.90962 8.33843
O 1.82454 0.731431 6.77729
O 4.34436 5.02165 6.69565
O 0.957898 3.12418 6.17208
O 3.60368 7.57157 6.15379
O 2.49422 6.16033 8.07497
O 4.90431 1.95798 8.07083
O 1.70073 8.05732 9.7398
O 4.12565 3.60253 9.87148
Si 5.28404 4.30373 5.54317
Si 7.66607 17.3042 5.34239
Si 6.429 6.57022 9.155
Si 8.85175 2.24625 9.25089
Si 6.35599 1.97846 7.38547
Si 8.8421 6.47766 7.35984
O 5.98974 5.56337 10.344
O 8.76467 1.09266 10.4147
O 7.50161 2.14069 8.42233
O 10.0277 6.75407 8.36433
O 6.66463 0.684144 6.43453
O 9.44095 5.22747 6.4676
O 6.17361 3.20618 6.35242
O 8.37796 7.70199 6.38557
O 7.55247 6.01574 8.19088
O 9.97023 1.96032 8.16093
O 7.10825 7.81212 9.96224
O 9.2104 3.61147 10.03
Si 10.2073 4.40279 5.38328
Si 12.6614 0.0321927 5.43455
Si 11.396 6.65554 9.23707
Si 13.8718 2.43981 9.29274
Si 11.2938 2.13618 7.27422
Si 13.8389 6.43384 7.18201
O 11.1093 5.46669 10.2912
O 13.4465 1.26005 10.3175
O 12.5091 2.61678 8.32908
O 15.062 6.75937 8.18568
O 11.7135 0.872446 6.38592
O 14.1849 5.01422 6.48843
O 11.0408 3.30166 6.132
O 13.4388 7.58527 6.25402
O 12.5626 6.27385 8.25112
O 14.9691 1.97194 8.20254
O 11.7435 7.92105 10.164
O 14.4381 3.6827 10.043
Si 15.07 13.1336 5.51197
Si 2.67031 8.72352 5.55397
Si 1.29774 15.3256 9.31068
Si 3.79353 10.9385 9.21309
Si 1.20077 10.8238 7.37546
Si 3.77627 15.0824 7.50039
O 0.856866 14.2932 10.4192
O 3.64304 9.70687 10.2181
O 2.35308 11.2436 8.49834
O 4.97402 15.512 8.48696
O 1.80779 9.56771 6.54468
O 4.24864 13.8685 6.60382
O 0.771845 12.1266 6.45675
O 3.50322 16.4218 6.50426
O 2.59336 14.8463 8.52856
O 4.74964 10.6485 8.01537
O 1.68706 16.6182 10.0183
O 4.39081 12.1324 10.0734
Si 5.16303 13.1012 5.55672
Si 7.57002 8.72375 5.43153
Si 6.40785 15.3803 9.29999
Si 8.72888 11.0203 9.14978
Si 6.12326 10.6924 7.32098
Si 8.81442 15.1561 7.28437
O 6.07228 14.2733 10.3987
O 8.7307 9.90197 10.3445
O 7.25081 10.8481 8.48756
O 10.0727 15.54 8.16958
O 6.52249 9.50128 6.29693
O 9.21253 13.801 6.50418
O 6.0686 12.0409 6.36478
O 8.48309 16.2198 6.17995
O 7.54651 14.9607 8.17526
O 9.82788 10.4758 8.07844
O 6.99305 16.699 9.94026
O 9.14351 12.3632 9.85392
Si 10.0703 13.027 5.38451
Si 12.7665 8.76004 5.4978
Si 11.2985 15.4019 9.22546
Si 13.8093 10.8729 9.13003
Si 11.1539 10.6694 7.24208
Si 13.8267 15.2192 7.31634
O 10.923 14.2895 10.2394
O 13.5246 9.77993 10.2486
O 12.3676 11.0418 8.28932
O -0.021253 15.4857 8.31664
O 11.787 9.47621 6.43869
O 14.0048 13.9706 6.30095
O 10.9049 11.8267 6.11789
O 13.5265 16.523 6.35755
O 12.612 15.0124 8.28893
O 14.9226 10.4343 8.15326
O 11.6457 16.7976 10.0613
O 14.3651 12.1905 9.93716
Si 0.20728 4.59264 11.0386
Si 2.60697 0.0704339 11.0319
Si 1.22898 6.421 14.7832
Si 3.56461 2.23499 14.7047
Si 0.987585 2.16408 12.8329
Si 3.655 6.35112 12.8041
O 1.14058 5.32478 15.9348
O 3.58855 1.09429 15.8961
O 2.08366 2.3407 14.1084
O 4.65235 6.74544 14.0352
O 1.56085 0.939037 11.9578
O 4.23658 5.10871 12.0713
O 1.00082 3.51889 11.9813
O 3.21032 7.5078 11.8121
O 2.16707 5.94811 13.5319
O 4.60686 1.84705 13.6347
O 2.06587 7.67479 15.3472
O 4.05896 3.50744 15.4694
Si 5.1104 4.33568 11.0058
Si 7.7856 0.0418453 11.1938
Si 6.12424 6.44868 14.757
Si 8.57207 2.38497 14.819
Si 6.06297 2.06589 13.0127
Si 8.71516 6.50288 12.9779
O 6.0394 5.20552 15.7524
O 8.43168 1.21631 15.9031
O 7.08628 2.41977 14.1608
O 9.72145 7.00222 14.1446
O 6.66516 0.88115 12.0543
O 9.26552 5.29651 12.0945
O 5.92024 3.23942 11.8474
O 8.66872 7.88611 12.0969
O 7.2559 6.22606 13.6782
O 9.66909 1.92917 13.7369
O 6.62911 7.63734 15.6368
O 9.16587 3.64409 15.6345
Si 10.1793 4.45958 11.0996
Si 12.6107 0.20906 11.1036
Si 11.2468 6.81572 14.7359
Si 13.7183 2.1536 14.8065
Si 11.157 2.16001 12.9849
Si 13.7796 6.5823 12.9615
O 11.1282 5.59501 15.7719
O 13.7006 0.939468 15.805
O 12.1919 2.45695 14.206
O 14.902 6.75267 14.1734
O 11.7099 0.957389 12.2432
O 14.2989 5.31914 12.1703
O 11.0169 3.34748 11.8961
O 13.7042 7.74049 11.8541
O 12.2396 6.47418 13.6083
O 14.5791 1.93679 13.4797
O 11.7893 8.10115 15.3927
O 14.3421 3.4264 15.5528
Si 15.06 13.1276 11.046
Si 2.58063 8.74866 10.9518
Si 1.13214 15.4873 14.6273
Si 3.80278 10.8892 14.5998
Si 1.19645 10.7814 12.761
Si 3.64151 15.1414 12.8971
O 0.941405 14.4082 15.8224
O 3.66284 9.76318 15.7999
O 2.42682 11.0755 13.7935
O 4.82865 15.5857 13.8795
O 1.67816 9.49087 11.9107
O 4.14272 13.9543 11.9932
O 0.889423 12.0443 11.8712
O 3.39417 16.4533 11.9277
O 2.25377 14.8719 13.5884
O 4.82217 10.5821 13.5348
O 1.76673 16.8195 15.273
O 4.32022 12.1934 15.4217
Si 5.15289 13.1074 11.0456
Si 7.80454 8.77254 11.0806
Si 6.16819 15.3478 14.7257
Si 8.65203 10.707 14.9041
Si 6.27527 10.8459 12.8271
Si 8.68258 15.0674 13.0378
O 5.87378 14.1977 15.8305
O 8.43998 9.48223 15.8279
O 7.33448 11.034 13.9983
O 9.76161 15.4623 14.0483
O 6.77453 9.63686 11.9137
O 9.14034 13.7846 12.0795
O 6.06781 12.1142 11.9049
O 8.36464 16.3082 12.0309
O 7.29559 14.874 13.8254
O 9.86198 10.6055 13.802
O 6.74859 16.6773 15.5172
O 9.17319 12.0237 15.6881
Si 10.0577 13.1233 10.9276
Si 12.6723 8.81322 11.1778
Si 11.2387 15.2433 14.6979
Si 13.8272 11.14 14.6976
Si 11.1984 10.9276 12.9437
Si 13.7091 15.1919 12.7805
O 10.9505 13.905 15.576
O 13.6123 9.98359 15.7955
O 12.4009 11.4105 13.9686
O 14.864 15.6444 13.8663
O 11.8693 9.59256 12.2987
O 14.0057 13.8464 12.0375
O 10.9275 11.9923 11.721
O 13.465 16.4704 11.8356
O 12.2676 14.9626 13.5511
O 14.9529 10.6222 13.6955
O 11.8046 16.4529 15.683
O 14.3105 12.5103 15.4165
324
 Atoms. Timestep: 35000
Si 0.107025 4.24003 0.120854
Si 2.5779 17.3046 16.511
Si 1.23961 6.70283 3.6339
Si 3.67513 2.1517 3.84255
Si 1.25444 1.94009 1.91935
Si 3.79436 6.33908 1.91794
O 0.854592 5.50624 4.73093
O 3.41131 0.963668 4.88276
O 2.37761 2.31746 2.91366
O 4.75671 6.76095 3.13824
O 1.89059 0.643416 1.17459
O 4.2893 5.03248 1.11168
O 0.902111 3.11512 0.893634
O 3.75795 7.545 0.76417
O 2.36505 6.25228 2.6214
O 4.89118 1.81435 2.79609
O 1.83269 7.98225 4.41886
O 4.11886 3.40993 4.55656
Si 4.99262 4.35497 16.433
Si 7.56952 17.3885 0.0569058
Si 6.3117 6.6107 3.70774
Si 8.67292 2.339 3.67563
Si 6.16432 2.06047 1.8244
Si 8.70301 6.51435 1.68415
O 6.12607 5.31794 4.60935
O 8.42547 1.15106 4.7688
O 7.34875 2.41958 2.76872
O 9.89629 6.82893 2.62511
O 6.56471 0.692326 1.02279
O 9.21411 5.17031 0.939645
O 5.8867 3.12976 0.714429
O 8.37657 7.71838 0.635017
O 7.3218 6.33834 2.50511
O 9.8851 1.97943 2.76488
O 6.80955 7.78664 4.61922
O 9.14205 3.59656 4.55406
Si 10.2744 4.37881 16.5658
Si 12.5055 0.0448164 0.0103211
Si 11.2299 6.61667 3.47448
Si 13.8322 2.2014 3.75592
Si 11.2335 2.12537 1.91575
Si 13.9486 6.56665 1.80611
O 11.0542 5.30508 4.4513
O 13.5157 1.06785 4.88141
O 12.4626 2.4504 2.85002
O 14.9446 6.97861 2.89272
O 11.5519 0.758079 1.18041
O 14.5442 5.2153 1.14811
O 11.0976 3.39571 0.904171
O 13.8372 7.62844 0.61636
O 12.5377 6.41602 2.51916
O 14.983 1.68029 2.67646
O 11.8345 7.68081 4.53496
O 14.2336 3.59083 4.43971
Si 0.141943 13.1004 0.0494619
Si 2.77491 8.62708 0.150562
Si 0.896492 15.4247 3.73213
Si 3.8385 10.9234 3.7277
Si 1.32362 10.8824 1.84751
Si 3.55506 15.1173 1.87414
O 0.813689 14.2075 4.81973
O 3.42375 9.94327 4.91235
O 2.49072 11.3062 2.91713
O 4.8607 15.3897 2.80992
O 2.02744 9.49861 1.28787
O 3.93274 13.732 1.11423
O 1.05112 11.933 0.633357
O 3.47851 16.1658 0.645262
O 2.11302 15.0656 2.73876
O 4.95891 10.445 2.67282
O 1.36283 16.7287 4.51282
O 4.42598 12.2684 4.21394
Si 4.77183 13.0365 16.5365
Si 7.56152 8.7589 16.292
Si 6.09268 15.425 3.71461
Si 8.82636 10.9713 3.52026
Si 6.23873 10.8666 1.72984
Si 8.64976 15.1312 1.99967
O 5.90109 14.3342 4.86136
O 8.50918 9.76605 4.56868
O 7.56394 11.1241 2.62362
O 9.74943 15.7652 3.02281
O 6.69225 9.63433 0.736131
O 9.36855 13.8884 1.21069
O 5.78329 12.1089 0.797771
O 8.32339 16.1785 0.845063
O 7.32684 14.8772 2.86116
O 10.0862 10.6 2.61021
O 6.5465 16.7871 4.39874
O 9.24482 12.344 4.31994
Si 10.215 13.0986 0.144813
Si 12.8892 8.72546 16.5021
Si 11.1991 15.5378 3.71755
Si 13.9152 10.8681 3.65284
Si 11.4536 10.8001 1.8333
Si 13.6734 15.1649 1.80941
O 11.0612 14.249 4.72595
O 13.6059 9.51665 4.53896
O 12.5584 11.2914 2.86779
O 14.6433 15.6128 2.92998
O 11.991 9.56834 1.08172
O 14.2603 13.8215 1.12931
O 11.1516 12.0166 0.765278
O 13.3525 16.3274 0.679653
O 12.2777 15.1046 2.6918
O 15.0423 10.5888 2.55996
O 11.6291 16.8395 4.52619
O 14.5017 12.0653 4.64282
Si 0.00239083 4.41677 5.5046
Si 2.36256 0.00481996 5.64386
Si 1.44147 6.51681 9.28518
Si 3.67971 2.21204 9.18255
Si 1.03537 2.19575 7.41728
Si 3.82635 6.42538 7.31538
O 1.11843 5.3333 10.2247
O 3.18852 1.10499 10.1752
O 2.35466 2.63485 8.3708
O 4.94664 6.78776 8.3056
O 1.43503 0.908568 6.62272
O 4.32066 5.18281 6.42708
O 0.932221 3.3947 6.29827
O 3.54929 7.65428 6.28663
O 2.52633 6.23377 8.16806
O 4.76033 1.66473 8.12885
O 1.96243 7.78664 10.0415
O 4.36884 3.47329 9.97494
Si 5.18553 4.26282 5.36251
Si 7.54157 0.0440062 5.41298
Si 6.37059 6.77879 9.06214
Si 8.59184 2.20071 9.27758
Si 6.15871 1.98408 7.36137
Si 9.03381 6.57007 7.39064
O 6.10723 5.47499 10.0472
O 8.50388 0.801944 10.1198
O 7.25406 2.43028 8.42967
O 10.0855 6.94047 8.45142
O 6.66283 0.750858 6.5594
O 9.5365 5.28198 6.57574
O 5.98505 3.21433 6.26715
O 8.74627 7.6943 6.26815
O 7.67729 6.54539 8.15251
O 9.86262 1.9924 8.27772
O 6.67862 8.03245 10.0921
O 8.91475 3.46899 10.1282
Si 10.2695 4.28042 5.40769
Si 12.6333 17.4103 5.71601
Si 11.3411 6.39715 9.28135
Si 13.6434 2.42477 9.38242
Si 11.2664 2.03542 7.49492
Si 13.9388 6.48045 7.41165
O 10.9159 5.07902 10.1263
O 13.399 1.17811 10.3808
O 12.3227 2.51863 8.56565
O 15.0642 6.70696 8.57294
O 11.8905 0.710908 6.95459
O 14.2249 5.17648 6.59003
O 11.1459 3.09965 6.28219
O 13.7278 7.6532 6.40021
O 12.6104 6.19178 8.29009
O 14.8405 2.19593 8.33023
O 11.6616 7.74237 10.2392
O 14.0676 3.70579 10.2729
Si 0.303004 12.9767 5.6534
Si 2.61006 8.69908 5.55764
Si 1.15593 15.2572 9.21724
Si 3.80541 11.1213 9.216
Si 1.31167 10.6946 7.35111
Si 3.59498 14.9477 7.32435
O 0.894213 14.0934 10.2319
O 3.41741 9.96674 10.2075
O 2.52867 11.0773 8.26965
O 4.92329 15.2472 8.26111
O 1.60265 9.29528 6.67155
O 4.02389 13.7309 6.41991
O 1.30052 11.9926 6.40483
O 3.21015 16.1445 6.36044
O 2.29574 14.7941 8.26215
O 5.11478 10.8126 8.19134
O 1.46467 16.5295 10.0918
O 4.10216 12.5344 9.93597
Si 5.10659 13.1062 5.40461
Si 7.7877 8.70931 5.51252
Si 6.23136 15.4148 9.20419
Si 8.82259 10.9875 9.0074
Si 6.39737 10.8767 7.19862
Si 8.74477 15.1484 7.27072
O 6.07245 14.2085 10.3682
O 8.45566 9.76456 10.0314
O 7.62003 11.3921 8.15206
O 9.99986 15.6504 8.16751
O 6.93729 9.58822 6.51014
O 9.18671 13.6777 6.62874
O 6.11134 12.0124 6.14894
O 8.43624 16.2114 6.13477
O 7.46632 15.0674 8.25589
O 9.96856 10.6506 7.96075
O 6.49105 16.7137 10.0723
O 9.51598 11.9683 10.0521
Si 10.1413 13.0659 5.47066
Si 12.7655 8.54591 5.51328
Si 11.2776 15.3916 9.08757
Si 13.7126 11.0128 9.1084
Si 11.3391 10.8489 7.15438
Si 13.8499 15.0011 7.26854
O 10.8457 14.1213 10.0674
O 13.2017 9.85566 10.0598
O 12.4811 11.2794 8.18424
O 15.0697 15.4638 8.20681
O 11.9873 9.50036 6.46769
O 14.3341 13.6081 6.7619
O 11.0955 11.9775 6.11627
O 13.4793 16.112 6.18014
O 12.454 14.9106 8.14264
O 14.9854 10.6426 8.2172
O 11.7035 16.6746 9.99109
O 14.1993 12.271 9.98248
Si 0.17571 4.43419 11.1312
Si 2.42599 17.321 11.0071
Si 1.19158 6.60807 14.7803
Si 3.74288 2.16376 14.5991
Si 1.15078 1.96356 12.896
Si 3.69659 6.4841 12.8862
O 1.0876 5.26386 15.6838
O 3.36884 1.02599 15.7027
O 2.35008 2.38994 13.8041
O 4.96523 6.54867 13.8394
O 1.4992 0.616919 12.1543
O 4.0365 5.35038 11.7788
O 0.990112 3.17092 11.7876
O 3.60424 7.89596 11.9775
O 2.33221 6.55321 13.6313
O 4.91832 1.83385 13.622
O 1.78919 7.82601 15.7055
O 4.19951 3.48658 15.3694
Si 5.10938 4.56993 10.8846
Si 7.47742 0.0242932 11.0758
Si 6.34772 6.47529 14.6305
Si 8.80491 2.16653 14.8396
Si 6.26524 2.27456 12.9091
Si 8.8685 6.42468 12.8203
O 6.06046 5.3063 15.718
O 8.57094 1.10006 16.0008
O 7.4665 2.45611 13.9304
O 9.93573 6.92752 13.9755
O 6.75606 1.13117 11.943
O 9.39434 5.11586 12.1082
O 5.94483 3.60421 12.0024
O 8.56823 7.54227 11.7078
O 7.52962 6.07606 13.5942
O 9.79086 1.66696 13.6414
O 6.78397 7.86644 15.3396
O 9.48277 3.45692 15.484
Si 10.0649 4.07592 11.0132
Si 12.6634 17.394 11.111
Si 11.3356 6.70929 14.7554
Si 13.6376 2.30513 14.7955
Si 11.2473 1.90079 12.9048
Si 13.778 6.55202 12.9248
O 11.0418 5.46039 15.7244
O 13.3642 1.15278 15.8785
O 12.292 2.49956 13.9439
O 14.7384 6.8285 14.2039
O 11.8592 0.486911 12.3828
O 14.513 5.29138 12.1852
O 10.9166 2.94766 11.7615
O 13.6384 7.82811 11.8809
O 12.3731 6.338 13.5183
O 14.8491 1.88524 13.7225
O 11.9432 8.01759 15.4648
O 14.2098 3.48162 15.6403
Si 15.0676 13.038 11.0596
Si 2.67442 8.758 11.0155
Si 1.0795 15.4073 14.8054
Si 3.74371 10.8921 14.7121
Si 1.19797 10.7278 12.761
Si 3.60651 15.2255 12.9531
O 0.958102 14.2633 15.8769
O 3.5467 9.68393 15.6775
O 2.51284 10.9913 13.6972
O 4.77166 15.6493 13.9211
O 1.51751 9.46239 11.9644
O 4.174 13.8489 12.1945
O 0.956076 11.9547 11.7349
O 3.46016 16.3254 11.8304
O 2.29131 15.0764 13.7706
O 5.02422 10.5762 13.762
O 1.43583 16.7364 15.5487
O 3.87877 12.2753 15.4778
Si 5.10366 13.1447 11.0908
Si 7.75433 8.75543 11.0252
Si 6.14006 15.3208 14.6732
Si 8.79058 11.1059 14.6796
Si 6.37095 10.8404 12.8672
Si 8.56676 15.0253 12.8137
O 5.67366 14.1646 15.6899
O 8.50499 9.86094 15.6567
O 7.4106 11.357 13.9789
O 9.72374 15.5547 13.8684
O 7.05497 9.57132 12.2479
O 9.11373 13.8613 11.9246
O 5.88788 11.9326 11.7193
O 8.11397 16.242 11.8894
O 7.26902 14.7303 13.6227
O 9.94763 10.7832 13.6678
O 6.80756 16.6024 15.407
O 9.22948 12.3205 15.7203
Si 10.1863 13.0048 10.9879
Si 12.5753 8.73721 11.0645
Si 11.0896 15.4305 14.6902
Si 13.8686 11.0901 14.7853
Si 11.336 10.9898 12.923
Si 13.6556 15.1325 12.9573
O 10.965 14.3168 15.8881
O 13.7495 9.88946 15.9102
O 12.4925 11.2164 13.9799
O 14.7174 15.4529 14.0618
O 11.7104 9.66781 12.0828
O 14.1587 13.8211 12.153
O 11.1772 12.216 11.954
O 13.6433 16.3083 11.8209
O 12.3054 14.9534 13.6966
O 15.029 10.7125 13.7244
O 11.6058 16.7507 15.3926
O 14.3154 12.3431 15.5519
