 #  111
 
         324  atoms
           2  atom types
 
      0.000000000000      15.083300  xlo xhi
      0.000000000000      17.416700  ylo yhi
      0.000000000000      16.556800  zlo zhi
 
Masses
 
            1   28.08500000             # Si
            2   15.99900000             # O
 
Atoms # atomic
 
         1    1        0.114180580000       4.354175000000       0.000000000000
         2    1        2.628114190000       0.000000000000       0.000000000000
         3    1        1.199876520000       6.630189360000       3.679252100000
         4    1        3.713810130000       2.276014360000       3.679252100000
         5    1        1.199876510000       2.078160640000       1.839626050000
         6    1        3.713810130000       6.432335640000       1.839626050000
         7    2        1.066389310000       5.461354620000       4.805114500000
         8    2        3.580322920000       1.107179620000       4.805114500000
         9    2        2.278634130000       2.547018210000       2.965488450000
        10    2        4.792567740000       6.901193210000       2.965488450000
        11    2        1.682692950000       0.699977170000       1.125862400000
        12    2        4.196475730000       5.054152170000       1.125862400000
        13    2        1.066389310000       3.246995380000       0.713763650000
        14    2        3.580322920000       7.601170380000       0.713763650000
        15    2        2.278634130000       6.161331790000       2.553389700000
        16    2        4.792567740000       1.807156790000       2.553389700000
        17    2        1.682692950000       8.008546990000       4.393015740000
        18    2        4.196475730000       3.654371990000       4.393015740000
        19    1        5.141896970000       4.354175000000       0.000000000000
        20    1        7.655830580000       0.000000000000       0.000000000000
        21    1        6.227592900000       6.630189360000       3.679252100000
        22    1        8.741526520000       2.276014360000       3.679252100000
        23    1        6.227592900000       2.078160640000       1.839626050000
        24    1        8.741526520000       6.432335640000       1.839626050000
        25    2        6.094256530000       5.461354620000       4.805114500000
        26    2        8.608039310000       1.107179620000       4.805114500000
        27    2        7.306501350000       2.547018210000       2.965488450000
        28    2        9.820284130000       6.901193210000       2.965488450000
        29    2        6.710409340000       0.699977170000       1.125862400000
        30    2        9.224342950000       5.054152170000       1.125862400000
        31    2        6.094256530000       3.246995380000       0.713763650000
        32    2        8.608039310000       7.601170380000       0.713763650000
        33    2        7.306501350000       6.161331790000       2.553389700000
        34    2        9.820284130000       1.807156790000       2.553389700000
        35    2        6.710409340000       8.008546990000       4.393015740000
        36    2        9.224342950000       3.654371990000       4.393015740000
        37    1       10.169764190000       4.354175000000       0.000000000000
        38    1       12.683546970000       0.000000000000       0.000000000000
        39    1       11.255460130000       6.630189360000       3.679252100000
        40    1       13.769242900000       2.276014360000       3.679252100000
        41    1       11.255460130000       2.078160640000       1.839626050000
        42    1       13.769242900000       6.432335640000       1.839626050000
        43    2       11.121972920000       5.461354620000       4.805114500000
        44    2       13.635906530000       1.107179620000       4.805114500000
        45    2       12.334217740000       2.547018210000       2.965488450000
        46    2       14.848151350000       6.901193210000       2.965488450000
        47    2       11.738125730000       0.699977170000       1.125862400000
        48    2       14.252059340000       5.054152170000       1.125862400000
        49    2       11.121972920000       3.246995380000       0.713763650000
        50    2       13.635906530000       7.601170380000       0.713763650000
        51    2       12.334217740000       6.161331790000       2.553389700000
        52    2       14.848151350000       1.807156790000       2.553389700000
        53    2       11.738125730000       8.008546990000       4.393015740000
        54    2       14.252059340000       3.654371990000       4.393015740000
        55    1        0.114180580000      13.062525000000       0.000000000000
        56    1        2.628114190000       8.708350000000       0.000000000000
        57    1        1.199876520000      15.338539360000       3.679252100000
        58    1        3.713810130000      10.984364360000       3.679252100000
        59    1        1.199876520000      10.786510640000       1.839626050000
        60    1        3.713810130000      15.140685640000       1.839626050000
        61    2        1.066389310000      14.169704620000       4.805114500000
        62    2        3.580322920000       9.815529620000       4.805114500000
        63    2        2.278634130000      11.255368210000       2.965488450000
        64    2        4.792567740000      15.609543210000       2.965488450000
        65    2        1.682692950000       9.408327170000       1.125862400000
        66    2        4.196475730000      13.762502170000       1.125862400000
        67    2        1.066389310000      11.955345380000       0.713763650000
        68    2        3.580322920000      16.309520380000       0.713763650000
        69    2        2.278634130000      14.869681790000       2.553389700000
        70    2        4.792567740000      10.515506790000       2.553389700000
        71    2        1.682692950000      16.716896990000       4.393015740000
        72    2        4.196475730000      12.362721990000       4.393015740000
        73    1        5.141896970000      13.062525000000       0.000000000000
        74    1        7.655830580000       8.708350000000       0.000000000000
        75    1        6.227592900000      15.338539360000       3.679252100000
        76    1        8.741526520000      10.984364360000       3.679252100000
        77    1        6.227592900000      10.786510640000       1.839626050000
        78    1        8.741526510000      15.140685640000       1.839626050000
        79    2        6.094256530000      14.169704620000       4.805114500000
        80    2        8.608039310000       9.815529620000       4.805114500000
        81    2        7.306501350000      11.255368210000       2.965488450000
        82    2        9.820284130000      15.609543210000       2.965488450000
        83    2        6.710409340000       9.408327170000       1.125862400000
        84    2        9.224342950000      13.762502170000       1.125862400000
        85    2        6.094256530000      11.955345380000       0.713763650000
        86    2        8.608039310000      16.309520380000       0.713763650000
        87    2        7.306501350000      14.869681790000       2.553389700000
        88    2        9.820284130000      10.515506790000       2.553389700000
        89    2        6.710409340000      16.716896990000       4.393015740000
        90    2        9.224342950000      12.362721990000       4.393015740000
        91    1       10.169764190000      13.062525000000       0.000000000000
        92    1       12.683546970000       8.708350000000       0.000000000000
        93    1       11.255460130000      15.338539360000       3.679252100000
        94    1       13.769242900000      10.984364360000       3.679252100000
        95    1       11.255460130000      10.786510640000       1.839626050000
        96    1       13.769242900000      15.140685640000       1.839626050000
        97    2       11.121972920000      14.169704620000       4.805114500000
        98    2       13.635906530000       9.815529620000       4.805114500000
        99    2       12.334217740000      11.255368210000       2.965488450000
       100    2       14.848151350000      15.609543210000       2.965488450000
       101    2       11.738125730000       9.408327170000       1.125862400000
       102    2       14.252059340000      13.762502170000       1.125862400000
       103    2       11.121972920000      11.955345380000       0.713763650000
       104    2       13.635906530000      16.309520380000       0.713763650000
       105    2       12.334217740000      14.869681790000       2.553389700000
       106    2       14.848151350000      10.515506790000       2.553389700000
       107    2       11.738125730000      16.716896990000       4.393015740000
       108    2       14.252059340000      12.362721990000       4.393015740000
       109    1        0.114180580000       4.354175000000       5.518878140000
       110    1        2.628114190000      17.416700000000       5.518878140000
       111    1        1.199876520000       6.630189360000       9.198295810000
       112    1        3.713810130000       2.276014360000       9.198295810000
       113    1        1.199876520000       2.078160640000       7.358504190000
       114    1        3.713810130000       6.432335640000       7.358504190000
       115    2        1.066389310000       5.461354620000      10.324158210000
       116    2        3.580322920000       1.107179620000      10.324158210000
       117    2        2.278634130000       2.547018210000       8.484366590000
       118    2        4.792567740000       6.901193210000       8.484366590000
       119    2        1.682692950000       0.699977170000       6.644740540000
       120    2        4.196475730000       5.054152170000       6.644740540000
       121    2        1.066389310000       3.246995380000       6.232641790000
       122    2        3.580322920000       7.601170380000       6.232641790000
       123    2        2.278634130000       6.161331790000       8.072433410000
       124    2        4.792567740000       1.807156790000       8.072433410000
       125    2        1.682692950000       8.008546990000       9.912059460000
       126    2        4.196475730000       3.654371990000       9.912059460000
       127    1        5.141896970000       4.354175000000       5.518878140000
       128    1        7.655830580000      17.416700000000       5.518878140000
       129    1        6.227592900000       6.630189360000       9.198295810000
       130    1        8.741526520000       2.276014360000       9.198295810000
       131    1        6.227592900000       2.078160640000       7.358504190000
       132    1        8.741526520000       6.432335640000       7.358504190000
       133    2        6.094256530000       5.461354620000      10.324158210000
       134    2        8.608039310000       1.107179620000      10.324158210000
       135    2        7.306501350000       2.547018210000       8.484366590000
       136    2        9.820284130000       6.901193210000       8.484366590000
       137    2        6.710409340000       0.699977170000       6.644740540000
       138    2        9.224342950000       5.054152170000       6.644740540000
       139    2        6.094256530000       3.246995380000       6.232641790000
       140    2        8.608039310000       7.601170380000       6.232641790000
       141    2        7.306501350000       6.161331790000       8.072433410000
       142    2        9.820284130000       1.807156790000       8.072433410000
       143    2        6.710409340000       8.008546990000       9.912059460000
       144    2        9.224342950000       3.654371990000       9.912059460000
       145    1       10.169764190000       4.354175000000       5.518878140000
       146    1       12.683546970000      17.416700000000       5.518878140000
       147    1       11.255460130000       6.630189360000       9.198295810000
       148    1       13.769242900000       2.276014360000       9.198295810000
       149    1       11.255460130000       2.078160640000       7.358504190000
       150    1       13.769242900000       6.432335640000       7.358504190000
       151    2       11.121972920000       5.461354620000      10.324158210000
       152    2       13.635906530000       1.107179620000      10.324158210000
       153    2       12.334217740000       2.547018210000       8.484366590000
       154    2       14.848151350000       6.901193210000       8.484366590000
       155    2       11.738125730000       0.699977170000       6.644740540000
       156    2       14.252059340000       5.054152170000       6.644740540000
       157    2       11.121972920000       3.246995380000       6.232641790000
       158    2       13.635906530000       7.601170380000       6.232641790000
       159    2       12.334217740000       6.161331790000       8.072433410000
       160    2       14.848151350000       1.807156790000       8.072433410000
       161    2       11.738125730000       8.008546990000       9.912059460000
       162    2       14.252059340000       3.654371990000       9.912059460000
       163    1        0.114180580000      13.062525000000       5.518878140000
       164    1        2.628114190000       8.708350000000       5.518878140000
       165    1        1.199876520000      15.338539360000       9.198295810000
       166    1        3.713810130000      10.984364360000       9.198295810000
       167    1        1.199876520000      10.786510640000       7.358504190000
       168    1        3.713810130000      15.140685640000       7.358504190000
       169    2        1.066389310000      14.169704620000      10.324158210000
       170    2        3.580322920000       9.815529620000      10.324158210000
       171    2        2.278634130000      11.255368210000       8.484366590000
       172    2        4.792567740000      15.609543210000       8.484366590000
       173    2        1.682692950000       9.408327170000       6.644740540000
       174    2        4.196475730000      13.762502170000       6.644740540000
       175    2        1.066389310000      11.955345380000       6.232641790000
       176    2        3.580322920000      16.309520380000       6.232641790000
       177    2        2.278634130000      14.869681790000       8.072433410000
       178    2        4.792567740000      10.515506790000       8.072433410000
       179    2        1.682692950000      16.716896990000       9.912059460000
       180    2        4.196475730000      12.362721990000       9.912059460000
       181    1        5.141896970000      13.062525000000       5.518878140000
       182    1        7.655830580000       8.708350000000       5.518878140000
       183    1        6.227592900000      15.338539360000       9.198295810000
       184    1        8.741526520000      10.984364360000       9.198295810000
       185    1        6.227592900000      10.786510640000       7.358504190000
       186    1        8.741526510000      15.140685640000       7.358504190000
       187    2        6.094256530000      14.169704620000      10.324158210000
       188    2        8.608039310000       9.815529620000      10.324158210000
       189    2        7.306501350000      11.255368210000       8.484366590000
       190    2        9.820284130000      15.609543210000       8.484366590000
       191    2        6.710409340000       9.408327170000       6.644740540000
       192    2        9.224342950000      13.762502170000       6.644740540000
       193    2        6.094256530000      11.955345380000       6.232641790000
       194    2        8.608039310000      16.309520380000       6.232641790000
       195    2        7.306501350000      14.869681790000       8.072433410000
       196    2        9.820284130000      10.515506790000       8.072433410000
       197    2        6.710409340000      16.716896990000       9.912059460000
       198    2        9.224342950000      12.362721990000       9.912059460000
       199    1       10.169764190000      13.062525000000       5.518878140000
       200    1       12.683546970000       8.708350000000       5.518878140000
       201    1       11.255460130000      15.338539360000       9.198295810000
       202    1       13.769242900000      10.984364360000       9.198295810000
       203    1       11.255460130000      10.786510640000       7.358504190000
       204    1       13.769242900000      15.140685640000       7.358504190000
       205    2       11.121972920000      14.169704620000      10.324158210000
       206    2       13.635906530000       9.815529620000      10.324158210000
       207    2       12.334217740000      11.255368210000       8.484366590000
       208    2       14.848151350000      15.609543210000       8.484366590000
       209    2       11.738125730000       9.408327170000       6.644740540000
       210    2       14.252059340000      13.762502170000       6.644740540000
       211    2       11.121972920000      11.955345380000       6.232641790000
       212    2       13.635906530000      16.309520380000       6.232641790000
       213    2       12.334217740000      14.869681790000       8.072433410000
       214    2       14.848151350000      10.515506790000       8.072433410000
       215    2       11.738125730000      16.716896990000       9.912059460000
       216    2       14.252059340000      12.362721990000       9.912059460000
       217    1        0.114180580000       4.354175000000      11.037921860000
       218    1        2.628114190000      17.416700000000      11.037921860000
       219    1        1.199876520000       6.630189360000      14.717173950000
       220    1        3.713810130000       2.276014360000      14.717173950000
       221    1        1.199876520000       2.078160640000      12.877547900000
       222    1        3.713810130000       6.432335640000      12.877547900000
       223    2        1.066389310000       5.461354620000      15.843036350000
       224    2        3.580322920000       1.107179620000      15.843036350000
       225    2        2.278634130000       2.547018210000      14.003410300000
       226    2        4.792567740000       6.901193210000      14.003410300000
       227    2        1.682692950000       0.699977170000      12.163784260000
       228    2        4.196475730000       5.054152170000      12.163784260000
       229    2        1.066389310000       3.246995380000      11.751685500000
       230    2        3.580322920000       7.601170380000      11.751685500000
       231    2        2.278634130000       6.161331790000      13.591311550000
       232    2        4.792567740000       1.807156790000      13.591311550000
       233    2        1.682692950000       8.008546990000      15.430937600000
       234    2        4.196475730000       3.654371990000      15.430937600000
       235    1        5.141896970000       4.354175000000      11.037921860000
       236    1        7.655830580000      17.416700000000      11.037921860000
       237    1        6.227592900000       6.630189360000      14.717173950000
       238    1        8.741526510000       2.276014360000      14.717173950000
       239    1        6.227592900000       2.078160640000      12.877547900000
       240    1        8.741526520000       6.432335640000      12.877547900000
       241    2        6.094256530000       5.461354620000      15.843036350000
       242    2        8.608039310000       1.107179620000      15.843036350000
       243    2        7.306501350000       2.547018210000      14.003410300000
       244    2        9.820284130000       6.901193210000      14.003410300000
       245    2        6.710409340000       0.699977170000      12.163784260000
       246    2        9.224342950000       5.054152170000      12.163784260000
       247    2        6.094256530000       3.246995380000      11.751685500000
       248    2        8.608039310000       7.601170380000      11.751685500000
       249    2        7.306501350000       6.161331790000      13.591311550000
       250    2        9.820284130000       1.807156790000      13.591311550000
       251    2        6.710409340000       8.008546990000      15.430937600000
       252    2        9.224342950000       3.654371990000      15.430937600000
       253    1       10.169764190000       4.354175000000      11.037921860000
       254    1       12.683546970000      17.416700000000      11.037921860000
       255    1       11.255460130000       6.630189360000      14.717173950000
       256    1       13.769242900000       2.276014360000      14.717173950000
       257    1       11.255460130000       2.078160640000      12.877547900000
       258    1       13.769242900000       6.432335640000      12.877547900000
       259    2       11.121972920000       5.461354620000      15.843036350000
       260    2       13.635906530000       1.107179620000      15.843036350000
       261    2       12.334217740000       2.547018210000      14.003410300000
       262    2       14.848151350000       6.901193210000      14.003410300000
       263    2       11.738125730000       0.699977170000      12.163784260000
       264    2       14.252059340000       5.054152170000      12.163784260000
       265    2       11.121972920000       3.246995380000      11.751685500000
       266    2       13.635906530000       7.601170380000      11.751685500000
       267    2       12.334217740000       6.161331790000      13.591311550000
       268    2       14.848151350000       1.807156790000      13.591311550000
       269    2       11.738125730000       8.008546990000      15.430937600000
       270    2       14.252059340000       3.654371990000      15.430937600000
       271    1        0.114180580000      13.062525000000      11.037921860000
       272    1        2.628114190000       8.708350000000      11.037921860000
       273    1        1.199876520000      15.338539360000      14.717173950000
       274    1        3.713810130000      10.984364360000      14.717173950000
       275    1        1.199876520000      10.786510640000      12.877547900000
       276    1        3.713810130000      15.140685640000      12.877547900000
       277    2        1.066389310000      14.169704620000      15.843036350000
       278    2        3.580322920000       9.815529620000      15.843036350000
       279    2        2.278634130000      11.255368210000      14.003410300000
       280    2        4.792567740000      15.609543210000      14.003410300000
       281    2        1.682692950000       9.408327170000      12.163784260000
       282    2        4.196475730000      13.762502170000      12.163784260000
       283    2        1.066389310000      11.955345380000      11.751685500000
       284    2        3.580322920000      16.309520380000      11.751685500000
       285    2        2.278634130000      14.869681790000      13.591311550000
       286    2        4.792567740000      10.515506790000      13.591311550000
       287    2        1.682692950000      16.716896990000      15.430937600000
       288    2        4.196475730000      12.362721990000      15.430937600000
       289    1        5.141896970000      13.062525000000      11.037921860000
       290    1        7.655830580000       8.708350000000      11.037921860000
       291    1        6.227592900000      15.338539360000      14.717173950000
       292    1        8.741526510000      10.984364360000      14.717173950000
       293    1        6.227592900000      10.786510640000      12.877547900000
       294    1        8.741526510000      15.140685640000      12.877547900000
       295    2        6.094256530000      14.169704620000      15.843036350000
       296    2        8.608039310000       9.815529620000      15.843036350000
       297    2        7.306501350000      11.255368210000      14.003410300000
       298    2        9.820284130000      15.609543210000      14.003410300000
       299    2        6.710409340000       9.408327170000      12.163784260000
       300    2        9.224342950000      13.762502170000      12.163784260000
       301    2        6.094256530000      11.955345380000      11.751685500000
       302    2        8.608039310000      16.309520380000      11.751685500000
       303    2        7.306501350000      14.869681790000      13.591311550000
       304    2        9.820284130000      10.515506790000      13.591311550000
       305    2        6.710409340000      16.716896990000      15.430937600000
       306    2        9.224342950000      12.362721990000      15.430937600000
       307    1       10.169764190000      13.062525000000      11.037921860000
       308    1       12.683546970000       8.708350000000      11.037921860000
       309    1       11.255460130000      15.338539360000      14.717173950000
       310    1       13.769242900000      10.984364360000      14.717173950000
       311    1       11.255460130000      10.786510640000      12.877547900000
       312    1       13.769242900000      15.140685640000      12.877547900000
       313    2       11.121972920000      14.169704620000      15.843036350000
       314    2       13.635906530000       9.815529620000      15.843036350000
       315    2       12.334217740000      11.255368210000      14.003410300000
       316    2       14.848151350000      15.609543210000      14.003410300000
       317    2       11.738125730000       9.408327170000      12.163784260000
       318    2       14.252059340000      13.762502170000      12.163784260000
       319    2       11.121972920000      11.955345380000      11.751685500000
       320    2       13.635906530000      16.309520380000      11.751685500000
       321    2       12.334217740000      14.869681790000      13.591311550000
       322    2       14.848151350000      10.515506790000      13.591311550000
       323    2       11.738125730000      16.716896990000      15.430937600000
       324    2       14.252059340000      12.362721990000      15.430937600000
