Atoms  # charge
 
         240  atoms
           2  atom types
 
      0.000000000000      19.623000000000  xlo xhi
      0.000000000000      16.948000000000  ylo yhi
      -20.0      40.000000000000  zlo zhi
 
Masses
 
            1   28.08500000             # Si
            2   15.99900000             # O
 
Atoms  # charge
 
1	1	0.0	2.179417321700	0.667236515000	5.716107125000
2	1	0.0	4.655240656700	4.872077805000	5.771841551700
3	2	0.0	2.765919863300	1.338150425000	4.353180403300
4	2	0.0	0.308458576700	5.505634721700	4.355521308300
5	2	0.0	2.456199468300	3.498578318300	2.891002098300
6	2	0.0	0.002513970000	7.680319958300	2.900549758300
7	2	0.0	3.757489851700	3.605806828300	5.273119018300
8	2	0.0	1.305743233300	7.774175121700	5.281087123300
9	2	0.0	0.645688200000	3.915979400000	1.121044700000
10	2	0.0	3.067288630000	8.214126140000	1.181554390000
11	2	0.0	0.002983033300	2.398454488300	3.197501768300
12	2	0.0	2.452552485000	6.625718966700	3.206401998300
13	1	0.0	1.145501960000	2.850552470000	2.082441270000
14	1	0.0	3.569546500000	7.111906710000	2.099222340000
15	1	0.0	3.490582106700	2.741474968300	3.925339685000
16	1	0.0	1.027879853300	6.909984210000	3.939010650000
17	1	0.0	7.101534806700	0.641485331700	5.771026986700
18	1	0.0	9.572699708300	4.918603441700	5.734701155000
19	2	0.0	7.665973485000	1.352639286700	4.418923158300
20	2	0.0	5.218882270000	5.586081550000	4.422034081700
21	2	0.0	7.403326526700	3.460544578300	2.848780178300
22	2	0.0	4.909822095000	7.687913353300	2.911155168300
23	2	0.0	8.648586938300	3.657239975000	5.263979716700
24	2	0.0	6.284735155000	7.832017195000	5.338838315000
25	2	0.0	5.555286910000	3.912229380000	1.121105260000
26	2	0.0	7.977275710000	8.087783610000	1.114227870000
27	2	0.0	4.915297485000	2.415451895000	3.200916826700
28	2	0.0	7.359199260000	6.680696931700	3.215551293300
29	1	0.0	6.059649390000	2.846168650000	2.079001620000
30	1	0.0	8.485661930000	7.039657100000	2.088867820000
31	1	0.0	8.402979183300	2.734044198300	3.950144551700
32	1	0.0	5.951777335000	6.986559198300	3.989878183300
33	1	0.0	2.212923145000	9.045851495000	5.754197630000
34	1	0.0	4.650113555000	13.323257295000	5.713420345000
35	2	0.0	2.823013811700	9.727848453300	4.405849515000
36	2	0.0	0.299258088300	14.058312120000	4.354782566700
37	2	0.0	2.520649981700	11.850796738300	2.842477921700
38	2	0.0	0.009733420000	16.196614100000	2.840777570000
39	2	0.0	3.747446755000	12.036576883300	5.269446111700
40	2	0.0	1.298014881700	16.324243445000	5.262798235000
41	2	0.0	0.648950600000	12.384864450000	1.116469810000
42	2	0.0	3.072984360000	16.686343300000	1.121448380000
43	2	0.0	0.051765921700	10.956892868300	3.263896550000
44	2	0.0	2.452503940000	15.143996188300	3.194907853300
45	1	0.0	1.151362550000	11.319826470000	2.076669500000
46	1	0.0	3.575494050000	15.605686240000	2.065491320000
47	1	0.0	3.514397833300	11.131831435000	3.942909018300
48	1	0.0	1.027033048300	15.452614890000	3.920694155000
49	1	0.0	7.215102528300	9.096919180000	5.871643315000
50	1	0.0	9.591410328300	13.260872351700	5.871002505000
51	2	0.0	7.737718420000	9.787079175000	4.482251723300
52	2	0.0	5.213719545000	14.020716938300	4.354983688300
53	2	0.0	7.417620106700	11.840215823300	2.839381268300
54	2	0.0	4.900903366700	16.189435586700	2.893709655000
55	2	0.0	8.554860520000	12.187420625000	5.227204018300
56	2	0.0	6.201964946700	16.324948558300	5.274151348300
57	2	0.0	5.498235210000	12.387180360000	1.118918470000
58	2	0.0	7.974426330000	16.688114260000	1.180008350000
59	2	0.0	4.952943431700	10.863869135000	3.211524878300
60	2	0.0	7.348063260000	15.129754623300	3.208379458300
61	1	0.0	6.039817280000	11.344696660000	2.082940640000
62	1	0.0	8.476972010000	15.590290490000	2.102768020000
63	1	0.0	8.434806045000	11.174457096700	3.981538538300
64	1	0.0	5.925989413300	15.438115061700	3.942681396700
65	2	0.0	1.184158190000	1.585780275000	6.632517868300
66	2	0.0	3.693396165000	5.800070983300	6.712639001700
67	2	0.0	2.997388970000	15.685493950000	8.816894846700
68	2	0.0	0.488614408300	2.976922980000	8.787462948300
69	2	0.0	2.557550063300	1.334630080000	8.925343701700
70	2	0.0	0.152729020000	5.568051176700	8.928525068300
71	2	0.0	1.019758378300	4.437665505000	6.658351625000
72	2	0.0	3.458302675000	8.600678190000	6.707392376700
73	2	0.0	0.096117640000	0.368741045000	8.767132005000
74	2	0.0	2.615913948300	4.577287516700	8.820297915000
75	1	0.0	1.080050038300	1.564774160000	8.278303166700
76	1	0.0	3.603179000000	5.787634255000	8.360919838300
77	1	0.0	3.527433820000	0.186138781700	8.298306848300
78	1	0.0	1.095025230000	4.401551981700	8.301949100000
79	2	0.0	6.152482631700	1.588900618300	6.702690476700
80	2	0.0	8.657813066700	5.911216768300	6.659455790000
81	2	0.0	7.962261651700	15.645649283300	8.910395703300
82	2	0.0	5.509043428300	2.987467231700	8.877735905000
83	2	0.0	7.521542808300	1.282201651700	9.000834190000
84	2	0.0	5.084565338300	5.557238245000	8.996357333300
85	2	0.0	5.917898786700	4.434505556700	6.705322035000
86	2	0.0	8.427931246700	8.715103113300	6.890944276700
87	2	0.0	5.058122410000	0.369031321700	8.779966223300
88	2	0.0	7.591814928300	4.635119211700	8.779822071700
89	1	0.0	6.062937001700	1.569318756700	8.346522261700
90	1	0.0	8.544744850000	5.891496696700	8.318262381700
91	1	0.0	8.469859435000	0.130051848300	8.350979360000
92	1	0.0	6.051905478300	4.419757981700	8.343735525000
93	2	0.0	1.238108780000	10.017716218300	6.638966318300
94	2	0.0	3.694192815000	14.311498911700	6.601357955000
95	2	0.0	3.004432808300	7.188954011700	8.904140321700
96	2	0.0	0.493793756700	11.431828183300	8.781818256700
97	2	0.0	2.555825241700	9.776654783300	8.929693440000
98	2	0.0	0.110603356700	14.000645445000	8.932925096700
99	2	0.0	1.006166030000	12.930471630000	6.633271773300
100	2	0.0	3.453959420000	0.274215081700	6.655887153300
101	2	0.0	0.090609860000	8.813114600000	8.758413895000
102	2	0.0	2.613209906700	13.071904330000	8.716114718300
103	1	0.0	1.082686183300	10.010542220000	8.281704958300
104	1	0.0	3.587557278300	14.290774965000	8.249826146700
105	1	0.0	3.542957256700	8.620963783300	8.351665245000
106	1	0.0	1.072788108300	12.864676843300	8.275415326700
107	2	0.0	6.195024671700	10.068946686700	6.716214853300
108	2	0.0	8.662847463300	14.317521773300	6.714450645000
109	2	0.0	7.949760296700	7.259501540000	8.913482318300
110	2	0.0	5.386396845000	11.456320588300	8.831325855000
111	2	0.0	7.502274840000	9.889048586700	9.055439036700
112	2	0.0	5.072103018300	14.057594108300	8.873204378300
113	2	0.0	5.912741738300	12.885019165000	6.642761181700
114	2	0.0	8.356870235000	0.203185790000	6.711695946700
115	2	0.0	5.065001548300	8.851474041700	8.835747388300
116	2	0.0	7.526745720000	13.027568223300	8.772880295000
117	1	0.0	6.051052185000	10.056503636700	8.357735755000
118	1	0.0	8.546162810000	14.235233621700	8.363523331700
119	1	0.0	8.562856395000	8.748871103300	8.556522076700
120	1	0.0	6.000305141700	12.860087890000	8.287557898300
121	1	0.0	11.988193816700	0.657733691700	5.770882251700
122	1	0.0	14.450665616700	4.885367445000	5.792051596700
123	2	0.0	12.582126560000	1.339251256700	4.413794995000
124	2	0.0	10.146798971700	5.558017726700	4.348783785000
125	2	0.0	12.265753401700	3.466057470000	2.903091346700
126	2	0.0	9.878126963300	7.623000416700	2.781540395000
127	2	0.0	13.550728200000	3.607340255000	5.326602308300
128	2	0.0	11.154980551700	7.803363993300	5.284983123300
129	2	0.0	10.399484370000	3.908684400000	1.183545980000
130	2	0.0	12.881593440000	8.089399080000	1.117229020000
131	2	0.0	9.811237528300	2.347974783300	3.216706266700
132	2	0.0	12.324337600000	6.607772961700	3.247852106700
133	1	0.0	10.940972370000	2.828100180000	2.106481370000
134	1	0.0	13.389873930000	7.040946930000	2.091690840000
135	1	0.0	13.297064876700	2.740617321700	3.969397080000
136	1	0.0	10.874711265000	6.967222343300	3.942601953300
137	1	0.0	16.844692680000	0.659732785000	5.719108861700
138	1	0.0	19.362485166700	4.837352153300	5.729688405000
139	2	0.0	17.421354125000	1.336391861700	4.348602415000
140	2	0.0	15.032275531700	5.506191210000	4.400062761700
141	2	0.0	17.189432231700	3.475104085000	2.851124488300
142	2	0.0	14.792726283300	7.561060305000	2.767320091700
143	2	0.0	18.472500323300	3.550986131700	5.273205408300
144	2	0.0	15.950224330000	7.837647466700	5.205232501700
145	2	0.0	15.309345310000	3.913183390000	1.125859710000
146	2	0.0	17.773654790000	8.157774600000	1.174896300000
147	2	0.0	14.719635460000	2.437705136700	3.216146396700
148	2	0.0	17.211931840000	6.568734143300	3.248210186700
149	1	0.0	15.851485120000	2.865135160000	2.084450870000
150	1	0.0	18.287559590000	7.084232460000	2.118716080000
151	1	0.0	18.199120715000	2.709442371700	3.912857128300
152	1	0.0	15.756165168300	6.878996568300	3.922803416700
153	1	0.0	11.820231871700	9.269953231700	5.809018136700
154	1	0.0	14.365462100000	13.378646875000	5.703925183300
155	2	0.0	12.677391265000	9.726098708300	4.417888913300
156	2	0.0	10.307389391700	13.941320511700	4.550844308300
157	2	0.0	12.332695103300	11.845601808300	2.771828121700
158	2	0.0	9.811511236700	16.073836500000	2.957306203300
159	2	0.0	13.498509190000	12.113540256700	5.200809976700
160	2	0.0	11.062819710000	16.338302328300	5.326907690000
161	2	0.0	10.402463030000	12.386117670000	1.120457770000
162	2	0.0	12.822894270000	16.626982330000	1.123759470000
163	2	0.0	9.862297498300	10.901604540000	3.224319228300
164	2	0.0	12.289113988300	15.140653720000	3.259388700000
165	1	0.0	10.938311670000	11.321544650000	2.063552140000
166	1	0.0	13.367133450000	15.583027240000	2.085088740000
167	1	0.0	13.309449416700	11.134209620000	3.921691530000
168	1	0.0	10.860330876700	15.378404973300	4.029748453300
169	1	0.0	16.855865255000	9.097959906700	5.699085008300
170	1	0.0	19.351149196700	13.355211843300	5.709702996700
171	2	0.0	17.490602948300	9.783049605000	4.360079971700
172	2	0.0	14.956025603300	14.082489995000	4.353393835000
173	2	0.0	17.197745950000	11.903227020000	2.834276183300
174	2	0.0	14.722981611700	16.190077153300	2.827277063300
175	2	0.0	18.409306273300	12.099734515000	5.261549083300
176	2	0.0	15.938917738300	16.335274410000	5.262054136700
177	2	0.0	15.308209340000	12.385700750000	1.120075090000
178	2	0.0	17.728983670000	16.687237630000	1.181928880000
179	2	0.0	14.765166173300	10.860976248300	3.208917405000
180	2	0.0	17.161748243300	15.144056516700	3.228856095000
181	1	0.0	15.847279170000	11.319542570000	2.059646870000
182	1	0.0	18.267291380000	15.607778280000	2.107478710000
183	1	0.0	18.202272380000	11.190437570000	3.930656120000
184	1	0.0	15.712026808300	15.451828530000	3.922100466700
185	2	0.0	11.059004683300	1.640452400000	6.694383171700
186	2	0.0	13.565052515000	5.915381998300	6.700970283300
187	2	0.0	12.745110071700	15.667745803300	8.856331483300
188	2	0.0	10.364004360000	3.006762020000	8.855596176700
189	2	0.0	12.439308628300	1.357140565000	8.988655078300
190	2	0.0	10.036207256700	5.616645046700	8.929043190000
191	2	0.0	10.825172118300	4.436927380000	6.657618616700
192	2	0.0	12.948273241700	8.869699398300	6.958530490000
193	2	0.0	10.007613176700	0.365994118300	8.780071946700
194	2	0.0	12.489327225000	4.585678821700	8.728315826700
195	1	0.0	10.961470636700	1.601054588300	8.339035711700
196	1	0.0	13.418027445000	5.870741941700	8.350649340000
197	1	0.0	13.328112060000	0.145596796700	8.343628136700
198	1	0.0	10.941837723300	4.425446288300	8.298531740000
199	2	0.0	15.889186856700	1.605276871700	6.644036701700
200	2	0.0	18.409779656700	5.800469973300	6.645093398300
201	2	0.0	17.654069273300	15.651596955000	8.794541143300
202	2	0.0	15.203592428300	2.944244861700	8.857758288300
203	2	0.0	17.269707916700	1.329075038300	8.934514956700
204	2	0.0	14.886329723300	5.563808286700	8.994597583300
205	2	0.0	15.717692168300	4.429639485000	6.711152061700
206	2	0.0	18.105718036700	8.650141613300	6.642222783300
207	2	0.0	14.882317391700	0.300834786700	8.766676108300
208	2	0.0	17.345243653300	4.531690041700	8.773987995000
209	1	0.0	15.794752953300	1.553878760000	8.292391830000
210	1	0.0	18.285904315000	5.769554778300	8.292187580000
211	1	0.0	18.191457833300	0.152235746700	8.294511805000
212	1	0.0	15.789117593300	4.376870755000	8.353732388300
213	2	0.0	10.702970821700	10.206005691700	6.361347858300
214	2	0.0	13.396088525000	14.307443080000	6.644559323300
215	2	0.0	12.749706231700	7.196448993300	8.959540876700
216	2	0.0	10.430386401700	11.431105113300	9.502142010000
217	2	0.0	12.390468126700	9.710416923300	9.626173936700
218	2	0.0	9.969640423300	13.946534011700	9.074081668300
219	2	0.0	10.654401798300	12.705566051700	6.940063131700
220	2	0.0	13.254576293300	0.213244028300	6.701098168300
221	2	0.0	9.926939570000	8.924670396700	9.380747276700
222	2	0.0	12.443696438300	12.973716800000	8.775408761700
223	1	0.0	10.886258053300	10.022917043300	10.125033323300
224	1	0.0	13.305791020000	14.248899360000	8.296395661700
225	1	0.0	13.130527418300	8.739295515000	8.569970370000
226	1	0.0	10.864349243300	12.662041863300	8.570080983300
227	2	0.0	15.872170330000	10.021718166700	6.606612608300
228	2	0.0	18.418761460000	14.313230451700	6.643574743300
229	2	0.0	17.646678960000	7.164641931700	8.791634838300
230	2	0.0	15.142452825000	11.444724406700	8.729749515000
231	2	0.0	17.218904946700	9.786774031700	8.872194445000
232	2	0.0	14.819931723300	14.061747185000	8.875246276700
233	2	0.0	15.661614483300	12.936050120000	6.594205076700
234	2	0.0	18.102753573300	0.213080980000	6.653312568300
235	2	0.0	14.753646616700	8.859555236700	8.821215473300
236	2	0.0	17.281637105000	13.014300011700	8.694518226700
237	1	0.0	15.719113000000	10.012764086700	8.255705343300
238	1	0.0	18.260113591700	14.244494220000	8.280805203300
239	1	0.0	18.173499081700	8.618333280000	8.282826840000
240	1	0.0	15.729984250000	12.871806003300	8.236815915000
