240
Lattice="19.6230000000 0.0000000000 0.0000000000 0.0000000000 16.9480000000 0.0000000000 0.0000000000 0.0000000000 22.0000000000" Properties=species:S:1:pos:R:3 pbc="T T T"
Si       2.1794173217    0.6672365150    5.7161071250
Si       4.6552406567    4.8720778050    5.7718415517
O        2.7659198633    1.3381504250    4.3531804033
O        0.3084585767    5.5056347217    4.3555213083
O        2.4561994683    3.4985783183    2.8910020983
O        0.0025139700    7.6803199583    2.9005497583
O        3.7574898517    3.6058068283    5.2731190183
O        1.3057432333    7.7741751217    5.2810871233
O        0.6456882000    3.9159794000    1.1210447000
O        3.0672886300    8.2141261400    1.1815543900
O        0.0029830333    2.3984544883    3.1975017683
O        2.4525524850    6.6257189667    3.2064019983
Si       1.1455019600    2.8505524700    2.0824412700
Si       3.5695465000    7.1119067100    2.0992223400
Si       3.4905821067    2.7414749683    3.9253396850
Si       1.0278798533    6.9099842100    3.9390106500
Si       7.1015348067    0.6414853317    5.7710269867
Si       9.5726997083    4.9186034417    5.7347011550
O        7.6659734850    1.3526392867    4.4189231583
O        5.2188822700    5.5860815500    4.4220340817
O        7.4033265267    3.4605445783    2.8487801783
O        4.9098220950    7.6879133533    2.9111551683
O        8.6485869383    3.6572399750    5.2639797167
O        6.2847351550    7.8320171950    5.3388383150
O        5.5552869100    3.9122293800    1.1211052600
O        7.9772757100    8.0877836100    1.1142278700
O        4.9152974850    2.4154518950    3.2009168267
O        7.3591992600    6.6806969317    3.2155512933
Si       6.0596493900    2.8461686500    2.0790016200
Si       8.4856619300    7.0396571000    2.0888678200
Si       8.4029791833    2.7340441983    3.9501445517
Si       5.9517773350    6.9865591983    3.9898781833
Si       2.2129231450    9.0458514950    5.7541976300
Si       4.6501135550   13.3232572950    5.7134203450
O        2.8230138117    9.7278484533    4.4058495150
O        0.2992580883   14.0583121200    4.3547825667
O        2.5206499817   11.8507967383    2.8424779217
O        0.0097334200   16.1966141000    2.8407775700
O        3.7474467550   12.0365768833    5.2694461117
O        1.2980148817   16.3242434450    5.2627982350
O        0.6489506000   12.3848644500    1.1164698100
O        3.0729843600   16.6863433000    1.1214483800
O        0.0517659217   10.9568928683    3.2638965500
O        2.4525039400   15.1439961883    3.1949078533
Si       1.1513625500   11.3198264700    2.0766695000
Si       3.5754940500   15.6056862400    2.0654913200
Si       3.5143978333   11.1318314350    3.9429090183
Si       1.0270330483   15.4526148900    3.9206941550
Si       7.2151025283    9.0969191800    5.8716433150
Si       9.5914103283   13.2608723517    5.8710025050
O        7.7377184200    9.7870791750    4.4822517233
O        5.2137195450   14.0207169383    4.3549836883
O        7.4176201067   11.8402158233    2.8393812683
O        4.9009033667   16.1894355867    2.8937096550
O        8.5548605200   12.1874206250    5.2272040183
O        6.2019649467   16.3249485583    5.2741513483
O        5.4982352100   12.3871803600    1.1189184700
O        7.9744263300   16.6881142600    1.1800083500
O        4.9529434317   10.8638691350    3.2115248783
O        7.3480632600   15.1297546233    3.2083794583
Si       6.0398172800   11.3446966600    2.0829406400
Si       8.4769720100   15.5902904900    2.1027680200
Si       8.4348060450   11.1744570967    3.9815385383
Si       5.9259894133   15.4381150617    3.9426813967
O        1.1841581900    1.5857802750    6.6325178683
O        3.6933961650    5.8000709833    6.7126390017
O        2.9973889700   15.6854939500    8.8168948467
O        0.4886144083    2.9769229800    8.7874629483
O        2.5575500633    1.3346300800    8.9253437017
O        0.1527290200    5.5680511767    8.9285250683
O        1.0197583783    4.4376655050    6.6583516250
O        3.4583026750    8.6006781900    6.7073923767
O        0.0961176400    0.3687410450    8.7671320050
O        2.6159139483    4.5772875167    8.8202979150
Si       1.0800500383    1.5647741600    8.2783031667
Si       3.6031790000    5.7876342550    8.3609198383
Si       3.5274338200    0.1861387817    8.2983068483
Si       1.0950252300    4.4015519817    8.3019491000
O        6.1524826317    1.5889006183    6.7026904767
O        8.6578130667    5.9112167683    6.6594557900
O        7.9622616517   15.6456492833    8.9103957033
O        5.5090434283    2.9874672317    8.8777359050
O        7.5215428083    1.2822016517    9.0008341900
O        5.0845653383    5.5572382450    8.9963573333
O        5.9178987867    4.4345055567    6.7053220350
O        8.4279312467    8.7151031133    6.8909442767
O        5.0581224100    0.3690313217    8.7799662233
O        7.5918149283    4.6351192117    8.7798220717
Si       6.0629370017    1.5693187567    8.3465222617
Si       8.5447448500    5.8914966967    8.3182623817
Si       8.4698594350    0.1300518483    8.3509793600
Si       6.0519054783    4.4197579817    8.3437355250
O        1.2381087800   10.0177162183    6.6389663183
O        3.6941928150   14.3114989117    6.6013579550
O        3.0044328083    7.1889540117    8.9041403217
O        0.4937937567   11.4318281833    8.7818182567
O        2.5558252417    9.7766547833    8.9296934400
O        0.1106033567   14.0006454450    8.9329250967
O        1.0061660300   12.9304716300    6.6332717733
O        3.4539594200    0.2742150817    6.6558871533
O        0.0906098600    8.8131146000    8.7584138950
O        2.6132099067   13.0719043300    8.7161147183
Si       1.0826861833   10.0105422200    8.2817049583
Si       3.5875572783   14.2907749650    8.2498261467
Si       3.5429572567    8.6209637833    8.3516652450
Si       1.0727881083   12.8646768433    8.2754153267
O        6.1950246717   10.0689466867    6.7162148533
O        8.6628474633   14.3175217733    6.7144506450
O        7.9497602967    7.2595015400    8.9134823183
O        5.3863968450   11.4563205883    8.8313258550
O        7.5022748400    9.8890485867    9.0554390367
O        5.0721030183   14.0575941083    8.8732043783
O        5.9127417383   12.8850191650    6.6427611817
O        8.3568702350    0.2031857900    6.7116959467
O        5.0650015483    8.8514740417    8.8357473883
O        7.5267457200   13.0275682233    8.7728802950
Si       6.0510521850   10.0565036367    8.3577357550
Si       8.5461628100   14.2352336217    8.3635233317
Si       8.5628563950    8.7488711033    8.5565220767
Si       6.0003051417   12.8600878900    8.2875578983
Si      11.9881938167    0.6577336917    5.7708822517
Si      14.4506656167    4.8853674450    5.7920515967
O       12.5821265600    1.3392512567    4.4137949950
O       10.1467989717    5.5580177267    4.3487837850
O       12.2657534017    3.4660574700    2.9030913467
O        9.8781269633    7.6230004167    2.7815403950
O       13.5507282000    3.6073402550    5.3266023083
O       11.1549805517    7.8033639933    5.2849831233
O       10.3994843700    3.9086844000    1.1835459800
O       12.8815934400    8.0893990800    1.1172290200
O        9.8112375283    2.3479747833    3.2167062667
O       12.3243376000    6.6077729617    3.2478521067
Si      10.9409723700    2.8281001800    2.1064813700
Si      13.3898739300    7.0409469300    2.0916908400
Si      13.2970648767    2.7406173217    3.9693970800
Si      10.8747112650    6.9672223433    3.9426019533
Si      16.8446926800    0.6597327850    5.7191088617
Si      19.3624851667    4.8373521533    5.7296884050
O       17.4213541250    1.3363918617    4.3486024150
O       15.0322755317    5.5061912100    4.4000627617
O       17.1894322317    3.4751040850    2.8511244883
O       14.7927262833    7.5610603050    2.7673200917
O       18.4725003233    3.5509861317    5.2732054083
O       15.9502243300    7.8376474667    5.2052325017
O       15.3093453100    3.9131833900    1.1258597100
O       17.7736547900    8.1577746000    1.1748963000
O       14.7196354600    2.4377051367    3.2161463967
O       17.2119318400    6.5687341433    3.2482101867
Si      15.8514851200    2.8651351600    2.0844508700
Si      18.2875595900    7.0842324600    2.1187160800
Si      18.1991207150    2.7094423717    3.9128571283
Si      15.7561651683    6.8789965683    3.9228034167
Si      11.8202318717    9.2699532317    5.8090181367
Si      14.3654621000   13.3786468750    5.7039251833
O       12.6773912650    9.7260987083    4.4178889133
O       10.3073893917   13.9413205117    4.5508443083
O       12.3326951033   11.8456018083    2.7718281217
O        9.8115112367   16.0738365000    2.9573062033
O       13.4985091900   12.1135402567    5.2008099767
O       11.0628197100   16.3383023283    5.3269076900
O       10.4024630300   12.3861176700    1.1204577700
O       12.8228942700   16.6269823300    1.1237594700
O        9.8622974983   10.9016045400    3.2243192283
O       12.2891139883   15.1406537200    3.2593887000
Si      10.9383116700   11.3215446500    2.0635521400
Si      13.3671334500   15.5830272400    2.0850887400
Si      13.3094494167   11.1342096200    3.9216915300
Si      10.8603308767   15.3784049733    4.0297484533
Si      16.8558652550    9.0979599067    5.6990850083
Si      19.3511491967   13.3552118433    5.7097029967
O       17.4906029483    9.7830496050    4.3600799717
O       14.9560256033   14.0824899950    4.3533938350
O       17.1977459500   11.9032270200    2.8342761833
O       14.7229816117   16.1900771533    2.8272770633
O       18.4093062733   12.0997345150    5.2615490833
O       15.9389177383   16.3352744100    5.2620541367
O       15.3082093400   12.3857007500    1.1200750900
O       17.7289836700   16.6872376300    1.1819288800
O       14.7651661733   10.8609762483    3.2089174050
O       17.1617482433   15.1440565167    3.2288560950
Si      15.8472791700   11.3195425700    2.0596468700
Si      18.2672913800   15.6077782800    2.1074787100
Si      18.2022723800   11.1904375700    3.9306561200
Si      15.7120268083   15.4518285300    3.9221004667
O       11.0590046833    1.6404524000    6.6943831717
O       13.5650525150    5.9153819983    6.7009702833
O       12.7451100717   15.6677458033    8.8563314833
O       10.3640043600    3.0067620200    8.8555961767
O       12.4393086283    1.3571405650    8.9886550783
O       10.0362072567    5.6166450467    8.9290431900
O       10.8251721183    4.4369273800    6.6576186167
O       12.9482732417    8.8696993983    6.9585304900
O       10.0076131767    0.3659941183    8.7800719467
O       12.4893272250    4.5856788217    8.7283158267
Si      10.9614706367    1.6010545883    8.3390357117
Si      13.4180274450    5.8707419417    8.3506493400
Si      13.3281120600    0.1455967967    8.3436281367
Si      10.9418377233    4.4254462883    8.2985317400
O       15.8891868567    1.6052768717    6.6440367017
O       18.4097796567    5.8004699733    6.6450933983
O       17.6540692733   15.6515969550    8.7945411433
O       15.2035924283    2.9442448617    8.8577582883
O       17.2697079167    1.3290750383    8.9345149567
O       14.8863297233    5.5638082867    8.9945975833
O       15.7176921683    4.4296394850    6.7111520617
O       18.1057180367    8.6501416133    6.6422227833
O       14.8823173917    0.3008347867    8.7666761083
O       17.3452436533    4.5316900417    8.7739879950
Si      15.7947529533    1.5538787600    8.2923918300
Si      18.2859043150    5.7695547783    8.2921875800
Si      18.1914578333    0.1522357467    8.2945118050
Si      15.7891175933    4.3768707550    8.3537323883
O       10.7029708217   10.2060056917    6.3613478583
O       13.3960885250   14.3074430800    6.6445593233
O       12.7497062317    7.1964489933    8.9595408767
O       10.4303864017   11.4311051133    9.5021420100
O       12.3904681267    9.7104169233    9.6261739367
O        9.9696404233   13.9465340117    9.0740816683
O       10.6544017983   12.7055660517    6.9400631317
O       13.2545762933    0.2132440283    6.7010981683
O        9.9269395700    8.9246703967    9.3807472767
O       12.4436964383   12.9737168000    8.7754087617
Si      10.8862580533   10.0229170433   10.1250333233
Si      13.3057910200   14.2488993600    8.2963956617
Si      13.1305274183    8.7392955150    8.5699703700
Si      10.8643492433   12.6620418633    8.5700809833
O       15.8721703300   10.0217181667    6.6066126083
O       18.4187614600   14.3132304517    6.6435747433
O       17.6466789600    7.1646419317    8.7916348383
O       15.1424528250   11.4447244067    8.7297495150
O       17.2189049467    9.7867740317    8.8721944450
O       14.8199317233   14.0617471850    8.8752462767
O       15.6616144833   12.9360501200    6.5942050767
O       18.1027535733    0.2130809800    6.6533125683
O       14.7536466167    8.8595552367    8.8212154733
O       17.2816371050   13.0143000117    8.6945182267
Si      15.7191130000   10.0127640867    8.2557053433
Si      18.2601135917   14.2444942200    8.2808052033
Si      18.1734990817    8.6183332800    8.2828268400
Si      15.7299842500   12.8718060033    8.2368159150
