Atoms  # charge
 
         240  atoms
           2  atom types
 
      0.000000000000      19.623000000000  xlo xhi
      0.000000000000      16.948000000000  ylo yhi
      -20.0      40.000000000000  zlo zhi
 
Masses
 
            1   28.08500000             # Si
            2   15.99900000             # O
 
Atoms  # charge
 
1	1	0.0	2.204598925000	0.634594105000	5.708265295000
2	1	0.0	4.668179750000	4.845848475000	5.752109115000
3	2	0.0	2.788685550000	1.312336095000	4.350386270000
4	2	0.0	0.309201110000	5.503734525000	4.352766245000
5	2	0.0	2.456763365000	3.485516315000	2.896088255000
6	2	0.0	0.002110150000	7.681681215000	2.901950895000
7	2	0.0	3.758123715000	3.581350925000	5.276478895000
8	2	0.0	1.304401600000	7.769127285000	5.280814190000
9	2	0.0	0.645688200000	3.915979400000	1.121044700000
10	2	0.0	3.067288630000	8.214126140000	1.181554390000
11	2	0.0	0.003761200000	2.402773525000	3.199324525000
12	2	0.0	2.452873655000	6.625891360000	3.207440595000
13	1	0.0	1.145501960000	2.850552470000	2.082441270000
14	1	0.0	3.569546500000	7.111906710000	2.099222340000
15	1	0.0	3.493139180000	2.723762485000	3.922899355000
16	1	0.0	1.026561900000	6.909194830000	3.934725710000
17	1	0.0	7.106123000000	0.622886235000	5.749497380000
18	1	0.0	9.580698065000	4.873897645000	5.733188045000
19	2	0.0	7.666353475000	1.325467460000	4.393572895000
20	2	0.0	5.218576810000	5.552166410000	4.394413685000
21	2	0.0	7.389832120000	3.462102555000	2.872510575000
22	2	0.0	4.908685305000	7.686810180000	2.908147725000
23	2	0.0	8.651647555000	3.608940985000	5.290061270000
24	2	0.0	6.255677065000	7.807302285000	5.313278345000
25	2	0.0	5.555286910000	3.912229380000	1.121105260000
26	2	0.0	7.977275710000	8.087783610000	1.114227870000
27	2	0.0	4.917346135000	2.413949845000	3.199674060000
28	2	0.0	7.358095120000	6.657328415000	3.213411080000
29	1	0.0	6.059649390000	2.846168650000	2.079001620000
30	1	0.0	8.485661930000	7.039657100000	2.088867820000
31	1	0.0	8.397000870000	2.719939655000	3.951203855000
32	1	0.0	5.942835125000	6.955688075000	3.964845490000
33	1	0.0	2.219050255000	9.039973445000	5.732657110000
34	1	0.0	4.663361305000	13.305201385000	5.709662135000
35	2	0.0	2.801442775000	9.727616680000	4.379011345000
36	2	0.0	0.302830025000	14.038258140000	4.348685600000
37	2	0.0	2.497458905000	11.875718235000	2.866549185000
38	2	0.0	0.009733420000	16.196614100000	2.840777570000
39	2	0.0	3.755665665000	12.019656390000	5.272760035000
40	2	0.0	1.300390505000	16.303257915000	5.267051145000
41	2	0.0	0.648950600000	12.384864450000	1.116469810000
42	2	0.0	3.072984360000	16.686343300000	1.121448380000
43	2	0.0	0.037204925000	10.915712345000	3.233071550000
44	2	0.0	2.453347160000	15.142947865000	3.195506260000
45	1	0.0	1.151362550000	11.319826470000	2.076669500000
46	1	0.0	3.575494050000	15.605686240000	2.065491320000
47	1	0.0	3.504795720000	11.133716405000	3.935107575000
48	1	0.0	1.025631125000	15.438702890000	3.919559925000
49	1	0.0	7.182996045000	9.077510520000	5.798165725000
50	1	0.0	9.588637445000	13.282925495000	5.809146015000
51	2	0.0	7.708610200000	9.786719465000	4.427453830000
52	2	0.0	5.212963655000	14.014680875000	4.353096205000
53	2	0.0	7.393082700000	11.893101770000	2.863372565000
54	2	0.0	4.900895860000	16.191276840000	2.894627385000
55	2	0.0	8.597606780000	12.132700175000	5.245597215000
56	2	0.0	6.200927700000	16.303748815000	5.276147965000
57	2	0.0	5.498235210000	12.387180360000	1.118918470000
58	2	0.0	7.974426330000	16.688114260000	1.180008350000
59	2	0.0	4.938506135000	10.859086065000	3.206318115000
60	2	0.0	7.350118300000	15.131180770000	3.210617015000
61	1	0.0	6.039817280000	11.344696660000	2.082940640000
62	1	0.0	8.476972010000	15.590290490000	2.102768020000
63	1	0.0	8.417256835000	11.180078230000	3.956069495000
64	1	0.0	5.923104540000	15.430298045000	3.935870910000
65	2	0.0	1.232177350000	1.582191165000	6.619857765000
66	2	0.0	3.720842155000	5.798002110000	6.683776745000
67	2	0.0	3.022729210000	15.653171070000	8.807622540000
68	2	0.0	0.533538185000	2.951647420000	8.789766165000
69	2	0.0	2.605446530000	1.311285160000	8.903715265000
70	2	0.0	0.179858420000	5.543248570000	8.928579205000
71	2	0.0	1.034784115000	4.414940155000	6.649222295000
72	2	0.0	3.481526125000	8.598076830000	6.667178250000
73	2	0.0	0.150683260000	0.339718815000	8.742806075000
74	2	0.0	2.646088485000	4.553828290000	8.779974585000
75	1	0.0	1.126137035000	1.546550400000	8.263819880000
76	1	0.0	3.624909940000	5.770308005000	8.328261395000
77	1	0.0	3.559010380000	0.148552145000	8.282670925000
78	1	0.0	1.117916650000	4.379044685000	8.289950640000
79	2	0.0	6.173125435000	1.587117735000	6.680899350000
80	2	0.0	8.660785460000	5.863984225000	6.655605190000
81	2	0.0	7.965683015000	15.630644530000	8.888024710000
82	2	0.0	5.510954725000	2.960153795000	8.867927135000
83	2	0.0	7.545565445000	1.279231895000	8.974029050000
84	2	0.0	5.102414435000	5.536394495000	8.970864220000
85	2	0.0	5.937467380000	4.410773390000	6.683926785000
86	2	0.0	8.426152520000	8.667453400000	6.770224550000
87	2	0.0	5.091157750000	0.338377085000	8.755380970000
88	2	0.0	7.593791245000	4.590756495000	8.777230155000
89	1	0.0	6.079593365000	1.551690310000	8.324088465000
90	1	0.0	8.551029530000	5.831431310000	8.307294325000
91	1	0.0	8.481345065000	0.116100265000	8.325983620000
92	1	0.0	6.056946875000	4.388039045000	8.323914295000
93	2	0.0	1.263985240000	10.017284655000	6.630909435000
94	2	0.0	3.718527805000	14.283650175000	6.616980705000
95	2	0.0	3.024142625000	7.171522715000	8.860775905000
96	2	0.0	0.537814670000	11.406827630000	8.782422310000
97	2	0.0	2.605427805000	9.757384770000	8.907252060000
98	2	0.0	0.157871670000	13.981645255000	8.910071750000
99	2	0.0	1.031607290000	12.905362810000	6.617581300000
100	2	0.0	3.478025420000	0.223111025000	6.643747120000
101	2	0.0	0.148451520000	8.782635040000	8.740285805000
102	2	0.0	2.644790000000	13.028424750000	8.714550735000
103	1	0.0	1.127696590000	9.992614760000	8.271666355000
104	1	0.0	3.615213715000	14.253293875000	8.261447080000
105	1	0.0	3.571070270000	8.597454370000	8.308481315000
106	1	0.0	1.107967085000	12.835598610000	8.258045940000
107	2	0.0	6.199850775000	10.049324500000	6.677313780000
108	2	0.0	8.664279590000	14.311238220000	6.688445435000
109	2	0.0	7.953968450000	7.215297220000	8.865150415000
110	2	0.0	5.436043195000	11.420650185000	8.814723565000
111	2	0.0	7.537391280000	9.824441520000	8.980649810000
112	2	0.0	5.094618715000	14.013100065000	8.896771155000
113	2	0.0	5.936007795000	12.881024475000	6.637835925000
114	2	0.0	8.361953225000	0.180034570000	6.688529680000
115	2	0.0	5.097570145000	8.807100585000	8.785725225000
116	2	0.0	7.557919980000	13.004311670000	8.749274345000
117	1	0.0	6.073168735000	10.021330950000	8.316721945000
118	1	0.0	8.552826750000	14.226817005000	8.334838175000
119	1	0.0	8.545842785000	8.673989310000	8.425393010000
120	1	0.0	6.026162385000	12.835273650000	8.278548635000
121	1	0.0	12.010722370000	0.633094695000	5.749561375000
122	1	0.0	14.467123850000	4.854302235000	5.764107750000
123	2	0.0	12.601288180000	1.312458530000	4.391663985000
124	2	0.0	10.136187575000	5.534254020000	4.352101755000
125	2	0.0	12.266509465000	3.464220410000	2.903430960000
126	2	0.0	9.849080970000	7.644855550000	2.827778805000
127	2	0.0	13.557693760000	3.582042285000	5.309087905000
128	2	0.0	11.139906255000	7.789838420000	5.280001470000
129	2	0.0	10.399484370000	3.908684400000	1.183545980000
130	2	0.0	12.881593440000	8.089399080000	1.117229020000
131	2	0.0	9.819357605000	2.372695450000	3.237857720000
132	2	0.0	12.299160840000	6.613410285000	3.233411740000
133	1	0.0	10.940972370000	2.828100180000	2.106481370000
134	1	0.0	13.389873930000	7.040946930000	2.091690840000
135	1	0.0	13.298454470000	2.722841125000	3.950790900000
136	1	0.0	10.856878555000	6.943644030000	3.935342320000
137	1	0.0	16.871137840000	0.634482935000	5.716120485000
138	1	0.0	19.376159880000	4.825751280000	5.724320455000
139	2	0.0	17.444217475000	1.314935205000	4.349406485000
140	2	0.0	15.030154795000	5.503901650000	4.381334725000
141	2	0.0	17.182535335000	3.472260115000	2.870391705000
142	2	0.0	14.760346330000	7.608755455000	2.819653035000
143	2	0.0	18.472345210000	3.547578775000	5.275877145000
144	2	0.0	15.979178550000	7.808697560000	5.234013005000
145	2	0.0	15.309345310000	3.913183390000	1.125859710000
146	2	0.0	17.773654790000	8.157774600000	1.174896300000
147	2	0.0	14.723028020000	2.426573290000	3.211166930000
148	2	0.0	17.193280100000	6.588952070000	3.235968580000
149	1	0.0	15.851485120000	2.865135160000	2.084450870000
150	1	0.0	18.287559590000	7.084232460000	2.118716080000
151	1	0.0	18.199194065000	2.701268335000	3.916909265000
152	1	0.0	15.746382225000	6.892024005000	3.924745450000
153	1	0.0	11.908288675000	9.181496575000	5.758422070000
154	1	0.0	14.414261200000	13.353259785000	5.708567430000
155	2	0.0	12.635917675000	9.750625565000	4.387493580000
156	2	0.0	10.232898835000	13.970308175000	4.471277305000
157	2	0.0	12.299889390000	11.894798365000	2.820328285000
158	2	0.0	9.810929530000	16.121683820000	2.935514390000
159	2	0.0	13.524400230000	12.088702410000	5.230863890000
160	2	0.0	11.083304310000	16.314730265000	5.308706730000
161	2	0.0	10.402463030000	12.386117670000	1.120457770000
162	2	0.0	12.822894270000	16.626982330000	1.123759470000
163	2	0.0	9.842430915000	10.885298060000	3.214217105000
164	2	0.0	12.277859405000	15.138509260000	3.240803000000
165	1	0.0	10.938311670000	11.321544650000	2.063552140000
166	1	0.0	13.367133450000	15.583027240000	2.085088740000
167	1	0.0	13.299638250000	11.160377720000	3.918913790000
168	1	0.0	10.848651610000	15.396517000000	3.990019380000
169	1	0.0	16.897586505000	9.070897980000	5.696729905000
170	1	0.0	19.368759950000	13.324958410000	5.700895590000
171	2	0.0	17.511779645000	9.755587675000	4.353239915000
172	2	0.0	14.983366970000	14.054640345000	4.352254025000
173	2	0.0	17.187522470000	11.904857480000	2.858488870000
174	2	0.0	14.715446215000	16.190798060000	2.849365730000
175	2	0.0	18.438290060000	12.057908565000	5.264722510000
176	2	0.0	15.945432915000	16.320073490000	5.268489690000
177	2	0.0	15.308209340000	12.385700750000	1.120075090000
178	2	0.0	17.728983670000	16.687237630000	1.181928880000
179	2	0.0	14.746728620000	10.883257305000	3.207490315000
180	2	0.0	17.161075150000	15.141965310000	3.228540465000
181	1	0.0	15.847279170000	11.319542570000	2.059646870000
182	1	0.0	18.267291380000	15.607778280000	2.107478710000
183	1	0.0	18.205534420000	11.170672670000	3.922124400000
184	1	0.0	15.714548005000	15.442168390000	3.923398380000
185	2	0.0	11.082512590000	1.616590040000	6.673968515000
186	2	0.0	13.566504985000	5.865429875000	6.679806750000
187	2	0.0	12.797548535000	15.644157210000	8.855249730000
188	2	0.0	10.386375360000	2.970694340000	8.853750490000
189	2	0.0	12.458527585000	1.323561635000	8.965998955000
190	2	0.0	10.036440430000	5.571784080000	8.931243410000
191	2	0.0	10.845603895000	4.412633900000	6.656079190000
192	2	0.0	13.100404785000	8.760001475000	6.809566010000
193	2	0.0	10.022234490000	0.336905715000	8.753841240000
194	2	0.0	12.494961515000	4.560950825000	8.746668860000
195	1	0.0	10.981171310000	1.569869985000	8.317710275000
196	1	0.0	13.437131895000	5.818905125000	8.326506300000
197	1	0.0	13.360594100000	0.125305650000	8.322455590000
198	1	0.0	10.953390730000	4.391164045000	8.297450460000
199	2	0.0	15.939259310000	1.598382575000	6.646240445000
200	2	0.0	18.436561230000	5.798759620000	6.643186075000
201	2	0.0	17.703466940000	15.631280905000	8.794711910000
202	2	0.0	15.252255225000	2.934106945000	8.856043165000
203	2	0.0	17.319569210000	1.305718515000	8.933225270000
204	2	0.0	14.909124730000	5.539833720000	8.969812150000
205	2	0.0	15.739350825000	4.407456975000	6.684899125000
206	2	0.0	18.156374770000	8.626647660000	6.633969770000
207	2	0.0	14.910514435000	0.297529120000	8.748457285000
208	2	0.0	17.371794420000	4.525158985000	8.752553445000
209	1	0.0	15.843110060000	1.542017100000	8.292010490000
210	1	0.0	18.318093685000	5.760952955000	8.287251540000
211	1	0.0	18.239368420000	0.130064020000	8.285810755000
212	1	0.0	15.821440360000	4.361444745000	8.326019785000
213	2	0.0	10.866889805000	10.132022355000	6.462035475000
214	2	0.0	13.466272515000	14.305485260000	6.646492910000
215	2	0.0	12.796721895000	7.177588180000	8.892432370000
216	2	0.0	10.424872785000	11.405210080000	9.216888330000
217	2	0.0	12.432349360000	9.717092770000	9.322317830000
218	2	0.0	9.996090570000	13.946960855000	9.018397765000
219	2	0.0	10.740199655000	12.775403075000	6.817290895000
220	2	0.0	13.275874920000	0.187272605000	6.681959885000
221	2	0.0	9.976780270000	8.851051390000	9.111057370000
222	2	0.0	12.470082195000	12.971851760000	8.750641545000
223	1	0.0	10.936446780000	10.001160250000	9.375099970000
224	1	0.0	13.370360720000	14.234938180000	8.294359565000
225	1	0.0	13.248537675000	8.668445545000	8.432187090000
226	1	0.0	10.906093290000	12.716668470000	8.448826630000
227	2	0.0	15.932248130000	10.021653700000	6.601996805000
228	2	0.0	18.438100440000	14.285367475000	6.635478550000
229	2	0.0	17.680052860000	7.155548735000	8.792184295000
230	2	0.0	15.213528195000	11.413001600000	8.751991425000
231	2	0.0	17.289275500000	9.765997035000	8.872120335000
232	2	0.0	14.868098210000	14.016233175000	8.899156550000
233	2	0.0	15.706166310000	12.913761700000	6.609510950000
234	2	0.0	18.131798040000	0.186357800000	6.647904105000
235	2	0.0	14.835498930000	8.812742110000	8.773310540000
236	2	0.0	17.334042775000	12.994923695000	8.702689180000
237	1	0.0	15.797684660000	9.996173240000	8.248441510000
238	1	0.0	18.303543715000	14.226336320000	8.272508010000
239	1	0.0	18.232109385000	8.593910680000	8.271884020000
240	1	0.0	15.786736810000	12.842608390000	8.248729145000
