240
Lattice="19.6230000000 0.0000000000 0.0000000000 0.0000000000 16.9480000000 0.0000000000 0.0000000000 0.0000000000 22.0000000000" Properties=species:S:1:pos:R:3 pbc="T T T"
Si       2.1920081233    0.6509153100    5.7121862100
Si       4.6617102033    4.8589631400    5.7619753333
O        2.7773027067    1.3252432600    4.3517833367
O        0.3088298433    5.5046846233    4.3541437767
O        2.4564814167    3.4920473167    2.8935451767
O        0.0023120600    7.6810005867    2.9012503267
O        3.7578067833    3.5935788767    5.2747989567
O        1.3050724167    7.7716512033    5.2809506567
O        0.6456882000    3.9159794000    1.1210447000
O        3.0672886300    8.2141261400    1.1815543900
O        0.0033721167    2.4006140067    3.1984131467
O        2.4527130700    6.6258051633    3.2069212967
Si       1.1455019600    2.8505524700    2.0824412700
Si       3.5695465000    7.1119067100    2.0992223400
Si       3.4918606433    2.7326187267    3.9241195200
Si       1.0272208767    6.9095895200    3.9368681800
Si       7.1038289033    0.6321857833    5.7602621833
Si       9.5766988867    4.8962505433    5.7339446000
O        7.6661634800    1.3390533733    4.4062480267
O        5.2187295400    5.5691239800    4.4082238833
O        7.3965793233    3.4613235667    2.8606453767
O        4.9092537000    7.6873617667    2.9096514467
O        8.6501172467    3.6330904800    5.2770204933
O        6.2702061100    7.8196597400    5.3260583300
O        5.5552869100    3.9122293800    1.1211052600
O        7.9772757100    8.0877836100    1.1142278700
O        4.9163218100    2.4147008700    3.2002954433
O        7.3586471900    6.6690126733    3.2144811867
Si       6.0596493900    2.8461686500    2.0790016200
Si       8.4856619300    7.0396571000    2.0888678200
Si       8.3999900267    2.7269919267    3.9506742033
Si       5.9473062300    6.9711236367    3.9773618367
Si       2.2159867000    9.0429124700    5.7434273700
Si       4.6567374300   13.3142293400    5.7115412400
O        2.8122282933    9.7277325667    4.3924304300
O        0.3010440567   14.0482851300    4.3517340833
O        2.5090544433   11.8632574867    2.8545135533
O        0.0097334200   16.1966141000    2.8407775700
O        3.7515562100   12.0281166367    5.2711030733
O        1.2992026933   16.3137506800    5.2649246900
O        0.6489506000   12.3848644500    1.1164698100
O        3.0729843600   16.6863433000    1.1214483800
O        0.0444854233   10.9363026067    3.2484840500
O        2.4529255500   15.1434720267    3.1952070567
Si       1.1513625500   11.3198264700    2.0766695000
Si       3.5754940500   15.6056862400    2.0654913200
Si       3.5095967767   11.1327739200    3.9390082967
Si       1.0263320867   15.4456588900    3.9201270400
Si       7.1990492867    9.0872148500    5.8349045200
Si       9.5900238867   13.2718989233    5.8400742600
O        7.7231643100    9.7868993200    4.4548527767
O        5.2133416000   14.0176989067    4.3540399467
O        7.4053514033   11.8666587967    2.8513769167
O        4.9008996133   16.1903562133    2.8941685200
O        8.5762336500   12.1600604000    5.2364006167
O        6.2014463233   16.3143486867    5.2751496567
O        5.4982352100   12.3871803600    1.1189184700
O        7.9744263300   16.6881142600    1.1800083500
O        4.9457247833   10.8614776000    3.2089214967
O        7.3490907800   15.1304676967    3.2094982367
Si       6.0398172800   11.3446966600    2.0829406400
Si       8.4769720100   15.5902904900    2.1027680200
Si       8.4260314400   11.1772676633    3.9688040167
Si       5.9245469767   15.4342065533    3.9392761533
O        1.2081677700    1.5839857200    6.6261878167
O        3.7071191600    5.7990365467    6.6982078733
O        3.0100590900   15.6693325100    8.8122586933
O        0.5110762967    2.9642852000    8.7886145567
O        2.5814982967    1.3229576200    8.9145294833
O        0.1662937200    5.5556498733    8.9285521367
O        1.0272712467    4.4263028300    6.6537869600
O        3.4699144000    8.5993775100    6.6872853133
O        0.1234004500    0.3542299300    8.7549690400
O        2.6310012167    4.5655579033    8.8001362500
Si       1.1030935367    1.5556622800    8.2710615233
Si       3.6140444700    5.7789711300    8.3445906167
Si       3.5432221000    0.1673454633    8.2904888867
Si       1.1064709400    4.3902983333    8.2959498700
O        6.1628040333    1.5880091767    6.6917949133
O        8.6592992633    5.8876004967    6.6575304900
O        7.9639723333   15.6381469067    8.8992102067
O        5.5099990767    2.9738105133    8.8728315200
O        7.5335541267    1.2807167733    8.9874316200
O        5.0934898867    5.5468163700    8.9836107767
O        5.9276830833    4.4226394733    6.6946244100
O        8.4270418833    8.6912782567    6.8305844133
O        5.0746400800    0.3537042033    8.7676735967
O        7.5928030867    4.6129378533    8.7785261133
Si       6.0712651833    1.5605045333    8.3353053633
Si       8.5478871900    5.8614640033    8.3127783533
Si       8.4756022500    0.1230760567    8.3384814900
Si       6.0544261767    4.4038985133    8.3338249100
O        1.2510470100   10.0175004367    6.6349378767
O        3.7063603100   14.2975745433    6.6091693300
O        3.0142877167    7.1802383633    8.8824581133
O        0.5158042133   11.4193279067    8.7821202833
O        2.5806265233    9.7670197767    8.9184727500
O        0.1342375133   13.9911453500    8.9214984233
O        1.0188866600   12.9179172200    6.6254265367
O        3.4659924200    0.2486630533    6.6498171367
O        0.1195306900    8.7978748200    8.7493498500
O        2.6289999533   13.0501645400    8.7153327267
Si       1.1051913867   10.0015784900    8.2766856567
Si       3.6013854967   14.2720344200    8.2556366133
Si       3.5570137633    8.6092090767    8.3300732800
Si       1.0903775967   12.8501377267    8.2667306333
O        6.1974377233   10.0591355933    6.6967643167
O        8.6635635267   14.3143799967    6.7014480400
O        7.9518643733    7.2373993800    8.8893163667
O        5.4112200200   11.4384853867    8.8230247100
O        7.5198330600    9.8567450533    9.0180444233
O        5.0833608667   14.0353470867    8.8849877667
O        5.9243747667   12.8830218200    6.6402985533
O        8.3594117300    0.1916101800    6.7001128133
O        5.0812858467    8.8292873133    8.8107363067
O        7.5423328500   13.0159399467    8.7610773200
Si       6.0621104600   10.0389172933    8.3372288500
Si       8.5494947800   14.2310253133    8.3491807533
Si       8.5543495900    8.7114302067    8.4909575433
Si       6.0132337633   12.8476807700    8.2830532667
Si      11.9994580933    0.6454141933    5.7602218133
Si      14.4588947333    4.8698348400    5.7780796733
O       12.5917073700    1.3258548933    4.4027294900
O       10.1414932733    5.5461358733    4.3504427700
O       12.2661314333    3.4651389400    2.9032611533
O        9.8636039667    7.6339279833    2.8046596000
O       13.5542109800    3.5946912700    5.3178451067
O       11.1474434033    7.7966012067    5.2824922967
O       10.3994843700    3.9086844000    1.1835459800
O       12.8815934400    8.0893990800    1.1172290200
O        9.8152975667    2.3603351167    3.2272819933
O       12.3117492200    6.6105916233    3.2406319233
Si      10.9409723700    2.8281001800    2.1064813700
Si      13.3898739300    7.0409469300    2.0916908400
Si      13.2977596733    2.7317292233    3.9600939900
Si      10.8657949100    6.9554331867    3.9389721367
Si      16.8579152600    0.6471078600    5.7176146733
Si      19.3693225233    4.8315517167    5.7270044300
O       17.4327858000    1.3256635333    4.3490044500
O       15.0312151633    5.5050464300    4.3906987433
O       17.1859837833    3.4736821000    2.8607580967
O       14.7765363067    7.5849078800    2.7934865633
O       18.4724227667    3.5492824533    5.2745412767
O       15.9647014400    7.8231725133    5.2196227533
O       15.3093453100    3.9131833900    1.1258597100
O       17.7736547900    8.1577746000    1.1748963000
O       14.7213317400    2.4321392133    3.2136566633
O       17.2026059700    6.5788431067    3.2420893833
Si      15.8514851200    2.8651351600    2.0844508700
Si      18.2875595900    7.0842324600    2.1187160800
Si      18.1991573900    2.7053553533    3.9148831967
Si      15.7512736967    6.8855102867    3.9237744333
Si      11.8642602733    9.2257249033    5.7837201033
Si      14.3898616500   13.3659533300    5.7062463067
O       12.6566544700    9.7383621367    4.4026912467
O       10.2701441133   13.9558143433    4.5110608067
O       12.3162922467   11.8702000867    2.7960782033
O        9.8112203833   16.0977601600    2.9464102967
O       13.5114547100   12.1011213333    5.2158369333
O       11.0730620100   16.3265162967    5.3178072100
O       10.4024630300   12.3861176700    1.1204577700
O       12.8228942700   16.6269823300    1.1237594700
O        9.8523642067   10.8934513000    3.2192681667
O       12.2834866967   15.1395814900    3.2500958500
Si      10.9383116700   11.3215446500    2.0635521400
Si      13.3671334500   15.5830272400    2.0850887400
Si      13.3045438333   11.1472936700    3.9203026600
Si      10.8544912433   15.3874609867    4.0098839167
Si      16.8767258800    9.0844289433    5.6979074567
Si      19.3599545733   13.3400851267    5.7052992933
O       17.5011912967    9.7693186400    4.3566599433
O       14.9696962867   14.0685651700    4.3528239300
O       17.1926342100   11.9040422500    2.8463825267
O       14.7192139133   16.1904376067    2.8383213967
O       18.4237981667   12.0788215400    5.2631357967
O       15.9421753267   16.3276739500    5.2652719133
O       15.3082093400   12.3857007500    1.1200750900
O       17.7289836700   16.6872376300    1.1819288800
O       14.7559473967   10.8721167767    3.2082038600
O       17.1614116967   15.1430109133    3.2286982800
Si      15.8472791700   11.3195425700    2.0596468700
Si      18.2672913800   15.6077782800    2.1074787100
Si      18.2039034000   11.1805551200    3.9263902600
Si      15.7132874067   15.4469984600    3.9227494233
O       11.0707586367    1.6285212200    6.6841758433
O       13.5657787500    5.8904059367    6.6903885167
O       12.7713293033   15.6559515067    8.8557906067
O       10.3751898600    2.9887281800    8.8546733333
O       12.4489181067    1.3403511000    8.9773270167
O       10.0363238433    5.5942145633    8.9301433000
O       10.8353880067    4.4247806400    6.6568489033
O       13.0243390133    8.8148504367    6.8840482500
O       10.0149238333    0.3514499167    8.7669565933
O       12.4921443700    4.5733148233    8.7374923433
Si      10.9713209733    1.5854622867    8.3283729933
Si      13.4275796700    5.8448235333    8.3385778200
Si      13.3443530800    0.1354512233    8.3330418633
Si      10.9476142267    4.4083051667    8.2979911000
O       15.9142230833    1.6018297233    6.6451385733
O       18.4231704433    5.7996147967    6.6441397367
O       17.6787681067   15.6414389300    8.7946265267
O       15.2279238267    2.9391759033    8.8569007267
O       17.2946385633    1.3173967767    8.9338701133
O       14.8977272267    5.5518210033    8.9822048667
O       15.7285214967    4.4185482300    6.6980255933
O       18.1310464033    8.6383946367    6.6380962767
O       14.8964159133    0.2991819533    8.7575666967
O       17.3585190367    4.5284245133    8.7632707200
Si      15.8189315067    1.5479479300    8.2922011600
Si      18.3019990000    5.7652538667    8.2897195600
Si      18.2154131267    0.1411498833    8.2901612800
Si      15.8052789767    4.3691577500    8.3398760867
O       10.7849303133   10.1690140233    6.4116916667
O       13.4311805200   14.3064641700    6.6455261167
O       12.7732140633    7.1870185867    8.9259866233
O       10.4276295933   11.4181575967    9.3595151700
O       12.4114087433    9.7137548467    9.4742458833
O        9.9828654967   13.9467474333    9.0462397167
O       10.6973007267   12.7404845633    6.8786770133
O       13.2652256067    0.2002583167    6.6915290267
O        9.9518599200    8.8878608933    9.2459023233
O       12.4568893167   12.9727842800    8.7630251533
Si      10.9113524167   10.0120386467    9.7500666467
Si      13.3380758700   14.2419187700    8.2953776133
Si      13.1895325467    8.7038705300    8.5010787300
Si      10.8852212667   12.6893551667    8.5094538067
O       15.9022092300   10.0216859333    6.6043047067
O       18.4284309500   14.2992989633    6.6395266467
O       17.6633659100    7.1600953333    8.7919095667
O       15.1779905100   11.4288630033    8.7408704700
O       17.2540902233    9.7763855333    8.8721573900
O       14.8440149667   14.0389901800    8.8872014133
O       15.6838903967   12.9249059100    6.6018580133
O       18.1172758067    0.1997193900    6.6506083367
O       14.7945727733    8.8361486733    8.7972630067
O       17.3078399400   13.0046118533    8.6986037033
Si      15.7583988300   10.0044686633    8.2520734267
Si      18.2818286533   14.2354152700    8.2766566067
Si      18.2028042333    8.6061219800    8.2773554300
Si      15.7583605300   12.8572071967    8.2427725300
