240
Lattice="19.6230000000 0.0000000000 0.0000000000 0.0000000000 16.9480000000 0.0000000000 0.0000000000 0.0000000000 22.0000000000" Properties=species:S:1:pos:R:3 pbc="T T T"
Si       2.2423713300    0.5856304900    5.6965025500
Si       4.6875883900    4.8065044800    5.7225104600
O        2.8228340800    1.2736146000    4.3461950700
O        0.3103149100    5.5008842300    4.3486336500
O        2.4576092100    3.4659233100    2.9037174900
O        0.0015044200    7.6837231000    2.9040526000
O        3.7590745100    3.5446670700    5.2815187100
O        1.3023891500    7.7615555300    5.2804047900
O        0.6456882000    3.9159794000    1.1210447000
O        3.0672886300    8.2141261400    1.1815543900
O        0.0049284500    2.4092520800    3.2020586600
O        2.4533554100    6.6261499500    3.2089984900
Si       1.1455019600    2.8505524700    2.0824412700
Si       3.5695465000    7.1119067100    2.0992223400
Si       3.4969747900    2.6971937600    3.9192388600
Si       1.0245849700    6.9080107600    3.9282983000
Si       7.1130052900    0.5949875900    5.7172029700
Si       9.5926956000    4.8068389500    5.7309183800
O        7.6669234600    1.2847097200    4.3555475000
O        5.2181186200    5.5012937000    4.3529830900
O        7.3695905100    3.4644395200    2.9081061700
O        4.9069801200    7.6851554200    2.9036365600
O        8.6562384800    3.5364925000    5.3291836000
O        6.2120899300    7.7702299200    5.2749383900
O        5.5552869100    3.9122293800    1.1211052600
O        7.9772757100    8.0877836100    1.1142278700
O        4.9204191100    2.4116967700    3.1978099100
O        7.3564389100    6.6222756400    3.2102007600
Si       6.0596493900    2.8461686500    2.0790016200
Si       8.4856619300    7.0396571000    2.0888678200
Si       8.3880334000    2.6987828400    3.9527928100
Si       5.9294218100    6.9093813900    3.9272964500
Si       2.2282409200    9.0311563700    5.7003463300
Si       4.6832329300   13.2781175200    5.7040248200
O        2.7690862200    9.7272690200    4.3387540900
O        0.3081879300   14.0081771700    4.3395401500
O        2.4626722900   11.9131004800    2.9026560800
O        0.0097334200   16.1966141000    2.8407775700
O        3.7679940300   11.9942756500    5.2777309200
O        1.3039539400   16.2717796200    5.2734305100
O        0.6489506000   12.3848644500    1.1164698100
O        3.0729843600   16.6863433000    1.1214483800
O        0.0153634300   10.8539415600    3.1868340500
O        2.4546119900   15.1413753800    3.1964038700
Si       1.1513625500   11.3198264700    2.0766695000
Si       3.5754940500   15.6056862400    2.0654913200
Si       3.4903925500   11.1365438600    3.9234054100
Si       1.0235282400   15.4178348900    3.9178585800
Si       7.1348363200    9.0483975300    5.6879493400
Si       9.5844781200   13.3160052100    5.7163612800
O        7.6649478700    9.7861799000    4.3452569900
O        5.2118298200   14.0056267800    4.3502649800
O        7.3562765900   11.9724306900    2.8993595100
O        4.9008846000   16.1940387200    2.8960039800
O        8.6617261700   12.0506195000    5.2731870100
O        6.1993718300   16.2719492000    5.2791428900
O        5.4982352100   12.3871803600    1.1189184700
O        7.9744263300   16.6881142600    1.1800083500
O        4.9168501900   10.8519114600    3.1985079700
O        7.3532008600   15.1333199900    3.2139733500
Si       6.0398172800   11.3446966600    2.0829406400
Si       8.4769720100   15.5902904900    2.1027680200
Si       8.3909330200   11.1885099300    3.9178659300
Si       5.9187772300   15.4185725200    3.9256551800
O        1.3042060900    1.5768075000    6.6008676100
O        3.7620111400    5.7948988000    6.6404833600
O        3.0607395700   15.6046867500    8.7937140800
O        0.6009238500    2.9137340800    8.7932209900
O        2.6772912300    1.2762677800    8.8712726100
O        0.2205525200    5.5060446600    8.9286604100
O        1.0573227200    4.3808521300    6.6355283000
O        3.5163613000    8.5941747900    6.6068570600
O        0.2325316900    0.2961854700    8.7063171800
O        2.6913502900    4.5186394500    8.7194895900
Si       1.1952675300    1.5192147600    8.2420949500
Si       3.6575063500    5.7443186300    8.2792737300
Si       3.6063752200    0.0921721900    8.2592170400
Si       1.1522537800    4.3452837400    8.2719529500
O        6.2040896400    1.5844434100    6.6482126600
O        8.6652440500    5.7931354100    6.6498292900
O        7.9708150600   15.6081374000    8.8544682200
O        5.5138216700    2.9191836400    8.8532139800
O        7.5815994000    1.2747772600    8.9338213400
O        5.1291880800    5.5051288700    8.9326245500
O        5.9668202700    4.3751751400    6.6518339100
O        8.4234844300    8.5959788300    6.5891449600
O        5.1407107600    0.2923957300    8.7185030900
O        7.5967557200    4.5242124200    8.7733422800
Si       6.1045779100    1.5252476400    8.2904377700
Si       8.5604565500    5.7413332300    8.2908422400
Si       8.4985735100    0.0951728900    8.2884900100
Si       6.0645089700    4.3404606400    8.2941824500
O        1.3027999300   10.0166373100    6.6188241100
O        3.7550302900   14.2418770700    6.6404148300
O        3.0537073500    7.1453757700    8.7957292800
O        0.6038460400   11.3693268000    8.7833283900
O        2.6798316500    9.7284797500    8.8735899900
O        0.2287741400   13.9531449700    8.8757917300
O        1.0697691800   12.8676995800    6.5940455900
O        3.5141244200    0.1464549400    6.6255370700
O        0.2352140100    8.7369157000    8.7130936700
O        2.6921601400   12.9632053800    8.7122047600
Si       1.1952122000    9.9657235700    8.2566084500
Si       3.6566983700   14.1970722400    8.2788784800
Si       3.6132397900    8.5621902500    8.2437054200
Si       1.1607355500   12.7919812600    8.2319918600
O        6.2070899300   10.0198912200    6.6189621700
O        8.6664277800   14.3018128900    6.6494376200
O        7.9602806800    7.1489907400    8.7926525600
O        5.5105127200   11.3671445800    8.7898201300
O        7.5900659400    9.7275309200    8.8684659700
O        5.1283922600   13.9463590000    8.9321213200
O        5.9709068800   12.8750324400    6.6304480400
O        8.3695777100    0.1453077400    6.6537802800
O        5.1464230400    8.7405404000    8.7106919800
O        7.6046813700   12.9694268400    8.7138654200
Si       6.1063435600    9.9685719200    8.2552012300
Si       8.5628226600   14.2141920800    8.2918104400
Si       8.5203223700    8.5616666200    8.2286994100
Si       6.0649482500   12.7980522900    8.2650347400
Si      12.0445152000    0.5961362000    5.7175800600
Si      14.4918112000    4.8077044200    5.7221919800
O       12.6300306100    1.2722694400    4.3584674700
O       10.1202704800    5.4986084600    4.3570787100
O       12.2676435600    3.4614648200    2.9039403800
O        9.8055119800    7.6776382500    2.8971364200
O       13.5681421000    3.5440953300    5.2828163000
O       11.1172948100    7.7695500600    5.2725289900
O       10.3994843700    3.9086844000    1.1835459800
O       12.8815934400    8.0893990800    1.1172290200
O        9.8315377200    2.4097764500    3.2695849000
O       12.2613957000    6.6218662700    3.2117511900
Si      10.9409723700    2.8281001800    2.1064813700
Si      13.3898739300    7.0409469300    2.0916908400
Si      13.3005388600    2.6961768300    3.9228816300
Si      10.8301294900    6.9082765600    3.9244528700
Si      16.9108055800    0.5966081600    5.7116379200
Si      19.3966719500    4.8083499700    5.7162685300
O       17.4785125000    1.2827502200    4.3506125900
O       15.0269736900    5.5004673100    4.3532426700
O       17.1721899900    3.4679941600    2.8992925300
O       14.7117764000    7.6802981800    2.8981524500
O       18.4721125400    3.5424677400    5.2798847500
O       16.0226098800    7.7652727000    5.2771837600
O       15.3093453100    3.9131833900    1.1258597100
O       17.7736547900    8.1577746000    1.1748963000
O       14.7281168600    2.4098755200    3.2036977300
O       17.1653024900    6.6192789600    3.2176061700
Si      15.8514851200    2.8651351600    2.0844508700
Si      18.2875595900    7.0842324600    2.1187160800
Si      18.1993040900    2.6890072800    3.9229874700
Si      15.7317078100    6.9115651600    3.9276585000
Si      12.0403738800    9.0488115900    5.6825279700
Si      14.4874598500   13.3151791500    5.7155308000
O       12.5737072900    9.7874158500    4.3419005800
O       10.1211630000   14.0137896700    4.3519268000
O       12.2506808200   11.9685932000    2.8930785300
O        9.8100569700   16.1934548000    2.9028266700
O       13.5632367900   12.0514456400    5.2759447600
O       11.1140312100   16.2793721700    5.2814052900
O       10.4024630300   12.3861176700    1.1204577700
O       12.8228942700   16.6269823300    1.1237594700
O        9.8126310400   10.8608383400    3.1990639200
O       12.2609775300   15.1352925700    3.2129244500
Si      10.9383116700   11.3215446500    2.0635521400
Si      13.3671334500   15.5830272400    2.0850887400
Si      13.2849215000   11.1996298700    3.9147471800
Si      10.8311327100   15.4236850400    3.9304257700
Si      16.9601683800    9.0303050900    5.6931972500
Si      19.3951760800   13.2795782600    5.6876844800
O       17.5435446900    9.7143947800    4.3429798300
O       15.0243790200   14.0128658700    4.3505443100
O       17.1721872500   11.9073031700    2.8948079000
O       14.7041431200   16.1918794200    2.8824987300
O       18.4817657400   11.9951696400    5.2694826500
O       15.9552056800   16.2972721100    5.2781430200
O       15.3082093400   12.3857007500    1.1200750900
O       17.7289836700   16.6872376300    1.1819288800
O       14.7190722900   10.9166788900    3.2053496800
O       17.1600655100   15.1388285000    3.2280670200
Si      15.8472791700   11.3195425700    2.0596468700
Si      18.2672913800   15.6077782800    2.1074787100
Si      18.2104274800   11.1410253200    3.9093268200
Si      15.7183298000   15.4276781800    3.9253452500
O       11.1177744500    1.5807965000    6.6433465300
O       13.5686836900    5.7905016900    6.6480614500
O       12.8762062300   15.6087743200    8.8536271000
O       10.4199318600    2.9165928200    8.8509819600
O       12.4873560200    1.2731932400    8.9320147700
O       10.0367901900    5.5044926300    8.9345437400
O       10.8762515600    4.3761936800    6.6537700500
O       13.3286021000    8.5954545900    6.5861192900
O       10.0441664600    0.2932731100    8.7144951800
O       12.5034129500    4.5238588300    8.7741984100
Si      11.0107223200    1.5230930800    8.2857221200
Si      13.4657885700    5.7411499000    8.2902917400
Si      13.4093171600    0.0948689300    8.2906967700
Si      10.9707202400    4.3397406800    8.2958285400
O       16.0143679900    1.5880411300    6.6495460600
O       18.4767335900    5.7961940900    6.6403250900
O       17.7775634400   15.6008068300    8.7949680600
O       15.3252494200    2.9189000700    8.8534704800
O       17.3943611500    1.2706837300    8.9312907400
O       14.9433172400    5.5038718700    8.9326340000
O       15.7718388100    4.3741832100    6.6455197200
O       18.2323598700    8.5914067300    6.6215902500
O       14.9528100000    0.2925706200    8.7211290500
O       17.4116205700    4.5153624000    8.7204016200
Si      15.9156457200    1.5242246100    8.2914384800
Si      18.3663777400    5.7480502200    8.2798474800
Si      18.3112343000    0.0968064300    8.2727591800
Si      15.8699245100    4.3383057300    8.2844508800
O       11.1127682800   10.0210473500    6.6130669000
O       13.5715485000   14.3025485300    6.6493932900
O       12.8672453900    7.1492969600    8.7917696100
O       10.4166023600   11.3663675300    8.7890078100
O       12.4951712100    9.7271065400    8.8665336700
O       10.0357657900   13.9476011200    8.9348719100
O       10.8688964400   12.8801586100    6.6331325400
O       13.3078228600    0.1483154700    6.6532524600
O       10.0515413200    8.7406228800    8.7065225100
O       12.5096608300   12.9690542000    8.7134907200
Si      11.0117298700    9.9685250600    8.2501999400
Si      13.4672152700   14.2139964100    8.2913054200
Si      13.4255530600    8.5621705900    8.2255121700
Si      10.9687093600   12.7986083800    8.2669451000
O       16.0223648300   10.0215570000    6.5950731000
O       18.4671089100   14.2435730100    6.6233342600
O       17.7301137100    7.1419089400    8.7930084800
O       15.3201412500   11.3654173900    8.7853542900
O       17.3948313300    9.7348315400    8.8720091700
O       14.9403479400   13.9479621600    8.9350219600
O       15.7729940500   12.8803290700    6.6324697600
O       18.1753647400    0.1462730300    6.6397914100
O       14.9582774000    8.7425224200    8.7014531400
O       17.4126512800   12.9658592200    8.7149456100
Si      15.9155421500    9.9712869700    8.2375457600
Si      18.3686889000   14.1990994700    8.2600622200
Si      18.3200248400    8.5572767800    8.2554697900
Si      15.8718656500   12.7988119700    8.2665989900
