Atoms  # charge
 
         240  atoms
           2  atom types
 
      0.000000000000      19.623000000000  xlo xhi
      0.000000000000      16.948000000000  ylo yhi
      -20.0      40.000000000000  zlo zhi
 
Masses
 
            1   28.08500000             # Si
            2   15.99900000             # O
 
Atoms  # charge
 
1	1	0.0	2.229780528300	0.601951695000	5.700423465000
2	1	0.0	4.681118843300	4.819619145000	5.732376678300
3	2	0.0	2.811451236700	1.286521765000	4.347592136700
4	2	0.0	0.309943643300	5.501834328300	4.350011181700
5	2	0.0	2.457327261700	3.472454311700	2.901174411700
6	2	0.0	0.001706330000	7.683042471700	2.903352031700
7	2	0.0	3.758757578300	3.556895021700	5.279838771700
8	2	0.0	1.303059966700	7.764079448300	5.280541256700
9	2	0.0	0.645688200000	3.915979400000	1.121044700000
10	2	0.0	3.067288630000	8.214126140000	1.181554390000
11	2	0.0	0.004539366700	2.407092561700	3.201147281700
12	2	0.0	2.453194825000	6.626063753300	3.208479191700
13	1	0.0	1.145501960000	2.850552470000	2.082441270000
14	1	0.0	3.569546500000	7.111906710000	2.099222340000
15	1	0.0	3.495696253300	2.706050001700	3.920459025000
16	1	0.0	1.025243946700	6.908405450000	3.930440770000
17	1	0.0	7.110711193300	0.604287138300	5.727967773300
18	1	0.0	9.588696421700	4.829191848300	5.731674935000
19	2	0.0	7.666733465000	1.298295633300	4.368222631700
20	2	0.0	5.218271350000	5.518251270000	4.366793288300
21	2	0.0	7.376337713300	3.463660531700	2.896240971700
22	2	0.0	4.907548515000	7.685707006700	2.905140281700
23	2	0.0	8.654708171700	3.560641995000	5.316142823300
24	2	0.0	6.226618975000	7.782587375000	5.287718375000
25	2	0.0	5.555286910000	3.912229380000	1.121105260000
26	2	0.0	7.977275710000	8.087783610000	1.114227870000
27	2	0.0	4.919394785000	2.412447795000	3.198431293300
28	2	0.0	7.356990980000	6.633959898300	3.211270866700
29	1	0.0	6.059649390000	2.846168650000	2.079001620000
30	1	0.0	8.485661930000	7.039657100000	2.088867820000
31	1	0.0	8.391022556700	2.705835111700	3.952263158300
32	1	0.0	5.933892915000	6.924816951700	3.939812796700
33	1	0.0	2.225177365000	9.034095395000	5.711116590000
34	1	0.0	4.676609055000	13.287145475000	5.705903925000
35	2	0.0	2.779871738300	9.727384906700	4.352173175000
36	2	0.0	0.306401961700	14.018204160000	4.342588633300
37	2	0.0	2.474267828300	11.900639731700	2.890620448300
38	2	0.0	0.009733420000	16.196614100000	2.840777570000
39	2	0.0	3.763884575000	12.002735896700	5.276073958300
40	2	0.0	1.302766128300	16.282272385000	5.271304055000
41	2	0.0	0.648950600000	12.384864450000	1.116469810000
42	2	0.0	3.072984360000	16.686343300000	1.121448380000
43	2	0.0	0.022643928300	10.874531821700	3.202246550000
44	2	0.0	2.454190380000	15.141899541700	3.196104666700
45	1	0.0	1.151362550000	11.319826470000	2.076669500000
46	1	0.0	3.575494050000	15.605686240000	2.065491320000
47	1	0.0	3.495193606700	11.135601375000	3.927306131700
48	1	0.0	1.024229201700	15.424790890000	3.918425695000
49	1	0.0	7.150889561700	9.058101860000	5.724688135000
50	1	0.0	9.585864561700	13.304978638300	5.747289525000
51	2	0.0	7.679501980000	9.786359755000	4.372655936700
52	2	0.0	5.212207765000	14.008644811700	4.351208721700
53	2	0.0	7.368545293300	11.945987716700	2.887363861700
54	2	0.0	4.900888353300	16.193118093300	2.895545115000
55	2	0.0	8.640353040000	12.077979725000	5.263990411700
56	2	0.0	6.199890453300	16.282549071700	5.278144581700
57	2	0.0	5.498235210000	12.387180360000	1.118918470000
58	2	0.0	7.974426330000	16.688114260000	1.180008350000
59	2	0.0	4.924068838300	10.854302995000	3.201111351700
60	2	0.0	7.352173340000	15.132606916700	3.212854571700
61	1	0.0	6.039817280000	11.344696660000	2.082940640000
62	1	0.0	8.476972010000	15.590290490000	2.102768020000
63	1	0.0	8.399707625000	11.185699363300	3.930600451700
64	1	0.0	5.920219666700	15.422481028300	3.929060423300
65	2	0.0	1.280196510000	1.578602055000	6.607197661700
66	2	0.0	3.748288145000	5.795933236700	6.654914488300
67	2	0.0	3.048069450000	15.620848190000	8.798350233300
68	2	0.0	0.578461961700	2.926371860000	8.792069381700
69	2	0.0	2.653342996700	1.287940240000	8.882086828300
70	2	0.0	0.206987820000	5.518445963300	8.928633341700
71	2	0.0	1.049809851700	4.392214805000	6.640092965000
72	2	0.0	3.504749575000	8.595475470000	6.626964123300
73	2	0.0	0.205248880000	0.310696585000	8.718480145000
74	2	0.0	2.676263021700	4.530369063300	8.739651255000
75	1	0.0	1.172224031700	1.528326640000	8.249336593300
76	1	0.0	3.646640880000	5.752981755000	8.295602951700
77	1	0.0	3.590586940000	0.110965508300	8.267035001700
78	1	0.0	1.140808070000	4.356537388300	8.277952180000
79	2	0.0	6.193768238300	1.585334851700	6.659108223300
80	2	0.0	8.663757853300	5.816751681700	6.651754590000
81	2	0.0	7.969104378300	15.615639776700	8.865653716700
82	2	0.0	5.512866021700	2.932840358300	8.858118365000
83	2	0.0	7.569588081700	1.276262138300	8.947223910000
84	2	0.0	5.120263531700	5.515550745000	8.945371106700
85	2	0.0	5.957035973300	4.387041223300	6.662531535000
86	2	0.0	8.424373793300	8.619803686700	6.649504823300
87	2	0.0	5.124193090000	0.307722848300	8.730795716700
88	2	0.0	7.595767561700	4.546393778300	8.774638238300
89	1	0.0	6.096249728300	1.534061863300	8.301654668300
90	1	0.0	8.557314210000	5.771365923300	8.296326268300
91	1	0.0	8.492830695000	0.102148681700	8.300987880000
92	1	0.0	6.061988271700	4.356320108300	8.304093065000
93	2	0.0	1.289861700000	10.016853091700	6.622852551700
94	2	0.0	3.742862795000	14.255801438300	6.632603455000
95	2	0.0	3.043852441700	7.154091418300	8.817411488300
96	2	0.0	0.581835583300	11.381827076700	8.783026363300
97	2	0.0	2.655030368300	9.738114756700	8.884810680000
98	2	0.0	0.205139983300	13.962645065000	8.887218403300
99	2	0.0	1.057048550000	12.880253990000	6.601890826700
100	2	0.0	3.502091420000	0.172006968300	6.631607086700
101	2	0.0	0.206293180000	8.752155480000	8.722157715000
102	2	0.0	2.676370093300	12.984945170000	8.712986751700
103	1	0.0	1.172706996700	9.974687300000	8.261627751700
104	1	0.0	3.642870151700	14.215812785000	8.273068013300
105	1	0.0	3.599183283300	8.573944956700	8.265297385000
106	1	0.0	1.143146061700	12.806520376700	8.240676553300
107	2	0.0	6.204676878300	10.029702313300	6.638412706700
108	2	0.0	8.665711716700	14.304954666700	6.662440225000
109	2	0.0	7.958176603300	7.171092900000	8.816818511700
110	2	0.0	5.485689545000	11.384979781700	8.798121275000
111	2	0.0	7.572507720000	9.759834453300	8.905860583300
112	2	0.0	5.117134411700	13.968606021700	8.920337931700
113	2	0.0	5.959273851700	12.877029785000	6.632910668300
114	2	0.0	8.367036215000	0.156883350000	6.665363413300
115	2	0.0	5.130138741700	8.762727128300	8.735703061700
116	2	0.0	7.589094240000	12.981055116700	8.725668395000
117	1	0.0	6.095285285000	9.986158263300	8.275708135000
118	1	0.0	8.559490690000	14.218400388300	8.306153018300
119	1	0.0	8.528829175000	8.599107516700	8.294263943300
120	1	0.0	6.052019628300	12.810459410000	8.269539371700
121	1	0.0	12.033250923300	0.608455698300	5.728240498300
122	1	0.0	14.483582083300	4.823237025000	5.736163903300
123	2	0.0	12.620449800000	1.285665803300	4.369532975000
124	2	0.0	10.125576178300	5.510490313300	4.355419725000
125	2	0.0	12.267265528300	3.462383350000	2.903770573300
126	2	0.0	9.820034976700	7.666710683300	2.874017215000
127	2	0.0	13.564659320000	3.556744315000	5.291573501700
128	2	0.0	11.124831958300	7.776312846700	5.275019816700
129	2	0.0	10.399484370000	3.908684400000	1.183545980000
130	2	0.0	12.881593440000	8.089399080000	1.117229020000
131	2	0.0	9.827477681700	2.397416116700	3.259009173300
132	2	0.0	12.273984080000	6.619047608300	3.218971373300
133	1	0.0	10.940972370000	2.828100180000	2.106481370000
134	1	0.0	13.389873930000	7.040946930000	2.091690840000
135	1	0.0	13.299844063300	2.705064928300	3.932184720000
136	1	0.0	10.839045845000	6.920065716700	3.928082686700
137	1	0.0	16.897583000000	0.609233085000	5.713132108300
138	1	0.0	19.389834593300	4.814150406700	5.718952505000
139	2	0.0	17.467080825000	1.293478548300	4.350210555000
140	2	0.0	15.028034058300	5.501612090000	4.362606688300
141	2	0.0	17.175638438300	3.469416145000	2.889658921700
142	2	0.0	14.727966376700	7.656450605000	2.871985978300
143	2	0.0	18.472190096700	3.544171418300	5.278548881700
144	2	0.0	16.008132770000	7.779747653300	5.262793508300
145	2	0.0	15.309345310000	3.913183390000	1.125859710000
146	2	0.0	17.773654790000	8.157774600000	1.174896300000
147	2	0.0	14.726420580000	2.415441443300	3.206187463300
148	2	0.0	17.174628360000	6.609169996700	3.223726973300
149	1	0.0	15.851485120000	2.865135160000	2.084450870000
150	1	0.0	18.287559590000	7.084232460000	2.118716080000
151	1	0.0	18.199267415000	2.693094298300	3.920961401700
152	1	0.0	15.736599281700	6.905051441700	3.926687483300
153	1	0.0	11.996345478300	9.093039918300	5.707826003300
154	1	0.0	14.463060300000	13.327872695000	5.713209676700
155	2	0.0	12.594444085000	9.775152421700	4.357098246700
156	2	0.0	10.158408278300	13.999295838300	4.391710301700
157	2	0.0	12.267083676700	11.943994921700	2.868828448300
158	2	0.0	9.810347823300	16.169531140000	2.913722576700
159	2	0.0	13.550291270000	12.063864563300	5.260917803300
160	2	0.0	11.103788910000	16.291158201700	5.290505770000
161	2	0.0	10.402463030000	12.386117670000	1.120457770000
162	2	0.0	12.822894270000	16.626982330000	1.123759470000
163	2	0.0	9.822564331700	10.868991580000	3.204114981700
164	2	0.0	12.266604821700	15.136364800000	3.222217300000
165	1	0.0	10.938311670000	11.321544650000	2.063552140000
166	1	0.0	13.367133450000	15.583027240000	2.085088740000
167	1	0.0	13.289827083300	11.186545820000	3.916136050000
168	1	0.0	10.836972343300	15.414629026700	3.950290306700
169	1	0.0	16.939307755000	9.043836053300	5.694374801700
170	1	0.0	19.386370703300	13.294704976700	5.692088183300
171	2	0.0	17.532956341700	9.728125745000	4.346399858300
172	2	0.0	15.010708336700	14.026790695000	4.351114215000
173	2	0.0	17.177298990000	11.906487940000	2.882701556700
174	2	0.0	14.707910818300	16.191518966700	2.871454396700
175	2	0.0	18.467273846700	12.016082615000	5.267895936700
176	2	0.0	15.951948091700	16.304872570000	5.274925243300
177	2	0.0	15.308209340000	12.385700750000	1.120075090000
178	2	0.0	17.728983670000	16.687237630000	1.181928880000
179	2	0.0	14.728291066700	10.905538361700	3.206063225000
180	2	0.0	17.160402056700	15.139874103300	3.228224835000
181	1	0.0	15.847279170000	11.319542570000	2.059646870000
182	1	0.0	18.267291380000	15.607778280000	2.107478710000
183	1	0.0	18.208796460000	11.150907770000	3.913592680000
184	1	0.0	15.717069201700	15.432508250000	3.924696293300
185	2	0.0	11.106020496700	1.592727680000	6.653553858300
186	2	0.0	13.567957455000	5.815477751700	6.658643216700
187	2	0.0	12.849986998300	15.620568616700	8.854167976700
188	2	0.0	10.408746360000	2.934626660000	8.851904803300
189	2	0.0	12.477746541700	1.289982705000	8.943342831700
190	2	0.0	10.036673603300	5.526923113300	8.933443630000
191	2	0.0	10.866035671700	4.388340420000	6.654539763300
192	2	0.0	13.252536328300	8.650303551700	6.660601530000
193	2	0.0	10.036855803300	0.307817311700	8.727610533300
194	2	0.0	12.500595805000	4.536222828300	8.765021893300
195	1	0.0	11.000871983300	1.538685381700	8.296384838300
196	1	0.0	13.456236345000	5.767068308300	8.302363260000
197	1	0.0	13.393076140000	0.105014503300	8.301283043300
198	1	0.0	10.964943736700	4.356881801700	8.296369180000
199	2	0.0	15.989331763300	1.591488278300	6.648444188300
200	2	0.0	18.463342803300	5.797049266700	6.641278751700
201	2	0.0	17.752864606700	15.610964855000	8.794882676700
202	2	0.0	15.300918021700	2.923969028300	8.854328041700
203	2	0.0	17.369430503300	1.282361991700	8.931935583300
204	2	0.0	14.931919736700	5.515859153300	8.945026716700
205	2	0.0	15.761009481700	4.385274465000	6.658646188300
206	2	0.0	18.207031503300	8.603153706700	6.625716756700
207	2	0.0	14.938711478300	0.294223453300	8.730238461700
208	2	0.0	17.398345186700	4.518627928300	8.731118895000
209	1	0.0	15.891467166700	1.530155440000	8.291629150000
210	1	0.0	18.350283055000	5.752351131700	8.282315500000
211	1	0.0	18.287279006700	0.107892293300	8.277109705000
212	1	0.0	15.853763126700	4.346018735000	8.298307181700
213	2	0.0	11.030808788300	10.058039018300	6.562723091700
214	2	0.0	13.536456505000	14.303527440000	6.648426496700
215	2	0.0	12.843737558300	7.158727366700	8.825323863300
216	2	0.0	10.419359168300	11.379315046700	8.931634650000
217	2	0.0	12.474230593300	9.723768616700	9.018461723300
218	2	0.0	10.022540716700	13.947387698300	8.962713861700
219	2	0.0	10.825997511700	12.845240098300	6.694518658300
220	2	0.0	13.297173546700	0.161301181700	6.662821601700
221	2	0.0	10.026620970000	8.777432383300	8.841367463300
222	2	0.0	12.496467951700	12.969986720000	8.725874328300
223	1	0.0	10.986635506700	9.979403456700	8.625166616700
224	1	0.0	13.434930420000	14.220977000000	8.292323468300
225	1	0.0	13.366547931700	8.597595575000	8.294403810000
226	1	0.0	10.947837336700	12.771295076700	8.327572276700
227	2	0.0	15.992325930000	10.021589233300	6.597381001700
228	2	0.0	18.457439420000	14.257504498300	6.627382356700
229	2	0.0	17.713426760000	7.146455538300	8.792733751700
230	2	0.0	15.284603565000	11.381278793300	8.774233335000
231	2	0.0	17.359646053300	9.745220038300	8.872046225000
232	2	0.0	14.916264696700	13.970719165000	8.923066823300
233	2	0.0	15.750718136700	12.891473280000	6.624816823300
234	2	0.0	18.160842506700	0.159634620000	6.642495641700
235	2	0.0	14.917351243300	8.765928983300	8.725405606700
236	2	0.0	17.386448445000	12.975547378300	8.710860133300
237	1	0.0	15.876256320000	9.979582393300	8.241177676700
238	1	0.0	18.346973838300	14.208178420000	8.264210816700
239	1	0.0	18.290719688300	8.569488080000	8.260941200000
240	1	0.0	15.843489370000	12.813410776700	8.260642375000
