Atoms  # charge
 
         240  atoms
           2  atom types
 
      0.000000000000      19.623000000000  xlo xhi
      0.000000000000      16.948000000000  ylo yhi
      -20.0      40.000000000000  zlo zhi
 
Masses
 
            1   28.08500000             # Si
            2   15.99900000             # O
 
Atoms  # charge
 
1	1	0.0	2.166826520000	0.683557720000	5.720028040000
2	1	0.0	4.648771110000	4.885192470000	5.781707770000
3	2	0.0	2.754537020000	1.351057590000	4.354577470000
4	2	0.0	0.308087310000	5.506584820000	4.356898840000
5	2	0.0	2.455917520000	3.505109320000	2.888459020000
6	2	0.0	0.002715880000	7.679639330000	2.899849190000
7	2	0.0	3.757172920000	3.618034780000	5.271439080000
8	2	0.0	1.306414050000	7.776699040000	5.281223590000
9	2	0.0	0.645688200000	3.915979400000	1.121044700000
10	2	0.0	3.067288630000	8.214126140000	1.181554390000
11	2	0.0	0.002593950000	2.396294970000	3.196590390000
12	2	0.0	2.452391900000	6.625632770000	3.205882700000
13	1	0.0	1.145501960000	2.850552470000	2.082441270000
14	1	0.0	3.569546500000	7.111906710000	2.099222340000
15	1	0.0	3.489303570000	2.750331210000	3.926559850000
16	1	0.0	1.028538830000	6.910378900000	3.941153120000
17	1	0.0	7.099240710000	0.650784880000	5.781791790000
18	1	0.0	9.568700530000	4.940956340000	5.735457710000
19	2	0.0	7.665783490000	1.366225200000	4.431598290000
20	2	0.0	5.219035000000	5.603039120000	4.435844280000
21	2	0.0	7.410073730000	3.459765590000	2.836914980000
22	2	0.0	4.910390490000	7.688464940000	2.912658890000
23	2	0.0	8.647056630000	3.681389470000	5.250938940000
24	2	0.0	6.299264200000	7.844374650000	5.351618300000
25	2	0.0	5.555286910000	3.912229380000	1.121105260000
26	2	0.0	7.977275710000	8.087783610000	1.114227870000
27	2	0.0	4.914273160000	2.416202920000	3.201538210000
28	2	0.0	7.359751330000	6.692381190000	3.216621400000
29	1	0.0	6.059649390000	2.846168650000	2.079001620000
30	1	0.0	8.485661930000	7.039657100000	2.088867820000
31	1	0.0	8.405968340000	2.741096470000	3.949614900000
32	1	0.0	5.956248440000	7.001994760000	4.002394530000
33	1	0.0	2.209859590000	9.048790520000	5.764967890000
34	1	0.0	4.643489680000	13.332285250000	5.715299450000
35	2	0.0	2.833799330000	9.727964340000	4.419268600000
36	2	0.0	0.297472120000	14.068339110000	4.357831050000
37	2	0.0	2.532245520000	11.838335990000	2.830442290000
38	2	0.0	0.009733420000	16.196614100000	2.840777570000
39	2	0.0	3.743337300000	12.045037130000	5.267789150000
40	2	0.0	1.296827070000	16.334736210000	5.260671780000
41	2	0.0	0.648950600000	12.384864450000	1.116469810000
42	2	0.0	3.072984360000	16.686343300000	1.121448380000
43	2	0.0	0.059046420000	10.977483130000	3.279309050000
44	2	0.0	2.452082330000	15.144520350000	3.194608650000
45	1	0.0	1.151362550000	11.319826470000	2.076669500000
46	1	0.0	3.575494050000	15.605686240000	2.065491320000
47	1	0.0	3.519198890000	11.130888950000	3.946809740000
48	1	0.0	1.027734010000	15.459570890000	3.921261270000
49	1	0.0	7.231155770000	9.106623510000	5.908382110000
50	1	0.0	9.592796770000	13.249845780000	5.901930750000
51	2	0.0	7.752272530000	9.787259030000	4.509650670000
52	2	0.0	5.214097490000	14.023734970000	4.355927430000
53	2	0.0	7.429888810000	11.813772850000	2.827385620000
54	2	0.0	4.900907120000	16.188514960000	2.893250790000
55	2	0.0	8.533487390000	12.214780850000	5.218007420000
56	2	0.0	6.202483570000	16.335548430000	5.273153040000
57	2	0.0	5.498235210000	12.387180360000	1.118918470000
58	2	0.0	7.974426330000	16.688114260000	1.180008350000
59	2	0.0	4.960162080000	10.866260670000	3.214128260000
60	2	0.0	7.347035740000	15.129041550000	3.207260680000
61	1	0.0	6.039817280000	11.344696660000	2.082940640000
62	1	0.0	8.476972010000	15.590290490000	2.102768020000
63	1	0.0	8.443580650000	11.171646530000	3.994273060000
64	1	0.0	5.927431850000	15.442023570000	3.946086640000
65	2	0.0	1.160148610000	1.587574830000	6.638847920000
66	2	0.0	3.679673170000	5.801105420000	6.727070130000
67	2	0.0	2.984718850000	15.701655390000	8.821531000000
68	2	0.0	0.466152520000	2.989560760000	8.786311340000
69	2	0.0	2.533601830000	1.346302540000	8.936157920000
70	2	0.0	0.139164320000	5.580452480000	8.928498000000
71	2	0.0	1.012245510000	4.449028180000	6.662916290000
72	2	0.0	3.446690950000	8.601978870000	6.727499440000
73	2	0.0	0.068834830000	0.383252160000	8.779294970000
74	2	0.0	2.600826680000	4.589017130000	8.840459580000
75	1	0.0	1.057006540000	1.573886040000	8.285544810000
76	1	0.0	3.592313530000	5.796297380000	8.377249060000
77	1	0.0	3.511645540000	0.204932100000	8.306124810000
78	1	0.0	1.083579520000	4.412805630000	8.307948330000
79	2	0.0	6.142161230000	1.589792060000	6.713586040000
80	2	0.0	8.656326870000	5.934833040000	6.661381090000
81	2	0.0	7.960550970000	15.653151660000	8.921581200000
82	2	0.0	5.508087780000	3.001123950000	8.882640290000
83	2	0.0	7.509531490000	1.283686530000	9.014236760000
84	2	0.0	5.075640790000	5.567660120000	9.009103890000
85	2	0.0	5.908114490000	4.446371640000	6.716019660000
86	2	0.0	8.428820610000	8.738927970000	6.951304140000
87	2	0.0	5.041604740000	0.384358440000	8.792258850000
88	2	0.0	7.590826770000	4.657300570000	8.781118030000
89	1	0.0	6.054608820000	1.578132980000	8.357739160000
90	1	0.0	8.541602510000	5.921529390000	8.323746410000
91	1	0.0	8.464116620000	0.137027640000	8.363477230000
92	1	0.0	6.049384780000	4.435617450000	8.353646140000
93	2	0.0	1.225170550000	10.017932000000	6.642994760000
94	2	0.0	3.682025320000	14.325423280000	6.593546580000
95	2	0.0	2.994577900000	7.197669660000	8.925822530000
96	2	0.0	0.471783300000	11.444328460000	8.781516230000
97	2	0.0	2.531023960000	9.786289790000	8.940914130000
98	2	0.0	0.086969200000	14.010145540000	8.944351770000
99	2	0.0	0.993445400000	12.943026040000	6.641117010000
100	2	0.0	3.441926420000	0.299767110000	6.661957170000
101	2	0.0	0.061689030000	8.828354380000	8.767477940000
102	2	0.0	2.597419860000	13.093644120000	8.716896710000
103	1	0.0	1.060180980000	10.019505950000	8.286724260000
104	1	0.0	3.573729060000	14.309515510000	8.244015680000
105	1	0.0	3.528900750000	8.632718490000	8.373257210000
106	1	0.0	1.055198620000	12.879215960000	8.284100020000
107	2	0.0	6.192611620000	10.078757780000	6.735665390000
108	2	0.0	8.662131400000	14.320663550000	6.727453250000
109	2	0.0	7.947656220000	7.281603700000	8.937648270000
110	2	0.0	5.361573670000	11.474155790000	8.839627000000
111	2	0.0	7.484716620000	9.921352120000	9.092833650000
112	2	0.0	5.060845170000	14.079841130000	8.861420990000
113	2	0.0	5.901108710000	12.887016510000	6.645223810000
114	2	0.0	8.354328740000	0.214761400000	6.723279080000
115	2	0.0	5.048717250000	8.873660770000	8.860758470000
116	2	0.0	7.511158590000	13.039196500000	8.784683270000
117	1	0.0	6.039993910000	10.074089980000	8.378242660000
118	1	0.0	8.542830840000	14.239441930000	8.377865910000
119	1	0.0	8.571363200000	8.786312000000	8.622086610000
120	1	0.0	5.987376520000	12.872495010000	8.292062530000
121	1	0.0	11.976929540000	0.670053190000	5.781542690000
122	1	0.0	14.442436500000	4.900900050000	5.806023520000
123	2	0.0	12.572545750000	1.352647620000	4.424860500000
124	2	0.0	10.152104670000	5.569899580000	4.347124800000
125	2	0.0	12.265375370000	3.466976000000	2.902921540000
126	2	0.0	9.892649960000	7.612072850000	2.758421190000
127	2	0.0	13.547245420000	3.619989240000	5.335359510000
128	2	0.0	11.162517700000	7.810126780000	5.287473950000
129	2	0.0	10.399484370000	3.908684400000	1.183545980000
130	2	0.0	12.881593440000	8.089399080000	1.117229020000
131	2	0.0	9.807177490000	2.335614450000	3.206130540000
132	2	0.0	12.336925980000	6.604954300000	3.255072290000
133	1	0.0	10.940972370000	2.828100180000	2.106481370000
134	1	0.0	13.389873930000	7.040946930000	2.091690840000
135	1	0.0	13.296370080000	2.749505420000	3.978700170000
136	1	0.0	10.883627620000	6.979011500000	3.946231770000
137	1	0.0	16.831470100000	0.672357710000	5.720603050000
138	1	0.0	19.355647810000	4.843152590000	5.732372380000
139	2	0.0	17.409922450000	1.347120190000	4.348200380000
140	2	0.0	15.033335900000	5.507335990000	4.409426780000
141	2	0.0	17.192880680000	3.476526070000	2.841490880000
142	2	0.0	14.808916260000	7.537212730000	2.741153620000
143	2	0.0	18.472577880000	3.552689810000	5.271869540000
144	2	0.0	15.935747220000	7.852122420000	5.190842250000
145	2	0.0	15.309345310000	3.913183390000	1.125859710000
146	2	0.0	17.773654790000	8.157774600000	1.174896300000
147	2	0.0	14.717939180000	2.443271060000	3.218636130000
148	2	0.0	17.221257710000	6.558625180000	3.254330990000
149	1	0.0	15.851485120000	2.865135160000	2.084450870000
150	1	0.0	18.287559590000	7.084232460000	2.118716080000
151	1	0.0	18.199084040000	2.713529390000	3.910831060000
152	1	0.0	15.761056640000	6.872482850000	3.921832400000
153	1	0.0	11.776203470000	9.314181560000	5.834316170000
154	1	0.0	14.341062550000	13.391340420000	5.701604060000
155	2	0.0	12.698128060000	9.713835280000	4.433086580000
156	2	0.0	10.344634670000	13.926826680000	4.590627810000
157	2	0.0	12.349097960000	11.821003530000	2.747578040000
158	2	0.0	9.811802090000	16.049912840000	2.968202110000
159	2	0.0	13.485563670000	12.125959180000	5.185783020000
160	2	0.0	11.052577410000	16.350088360000	5.336008170000
161	2	0.0	10.402463030000	12.386117670000	1.120457770000
162	2	0.0	12.822894270000	16.626982330000	1.123759470000
163	2	0.0	9.872230790000	10.909757780000	3.229370290000
164	2	0.0	12.294741280000	15.141725950000	3.268681550000
165	1	0.0	10.938311670000	11.321544650000	2.063552140000
166	1	0.0	13.367133450000	15.583027240000	2.085088740000
167	1	0.0	13.314355000000	11.121125570000	3.923080400000
168	1	0.0	10.866170510000	15.369348960000	4.049612990000
169	1	0.0	16.835004630000	9.111490870000	5.700262560000
170	1	0.0	19.342343820000	13.370338560000	5.714106700000
171	2	0.0	17.480014600000	9.796780570000	4.363500000000
172	2	0.0	14.942354920000	14.096414820000	4.353963740000
173	2	0.0	17.202857690000	11.902411790000	2.822169840000
174	2	0.0	14.726749310000	16.189716700000	2.816232730000
175	2	0.0	18.394814380000	12.120647490000	5.259962370000
176	2	0.0	15.935660150000	16.342874870000	5.258836360000
177	2	0.0	15.308209340000	12.385700750000	1.120075090000
178	2	0.0	17.728983670000	16.687237630000	1.181928880000
179	2	0.0	14.774384950000	10.849835720000	3.209630950000
180	2	0.0	17.162084790000	15.145102120000	3.229013910000
181	1	0.0	15.847279170000	11.319542570000	2.059646870000
182	1	0.0	18.267291380000	15.607778280000	2.107478710000
183	1	0.0	18.200641360000	11.200320020000	3.934921980000
184	1	0.0	15.710766210000	15.456658600000	3.921451510000
185	2	0.0	11.047250730000	1.652383580000	6.704590500000
186	2	0.0	13.564326280000	5.940358060000	6.711552050000
187	2	0.0	12.718890840000	15.679540100000	8.856872360000
188	2	0.0	10.352818860000	3.024795860000	8.856519020000
189	2	0.0	12.429699150000	1.373930030000	8.999983140000
190	2	0.0	10.036090670000	5.639075530000	8.927943080000
191	2	0.0	10.814956230000	4.449074120000	6.658388330000
192	2	0.0	12.872207470000	8.924548360000	7.033012730000
193	2	0.0	10.000302520000	0.380538320000	8.793187300000
194	2	0.0	12.486510080000	4.598042820000	8.719139310000
195	1	0.0	10.951620300000	1.616646890000	8.349698430000
196	1	0.0	13.408475220000	5.896660350000	8.362720860000
197	1	0.0	13.311871040000	0.155742370000	8.354214410000
198	1	0.0	10.936061220000	4.442587410000	8.299072380000
199	2	0.0	15.864150630000	1.608724020000	6.642934830000
200	2	0.0	18.396388870000	5.801325150000	6.646047060000
201	2	0.0	17.629370440000	15.661754980000	8.794455760000
202	2	0.0	15.179261030000	2.949313820000	8.858615850000
203	2	0.0	17.244777270000	1.340753300000	8.935159800000
204	2	0.0	14.874932220000	5.575795570000	9.006990300000
205	2	0.0	15.706862840000	4.440730740000	6.724278530000
206	2	0.0	18.080389670000	8.661888590000	6.646349290000
207	2	0.0	14.868218870000	0.302487620000	8.775785520000
208	2	0.0	17.331968270000	4.534955570000	8.784705270000
209	1	0.0	15.770574400000	1.559809590000	8.292582500000
210	1	0.0	18.269809630000	5.773855690000	8.294655600000
211	1	0.0	18.167502540000	0.163321610000	8.298862330000
212	1	0.0	15.772956210000	4.384583760000	8.367588690000
213	2	0.0	10.621011330000	10.242997360000	6.311004050000
214	2	0.0	13.360996530000	14.308421990000	6.643592530000
215	2	0.0	12.726198400000	7.205879400000	8.993095130000
216	2	0.0	10.433143210000	11.444052630000	9.644768850000
217	2	0.0	12.369527510000	9.707079000000	9.778101990000
218	2	0.0	9.956415350000	13.946320590000	9.101923620000
219	2	0.0	10.611502870000	12.670647540000	7.001449250000
220	2	0.0	13.243926980000	0.226229740000	6.710667310000
221	2	0.0	9.902019220000	8.961479900000	9.515592230000
222	2	0.0	12.430503560000	12.974649320000	8.787792370000
223	1	0.0	10.861163690000	10.033795440000	10.500000000000
224	1	0.0	13.273506170000	14.255879950000	8.297413710000
225	1	0.0	13.071522290000	8.774720500000	8.638862010000
226	1	0.0	10.843477220000	12.634728560000	8.630708160000
227	2	0.0	15.842131430000	10.021750400000	6.608920510000
228	2	0.0	18.409091970000	14.327161940000	6.647622840000
229	2	0.0	17.629992010000	7.169188530000	8.791360110000
230	2	0.0	15.106915140000	11.460585810000	8.718628560000
231	2	0.0	17.183719670000	9.797162530000	8.872231500000
232	2	0.0	14.795848480000	14.084504190000	8.863291140000
233	2	0.0	15.639338570000	12.947194330000	6.586552140000
234	2	0.0	18.088231340000	0.226442570000	6.656016800000
235	2	0.0	14.712720460000	8.882961800000	8.845167940000
236	2	0.0	17.255434270000	13.023988170000	8.690432750000
237	1	0.0	15.679827170000	10.021059510000	8.259337260000
238	1	0.0	18.238398530000	14.253573170000	8.284953800000
239	1	0.0	18.144193930000	8.630544580000	8.288298250000
240	1	0.0	15.701607970000	12.886404810000	8.230859300000
