Atoms  # charge
 
         240  atoms
           2  atom types
 
      0.000000000000      19.623000000000  xlo xhi
      0.000000000000      16.948000000000  ylo yhi
      -20.0      40.000000000000  zlo zhi
 
Masses
 
            1   28.08500000             # Si
            2   15.99900000             # O
 
Atoms  # charge
 
1	1	0.0	2.242371330000	0.585630490000	5.696502550000
2	1	0.0	4.687588390000	4.806504480000	5.722510460000
3	2	0.0	2.822834080000	1.273614600000	4.346195070000
4	2	0.0	0.310314910000	5.500884230000	4.348633650000
5	2	0.0	2.457609210000	3.465923310000	2.903717490000
6	2	0.0	0.001504420000	7.683723100000	2.904052600000
7	2	0.0	3.759074510000	3.544667070000	5.281518710000
8	2	0.0	1.302389150000	7.761555530000	5.280404790000
9	2	0.0	0.645688200000	3.915979400000	1.121044700000
10	2	0.0	3.067288630000	8.214126140000	1.181554390000
11	2	0.0	0.004928450000	2.409252080000	3.202058660000
12	2	0.0	2.453355410000	6.626149950000	3.208998490000
13	1	0.0	1.145501960000	2.850552470000	2.082441270000
14	1	0.0	3.569546500000	7.111906710000	2.099222340000
15	1	0.0	3.496974790000	2.697193760000	3.919238860000
16	1	0.0	1.024584970000	6.908010760000	3.928298300000
17	1	0.0	7.113005290000	0.594987590000	5.717202970000
18	1	0.0	9.592695600000	4.806838950000	5.730918380000
19	2	0.0	7.666923460000	1.284709720000	4.355547500000
20	2	0.0	5.218118620000	5.501293700000	4.352983090000
21	2	0.0	7.369590510000	3.464439520000	2.908106170000
22	2	0.0	4.906980120000	7.685155420000	2.903636560000
23	2	0.0	8.656238480000	3.536492500000	5.329183600000
24	2	0.0	6.212089930000	7.770229920000	5.274938390000
25	2	0.0	5.555286910000	3.912229380000	1.121105260000
26	2	0.0	7.977275710000	8.087783610000	1.114227870000
27	2	0.0	4.920419110000	2.411696770000	3.197809910000
28	2	0.0	7.356438910000	6.622275640000	3.210200760000
29	1	0.0	6.059649390000	2.846168650000	2.079001620000
30	1	0.0	8.485661930000	7.039657100000	2.088867820000
31	1	0.0	8.388033400000	2.698782840000	3.952792810000
32	1	0.0	5.929421810000	6.909381390000	3.927296450000
33	1	0.0	2.228240920000	9.031156370000	5.700346330000
34	1	0.0	4.683232930000	13.278117520000	5.704024820000
35	2	0.0	2.769086220000	9.727269020000	4.338754090000
36	2	0.0	0.308187930000	14.008177170000	4.339540150000
37	2	0.0	2.462672290000	11.913100480000	2.902656080000
38	2	0.0	0.009733420000	16.196614100000	2.840777570000
39	2	0.0	3.767994030000	11.994275650000	5.277730920000
40	2	0.0	1.303953940000	16.271779620000	5.273430510000
41	2	0.0	0.648950600000	12.384864450000	1.116469810000
42	2	0.0	3.072984360000	16.686343300000	1.121448380000
43	2	0.0	0.015363430000	10.853941560000	3.186834050000
44	2	0.0	2.454611990000	15.141375380000	3.196403870000
45	1	0.0	1.151362550000	11.319826470000	2.076669500000
46	1	0.0	3.575494050000	15.605686240000	2.065491320000
47	1	0.0	3.490392550000	11.136543860000	3.923405410000
48	1	0.0	1.023528240000	15.417834890000	3.917858580000
49	1	0.0	7.134836320000	9.048397530000	5.687949340000
50	1	0.0	9.584478120000	13.316005210000	5.716361280000
51	2	0.0	7.664947870000	9.786179900000	4.345256990000
52	2	0.0	5.211829820000	14.005626780000	4.350264980000
53	2	0.0	7.356276590000	11.972430690000	2.899359510000
54	2	0.0	4.900884600000	16.194038720000	2.896003980000
55	2	0.0	8.661726170000	12.050619500000	5.273187010000
56	2	0.0	6.199371830000	16.271949200000	5.279142890000
57	2	0.0	5.498235210000	12.387180360000	1.118918470000
58	2	0.0	7.974426330000	16.688114260000	1.180008350000
59	2	0.0	4.916850190000	10.851911460000	3.198507970000
60	2	0.0	7.353200860000	15.133319990000	3.213973350000
61	1	0.0	6.039817280000	11.344696660000	2.082940640000
62	1	0.0	8.476972010000	15.590290490000	2.102768020000
63	1	0.0	8.390933020000	11.188509930000	3.917865930000
64	1	0.0	5.918777230000	15.418572520000	3.925655180000
65	2	0.0	1.304206090000	1.576807500000	6.600867610000
66	2	0.0	3.762011140000	5.794898800000	6.640483360000
67	2	0.0	3.060739570000	15.604686750000	8.793714080000
68	2	0.0	0.600923850000	2.913734080000	8.793220990000
69	2	0.0	2.677291230000	1.276267780000	8.871272610000
70	2	0.0	0.220552520000	5.506044660000	8.928660410000
71	2	0.0	1.057322720000	4.380852130000	6.635528300000
72	2	0.0	3.516361300000	8.594174790000	6.606857060000
73	2	0.0	0.232531690000	0.296185470000	8.706317180000
74	2	0.0	2.691350290000	4.518639450000	8.719489590000
75	1	0.0	1.195267530000	1.519214760000	8.242094950000
76	1	0.0	3.657506350000	5.744318630000	8.279273730000
77	1	0.0	3.606375220000	0.092172190000	8.259217040000
78	1	0.0	1.152253780000	4.345283740000	8.271952950000
79	2	0.0	6.204089640000	1.584443410000	6.648212660000
80	2	0.0	8.665244050000	5.793135410000	6.649829290000
81	2	0.0	7.970815060000	15.608137400000	8.854468220000
82	2	0.0	5.513821670000	2.919183640000	8.853213980000
83	2	0.0	7.581599400000	1.274777260000	8.933821340000
84	2	0.0	5.129188080000	5.505128870000	8.932624550000
85	2	0.0	5.966820270000	4.375175140000	6.651833910000
86	2	0.0	8.423484430000	8.595978830000	6.589144960000
87	2	0.0	5.140710760000	0.292395730000	8.718503090000
88	2	0.0	7.596755720000	4.524212420000	8.773342280000
89	1	0.0	6.104577910000	1.525247640000	8.290437770000
90	1	0.0	8.560456550000	5.741333230000	8.290842240000
91	1	0.0	8.498573510000	0.095172890000	8.288490010000
92	1	0.0	6.064508970000	4.340460640000	8.294182450000
93	2	0.0	1.302799930000	10.016637310000	6.618824110000
94	2	0.0	3.755030290000	14.241877070000	6.640414830000
95	2	0.0	3.053707350000	7.145375770000	8.795729280000
96	2	0.0	0.603846040000	11.369326800000	8.783328390000
97	2	0.0	2.679831650000	9.728479750000	8.873589990000
98	2	0.0	0.228774140000	13.953144970000	8.875791730000
99	2	0.0	1.069769180000	12.867699580000	6.594045590000
100	2	0.0	3.514124420000	0.146454940000	6.625537070000
101	2	0.0	0.235214010000	8.736915700000	8.713093670000
102	2	0.0	2.692160140000	12.963205380000	8.712204760000
103	1	0.0	1.195212200000	9.965723570000	8.256608450000
104	1	0.0	3.656698370000	14.197072240000	8.278878480000
105	1	0.0	3.613239790000	8.562190250000	8.243705420000
106	1	0.0	1.160735550000	12.791981260000	8.231991860000
107	2	0.0	6.207089930000	10.019891220000	6.618962170000
108	2	0.0	8.666427780000	14.301812890000	6.649437620000
109	2	0.0	7.960280680000	7.148990740000	8.792652560000
110	2	0.0	5.510512720000	11.367144580000	8.789820130000
111	2	0.0	7.590065940000	9.727530920000	8.868465970000
112	2	0.0	5.128392260000	13.946359000000	8.932121320000
113	2	0.0	5.970906880000	12.875032440000	6.630448040000
114	2	0.0	8.369577710000	0.145307740000	6.653780280000
115	2	0.0	5.146423040000	8.740540400000	8.710691980000
116	2	0.0	7.604681370000	12.969426840000	8.713865420000
117	1	0.0	6.106343560000	9.968571920000	8.255201230000
118	1	0.0	8.562822660000	14.214192080000	8.291810440000
119	1	0.0	8.520322370000	8.561666620000	8.228699410000
120	1	0.0	6.064948250000	12.798052290000	8.265034740000
121	1	0.0	12.044515200000	0.596136200000	5.717580060000
122	1	0.0	14.491811200000	4.807704420000	5.722191980000
123	2	0.0	12.630030610000	1.272269440000	4.358467470000
124	2	0.0	10.120270480000	5.498608460000	4.357078710000
125	2	0.0	12.267643560000	3.461464820000	2.903940380000
126	2	0.0	9.805511980000	7.677638250000	2.897136420000
127	2	0.0	13.568142100000	3.544095330000	5.282816300000
128	2	0.0	11.117294810000	7.769550060000	5.272528990000
129	2	0.0	10.399484370000	3.908684400000	1.183545980000
130	2	0.0	12.881593440000	8.089399080000	1.117229020000
131	2	0.0	9.831537720000	2.409776450000	3.269584900000
132	2	0.0	12.261395700000	6.621866270000	3.211751190000
133	1	0.0	10.940972370000	2.828100180000	2.106481370000
134	1	0.0	13.389873930000	7.040946930000	2.091690840000
135	1	0.0	13.300538860000	2.696176830000	3.922881630000
136	1	0.0	10.830129490000	6.908276560000	3.924452870000
137	1	0.0	16.910805580000	0.596608160000	5.711637920000
138	1	0.0	19.396671950000	4.808349970000	5.716268530000
139	2	0.0	17.478512500000	1.282750220000	4.350612590000
140	2	0.0	15.026973690000	5.500467310000	4.353242670000
141	2	0.0	17.172189990000	3.467994160000	2.899292530000
142	2	0.0	14.711776400000	7.680298180000	2.898152450000
143	2	0.0	18.472112540000	3.542467740000	5.279884750000
144	2	0.0	16.022609880000	7.765272700000	5.277183760000
145	2	0.0	15.309345310000	3.913183390000	1.125859710000
146	2	0.0	17.773654790000	8.157774600000	1.174896300000
147	2	0.0	14.728116860000	2.409875520000	3.203697730000
148	2	0.0	17.165302490000	6.619278960000	3.217606170000
149	1	0.0	15.851485120000	2.865135160000	2.084450870000
150	1	0.0	18.287559590000	7.084232460000	2.118716080000
151	1	0.0	18.199304090000	2.689007280000	3.922987470000
152	1	0.0	15.731707810000	6.911565160000	3.927658500000
153	1	0.0	12.040373880000	9.048811590000	5.682527970000
154	1	0.0	14.487459850000	13.315179150000	5.715530800000
155	2	0.0	12.573707290000	9.787415850000	4.341900580000
156	2	0.0	10.121163000000	14.013789670000	4.351926800000
157	2	0.0	12.250680820000	11.968593200000	2.893078530000
158	2	0.0	9.810056970000	16.193454800000	2.902826670000
159	2	0.0	13.563236790000	12.051445640000	5.275944760000
160	2	0.0	11.114031210000	16.279372170000	5.281405290000
161	2	0.0	10.402463030000	12.386117670000	1.120457770000
162	2	0.0	12.822894270000	16.626982330000	1.123759470000
163	2	0.0	9.812631040000	10.860838340000	3.199063920000
164	2	0.0	12.260977530000	15.135292570000	3.212924450000
165	1	0.0	10.938311670000	11.321544650000	2.063552140000
166	1	0.0	13.367133450000	15.583027240000	2.085088740000
167	1	0.0	13.284921500000	11.199629870000	3.914747180000
168	1	0.0	10.831132710000	15.423685040000	3.930425770000
169	1	0.0	16.960168380000	9.030305090000	5.693197250000
170	1	0.0	19.395176080000	13.279578260000	5.687684480000
171	2	0.0	17.543544690000	9.714394780000	4.342979830000
172	2	0.0	15.024379020000	14.012865870000	4.350544310000
173	2	0.0	17.172187250000	11.907303170000	2.894807900000
174	2	0.0	14.704143120000	16.191879420000	2.882498730000
175	2	0.0	18.481765740000	11.995169640000	5.269482650000
176	2	0.0	15.955205680000	16.297272110000	5.278143020000
177	2	0.0	15.308209340000	12.385700750000	1.120075090000
178	2	0.0	17.728983670000	16.687237630000	1.181928880000
179	2	0.0	14.719072290000	10.916678890000	3.205349680000
180	2	0.0	17.160065510000	15.138828500000	3.228067020000
181	1	0.0	15.847279170000	11.319542570000	2.059646870000
182	1	0.0	18.267291380000	15.607778280000	2.107478710000
183	1	0.0	18.210427480000	11.141025320000	3.909326820000
184	1	0.0	15.718329800000	15.427678180000	3.925345250000
185	2	0.0	11.117774450000	1.580796500000	6.643346530000
186	2	0.0	13.568683690000	5.790501690000	6.648061450000
187	2	0.0	12.876206230000	15.608774320000	8.853627100000
188	2	0.0	10.419931860000	2.916592820000	8.850981960000
189	2	0.0	12.487356020000	1.273193240000	8.932014770000
190	2	0.0	10.036790190000	5.504492630000	8.934543740000
191	2	0.0	10.876251560000	4.376193680000	6.653770050000
192	2	0.0	13.328602100000	8.595454590000	6.586119290000
193	2	0.0	10.044166460000	0.293273110000	8.714495180000
194	2	0.0	12.503412950000	4.523858830000	8.774198410000
195	1	0.0	11.010722320000	1.523093080000	8.285722120000
196	1	0.0	13.465788570000	5.741149900000	8.290291740000
197	1	0.0	13.409317160000	0.094868930000	8.290696770000
198	1	0.0	10.970720240000	4.339740680000	8.295828540000
199	2	0.0	16.014367990000	1.588041130000	6.649546060000
200	2	0.0	18.476733590000	5.796194090000	6.640325090000
201	2	0.0	17.777563440000	15.600806830000	8.794968060000
202	2	0.0	15.325249420000	2.918900070000	8.853470480000
203	2	0.0	17.394361150000	1.270683730000	8.931290740000
204	2	0.0	14.943317240000	5.503871870000	8.932634000000
205	2	0.0	15.771838810000	4.374183210000	6.645519720000
206	2	0.0	18.232359870000	8.591406730000	6.621590250000
207	2	0.0	14.952810000000	0.292570620000	8.721129050000
208	2	0.0	17.411620570000	4.515362400000	8.720401620000
209	1	0.0	15.915645720000	1.524224610000	8.291438480000
210	1	0.0	18.366377740000	5.748050220000	8.279847480000
211	1	0.0	18.311234300000	0.096806430000	8.272759180000
212	1	0.0	15.869924510000	4.338305730000	8.284450880000
213	2	0.0	11.112768280000	10.021047350000	6.613066900000
214	2	0.0	13.571548500000	14.302548530000	6.649393290000
215	2	0.0	12.867245390000	7.149296960000	8.791769610000
216	2	0.0	10.416602360000	11.366367530000	8.789007810000
217	2	0.0	12.495171210000	9.727106540000	8.866533670000
218	2	0.0	10.035765790000	13.947601120000	8.934871910000
219	2	0.0	10.868896440000	12.880158610000	6.633132540000
220	2	0.0	13.307822860000	0.148315470000	6.653252460000
221	2	0.0	10.051541320000	8.740622880000	8.706522510000
222	2	0.0	12.509660830000	12.969054200000	8.713490720000
223	1	0.0	11.011729870000	9.968525060000	8.250199940000
224	1	0.0	13.467215270000	14.213996410000	8.291305420000
225	1	0.0	13.425553060000	8.562170590000	8.225512170000
226	1	0.0	10.968709360000	12.798608380000	8.266945100000
227	2	0.0	16.022364830000	10.021557000000	6.595073100000
228	2	0.0	18.467108910000	14.243573010000	6.623334260000
229	2	0.0	17.730113710000	7.141908940000	8.793008480000
230	2	0.0	15.320141250000	11.365417390000	8.785354290000
231	2	0.0	17.394831330000	9.734831540000	8.872009170000
232	2	0.0	14.940347940000	13.947962160000	8.935021960000
233	2	0.0	15.772994050000	12.880329070000	6.632469760000
234	2	0.0	18.175364740000	0.146273030000	6.639791410000
235	2	0.0	14.958277400000	8.742522420000	8.701453140000
236	2	0.0	17.412651280000	12.965859220000	8.714945610000
237	1	0.0	15.915542150000	9.971286970000	8.237545760000
238	1	0.0	18.368688900000	14.199099470000	8.260062220000
239	1	0.0	18.320024840000	8.557276780000	8.255469790000
240	1	0.0	15.871865650000	12.798811970000	8.266598990000
