240
Lattice="19.6230000000 0.0000000000 0.0000000000 0.0000000000 16.9480000000 0.0000000000 0.0000000000 0.0000000000 22.0000000000" Properties=species:S:1:pos:R:3 pbc="T T T"
Si       2.2297805283    0.6019516950    5.7004234650
Si       4.6811188433    4.8196191450    5.7323766783
O        2.8114512367    1.2865217650    4.3475921367
O        0.3099436433    5.5018343283    4.3500111817
O        2.4573272617    3.4724543117    2.9011744117
O        0.0017063300    7.6830424717    2.9033520317
O        3.7587575783    3.5568950217    5.2798387717
O        1.3030599667    7.7640794483    5.2805412567
O        0.6456882000    3.9159794000    1.1210447000
O        3.0672886300    8.2141261400    1.1815543900
O        0.0045393667    2.4070925617    3.2011472817
O        2.4531948250    6.6260637533    3.2084791917
Si       1.1455019600    2.8505524700    2.0824412700
Si       3.5695465000    7.1119067100    2.0992223400
Si       3.4956962533    2.7060500017    3.9204590250
Si       1.0252439467    6.9084054500    3.9304407700
Si       7.1107111933    0.6042871383    5.7279677733
Si       9.5886964217    4.8291918483    5.7316749350
O        7.6667334650    1.2982956333    4.3682226317
O        5.2182713500    5.5182512700    4.3667932883
O        7.3763377133    3.4636605317    2.8962409717
O        4.9075485150    7.6857070067    2.9051402817
O        8.6547081717    3.5606419950    5.3161428233
O        6.2266189750    7.7825873750    5.2877183750
O        5.5552869100    3.9122293800    1.1211052600
O        7.9772757100    8.0877836100    1.1142278700
O        4.9193947850    2.4124477950    3.1984312933
O        7.3569909800    6.6339598983    3.2112708667
Si       6.0596493900    2.8461686500    2.0790016200
Si       8.4856619300    7.0396571000    2.0888678200
Si       8.3910225567    2.7058351117    3.9522631583
Si       5.9338929150    6.9248169517    3.9398127967
Si       2.2251773650    9.0340953950    5.7111165900
Si       4.6766090550   13.2871454750    5.7059039250
O        2.7798717383    9.7273849067    4.3521731750
O        0.3064019617   14.0182041600    4.3425886333
O        2.4742678283   11.9006397317    2.8906204483
O        0.0097334200   16.1966141000    2.8407775700
O        3.7638845750   12.0027358967    5.2760739583
O        1.3027661283   16.2822723850    5.2713040550
O        0.6489506000   12.3848644500    1.1164698100
O        3.0729843600   16.6863433000    1.1214483800
O        0.0226439283   10.8745318217    3.2022465500
O        2.4541903800   15.1418995417    3.1961046667
Si       1.1513625500   11.3198264700    2.0766695000
Si       3.5754940500   15.6056862400    2.0654913200
Si       3.4951936067   11.1356013750    3.9273061317
Si       1.0242292017   15.4247908900    3.9184256950
Si       7.1508895617    9.0581018600    5.7246881350
Si       9.5858645617   13.3049786383    5.7472895250
O        7.6795019800    9.7863597550    4.3726559367
O        5.2122077650   14.0086448117    4.3512087217
O        7.3685452933   11.9459877167    2.8873638617
O        4.9008883533   16.1931180933    2.8955451150
O        8.6403530400   12.0779797250    5.2639904117
O        6.1998904533   16.2825490717    5.2781445817
O        5.4982352100   12.3871803600    1.1189184700
O        7.9744263300   16.6881142600    1.1800083500
O        4.9240688383   10.8543029950    3.2011113517
O        7.3521733400   15.1326069167    3.2128545717
Si       6.0398172800   11.3446966600    2.0829406400
Si       8.4769720100   15.5902904900    2.1027680200
Si       8.3997076250   11.1856993633    3.9306004517
Si       5.9202196667   15.4224810283    3.9290604233
O        1.2801965100    1.5786020550    6.6071976617
O        3.7482881450    5.7959332367    6.6549144883
O        3.0480694500   15.6208481900    8.7983502333
O        0.5784619617    2.9263718600    8.7920693817
O        2.6533429967    1.2879402400    8.8820868283
O        0.2069878200    5.5184459633    8.9286333417
O        1.0498098517    4.3922148050    6.6400929650
O        3.5047495750    8.5954754700    6.6269641233
O        0.2052488800    0.3106965850    8.7184801450
O        2.6762630217    4.5303690633    8.7396512550
Si       1.1722240317    1.5283266400    8.2493365933
Si       3.6466408800    5.7529817550    8.2956029517
Si       3.5905869400    0.1109655083    8.2670350017
Si       1.1408080700    4.3565373883    8.2779521800
O        6.1937682383    1.5853348517    6.6591082233
O        8.6637578533    5.8167516817    6.6517545900
O        7.9691043783   15.6156397767    8.8656537167
O        5.5128660217    2.9328403583    8.8581183650
O        7.5695880817    1.2762621383    8.9472239100
O        5.1202635317    5.5155507450    8.9453711067
O        5.9570359733    4.3870412233    6.6625315350
O        8.4243737933    8.6198036867    6.6495048233
O        5.1241930900    0.3077228483    8.7307957167
O        7.5957675617    4.5463937783    8.7746382383
Si       6.0962497283    1.5340618633    8.3016546683
Si       8.5573142100    5.7713659233    8.2963262683
Si       8.4928306950    0.1021486817    8.3009878800
Si       6.0619882717    4.3563201083    8.3040930650
O        1.2898617000   10.0168530917    6.6228525517
O        3.7428627950   14.2558014383    6.6326034550
O        3.0438524417    7.1540914183    8.8174114883
O        0.5818355833   11.3818270767    8.7830263633
O        2.6550303683    9.7381147567    8.8848106800
O        0.2051399833   13.9626450650    8.8872184033
O        1.0570485500   12.8802539900    6.6018908267
O        3.5020914200    0.1720069683    6.6316070867
O        0.2062931800    8.7521554800    8.7221577150
O        2.6763700933   12.9849451700    8.7129867517
Si       1.1727069967    9.9746873000    8.2616277517
Si       3.6428701517   14.2158127850    8.2730680133
Si       3.5991832833    8.5739449567    8.2652973850
Si       1.1431460617   12.8065203767    8.2406765533
O        6.2046768783   10.0297023133    6.6384127067
O        8.6657117167   14.3049546667    6.6624402250
O        7.9581766033    7.1710929000    8.8168185117
O        5.4856895450   11.3849797817    8.7981212750
O        7.5725077200    9.7598344533    8.9058605833
O        5.1171344117   13.9686060217    8.9203379317
O        5.9592738517   12.8770297850    6.6329106683
O        8.3670362150    0.1568833500    6.6653634133
O        5.1301387417    8.7627271283    8.7357030617
O        7.5890942400   12.9810551167    8.7256683950
Si       6.0952852850    9.9861582633    8.2757081350
Si       8.5594906900   14.2184003883    8.3061530183
Si       8.5288291750    8.5991075167    8.2942639433
Si       6.0520196283   12.8104594100    8.2695393717
Si      12.0332509233    0.6084556983    5.7282404983
Si      14.4835820833    4.8232370250    5.7361639033
O       12.6204498000    1.2856658033    4.3695329750
O       10.1255761783    5.5104903133    4.3554197250
O       12.2672655283    3.4623833500    2.9037705733
O        9.8200349767    7.6667106833    2.8740172150
O       13.5646593200    3.5567443150    5.2915735017
O       11.1248319583    7.7763128467    5.2750198167
O       10.3994843700    3.9086844000    1.1835459800
O       12.8815934400    8.0893990800    1.1172290200
O        9.8274776817    2.3974161167    3.2590091733
O       12.2739840800    6.6190476083    3.2189713733
Si      10.9409723700    2.8281001800    2.1064813700
Si      13.3898739300    7.0409469300    2.0916908400
Si      13.2998440633    2.7050649283    3.9321847200
Si      10.8390458450    6.9200657167    3.9280826867
Si      16.8975830000    0.6092330850    5.7131321083
Si      19.3898345933    4.8141504067    5.7189525050
O       17.4670808250    1.2934785483    4.3502105550
O       15.0280340583    5.5016120900    4.3626066883
O       17.1756384383    3.4694161450    2.8896589217
O       14.7279663767    7.6564506050    2.8719859783
O       18.4721900967    3.5441714183    5.2785488817
O       16.0081327700    7.7797476533    5.2627935083
O       15.3093453100    3.9131833900    1.1258597100
O       17.7736547900    8.1577746000    1.1748963000
O       14.7264205800    2.4154414433    3.2061874633
O       17.1746283600    6.6091699967    3.2237269733
Si      15.8514851200    2.8651351600    2.0844508700
Si      18.2875595900    7.0842324600    2.1187160800
Si      18.1992674150    2.6930942983    3.9209614017
Si      15.7365992817    6.9050514417    3.9266874833
Si      11.9963454783    9.0930399183    5.7078260033
Si      14.4630603000   13.3278726950    5.7132096767
O       12.5944440850    9.7751524217    4.3570982467
O       10.1584082783   13.9992958383    4.3917103017
O       12.2670836767   11.9439949217    2.8688284483
O        9.8103478233   16.1695311400    2.9137225767
O       13.5502912700   12.0638645633    5.2609178033
O       11.1037889100   16.2911582017    5.2905057700
O       10.4024630300   12.3861176700    1.1204577700
O       12.8228942700   16.6269823300    1.1237594700
O        9.8225643317   10.8689915800    3.2041149817
O       12.2666048217   15.1363648000    3.2222173000
Si      10.9383116700   11.3215446500    2.0635521400
Si      13.3671334500   15.5830272400    2.0850887400
Si      13.2898270833   11.1865458200    3.9161360500
Si      10.8369723433   15.4146290267    3.9502903067
Si      16.9393077550    9.0438360533    5.6943748017
Si      19.3863707033   13.2947049767    5.6920881833
O       17.5329563417    9.7281257450    4.3463998583
O       15.0107083367   14.0267906950    4.3511142150
O       17.1772989900   11.9064879400    2.8827015567
O       14.7079108183   16.1915189667    2.8714543967
O       18.4672738467   12.0160826150    5.2678959367
O       15.9519480917   16.3048725700    5.2749252433
O       15.3082093400   12.3857007500    1.1200750900
O       17.7289836700   16.6872376300    1.1819288800
O       14.7282910667   10.9055383617    3.2060632250
O       17.1604020567   15.1398741033    3.2282248350
Si      15.8472791700   11.3195425700    2.0596468700
Si      18.2672913800   15.6077782800    2.1074787100
Si      18.2087964600   11.1509077700    3.9135926800
Si      15.7170692017   15.4325082500    3.9246962933
O       11.1060204967    1.5927276800    6.6535538583
O       13.5679574550    5.8154777517    6.6586432167
O       12.8499869983   15.6205686167    8.8541679767
O       10.4087463600    2.9346266600    8.8519048033
O       12.4777465417    1.2899827050    8.9433428317
O       10.0366736033    5.5269231133    8.9334436300
O       10.8660356717    4.3883404200    6.6545397633
O       13.2525363283    8.6503035517    6.6606015300
O       10.0368558033    0.3078173117    8.7276105333
O       12.5005958050    4.5362228283    8.7650218933
Si      11.0008719833    1.5386853817    8.2963848383
Si      13.4562363450    5.7670683083    8.3023632600
Si      13.3930761400    0.1050145033    8.3012830433
Si      10.9649437367    4.3568818017    8.2963691800
O       15.9893317633    1.5914882783    6.6484441883
O       18.4633428033    5.7970492667    6.6412787517
O       17.7528646067   15.6109648550    8.7948826767
O       15.3009180217    2.9239690283    8.8543280417
O       17.3694305033    1.2823619917    8.9319355833
O       14.9319197367    5.5158591533    8.9450267167
O       15.7610094817    4.3852744650    6.6586461883
O       18.2070315033    8.6031537067    6.6257167567
O       14.9387114783    0.2942234533    8.7302384617
O       17.3983451867    4.5186279283    8.7311188950
Si      15.8914671667    1.5301554400    8.2916291500
Si      18.3502830550    5.7523511317    8.2823155000
Si      18.2872790067    0.1078922933    8.2771097050
Si      15.8537631267    4.3460187350    8.2983071817
O       11.0308087883   10.0580390183    6.5627230917
O       13.5364565050   14.3035274400    6.6484264967
O       12.8437375583    7.1587273667    8.8253238633
O       10.4193591683   11.3793150467    8.9316346500
O       12.4742305933    9.7237686167    9.0184617233
O       10.0225407167   13.9473876983    8.9627138617
O       10.8259975117   12.8452400983    6.6945186583
O       13.2971735467    0.1613011817    6.6628216017
O       10.0266209700    8.7774323833    8.8413674633
O       12.4964679517   12.9699867200    8.7258743283
Si      10.9866355067    9.9794034567    8.6251666167
Si      13.4349304200   14.2209770000    8.2923234683
Si      13.3665479317    8.5975955750    8.2944038100
Si      10.9478373367   12.7712950767    8.3275722767
O       15.9923259300   10.0215892333    6.5973810017
O       18.4574394200   14.2575044983    6.6273823567
O       17.7134267600    7.1464555383    8.7927337517
O       15.2846035650   11.3812787933    8.7742333350
O       17.3596460533    9.7452200383    8.8720462250
O       14.9162646967   13.9707191650    8.9230668233
O       15.7507181367   12.8914732800    6.6248168233
O       18.1608425067    0.1596346200    6.6424956417
O       14.9173512433    8.7659289833    8.7254056067
O       17.3864484450   12.9755473783    8.7108601333
Si      15.8762563200    9.9795823933    8.2411776767
Si      18.3469738383   14.2081784200    8.2642108167
Si      18.2907196883    8.5694880800    8.2609412000
Si      15.8434893700   12.8134107767    8.2606423750
