240
Lattice="19.6230000000 0.0000000000 0.0000000000 0.0000000000 16.9480000000 0.0000000000 0.0000000000 0.0000000000 22.0000000000" Properties=species:S:1:pos:R:3 pbc="T T T"
Si       2.1668265200    0.6835577200    5.7200280400
Si       4.6487711100    4.8851924700    5.7817077700
O        2.7545370200    1.3510575900    4.3545774700
O        0.3080873100    5.5065848200    4.3568988400
O        2.4559175200    3.5051093200    2.8884590200
O        0.0027158800    7.6796393300    2.8998491900
O        3.7571729200    3.6180347800    5.2714390800
O        1.3064140500    7.7766990400    5.2812235900
O        0.6456882000    3.9159794000    1.1210447000
O        3.0672886300    8.2141261400    1.1815543900
O        0.0025939500    2.3962949700    3.1965903900
O        2.4523919000    6.6256327700    3.2058827000
Si       1.1455019600    2.8505524700    2.0824412700
Si       3.5695465000    7.1119067100    2.0992223400
Si       3.4893035700    2.7503312100    3.9265598500
Si       1.0285388300    6.9103789000    3.9411531200
Si       7.0992407100    0.6507848800    5.7817917900
Si       9.5687005300    4.9409563400    5.7354577100
O        7.6657834900    1.3662252000    4.4315982900
O        5.2190350000    5.6030391200    4.4358442800
O        7.4100737300    3.4597655900    2.8369149800
O        4.9103904900    7.6884649400    2.9126588900
O        8.6470566300    3.6813894700    5.2509389400
O        6.2992642000    7.8443746500    5.3516183000
O        5.5552869100    3.9122293800    1.1211052600
O        7.9772757100    8.0877836100    1.1142278700
O        4.9142731600    2.4162029200    3.2015382100
O        7.3597513300    6.6923811900    3.2166214000
Si       6.0596493900    2.8461686500    2.0790016200
Si       8.4856619300    7.0396571000    2.0888678200
Si       8.4059683400    2.7410964700    3.9496149000
Si       5.9562484400    7.0019947600    4.0023945300
Si       2.2098595900    9.0487905200    5.7649678900
Si       4.6434896800   13.3322852500    5.7152994500
O        2.8337993300    9.7279643400    4.4192686000
O        0.2974721200   14.0683391100    4.3578310500
O        2.5322455200   11.8383359900    2.8304422900
O        0.0097334200   16.1966141000    2.8407775700
O        3.7433373000   12.0450371300    5.2677891500
O        1.2968270700   16.3347362100    5.2606717800
O        0.6489506000   12.3848644500    1.1164698100
O        3.0729843600   16.6863433000    1.1214483800
O        0.0590464200   10.9774831300    3.2793090500
O        2.4520823300   15.1445203500    3.1946086500
Si       1.1513625500   11.3198264700    2.0766695000
Si       3.5754940500   15.6056862400    2.0654913200
Si       3.5191988900   11.1308889500    3.9468097400
Si       1.0277340100   15.4595708900    3.9212612700
Si       7.2311557700    9.1066235100    5.9083821100
Si       9.5927967700   13.2498457800    5.9019307500
O        7.7522725300    9.7872590300    4.5096506700
O        5.2140974900   14.0237349700    4.3559274300
O        7.4298888100   11.8137728500    2.8273856200
O        4.9009071200   16.1885149600    2.8932507900
O        8.5334873900   12.2147808500    5.2180074200
O        6.2024835700   16.3355484300    5.2731530400
O        5.4982352100   12.3871803600    1.1189184700
O        7.9744263300   16.6881142600    1.1800083500
O        4.9601620800   10.8662606700    3.2141282600
O        7.3470357400   15.1290415500    3.2072606800
Si       6.0398172800   11.3446966600    2.0829406400
Si       8.4769720100   15.5902904900    2.1027680200
Si       8.4435806500   11.1716465300    3.9942730600
Si       5.9274318500   15.4420235700    3.9460866400
O        1.1601486100    1.5875748300    6.6388479200
O        3.6796731700    5.8011054200    6.7270701300
O        2.9847188500   15.7016553900    8.8215310000
O        0.4661525200    2.9895607600    8.7863113400
O        2.5336018300    1.3463025400    8.9361579200
O        0.1391643200    5.5804524800    8.9284980000
O        1.0122455100    4.4490281800    6.6629162900
O        3.4466909500    8.6019788700    6.7274994400
O        0.0688348300    0.3832521600    8.7792949700
O        2.6008266800    4.5890171300    8.8404595800
Si       1.0570065400    1.5738860400    8.2855448100
Si       3.5923135300    5.7962973800    8.3772490600
Si       3.5116455400    0.2049321000    8.3061248100
Si       1.0835795200    4.4128056300    8.3079483300
O        6.1421612300    1.5897920600    6.7135860400
O        8.6563268700    5.9348330400    6.6613810900
O        7.9605509700   15.6531516600    8.9215812000
O        5.5080877800    3.0011239500    8.8826402900
O        7.5095314900    1.2836865300    9.0142367600
O        5.0756407900    5.5676601200    9.0091038900
O        5.9081144900    4.4463716400    6.7160196600
O        8.4288206100    8.7389279700    6.9513041400
O        5.0416047400    0.3843584400    8.7922588500
O        7.5908267700    4.6573005700    8.7811180300
Si       6.0546088200    1.5781329800    8.3577391600
Si       8.5416025100    5.9215293900    8.3237464100
Si       8.4641166200    0.1370276400    8.3634772300
Si       6.0493847800    4.4356174500    8.3536461400
O        1.2251705500   10.0179320000    6.6429947600
O        3.6820253200   14.3254232800    6.5935465800
O        2.9945779000    7.1976696600    8.9258225300
O        0.4717833000   11.4443284600    8.7815162300
O        2.5310239600    9.7862897900    8.9409141300
O        0.0869692000   14.0101455400    8.9443517700
O        0.9934454000   12.9430260400    6.6411170100
O        3.4419264200    0.2997671100    6.6619571700
O        0.0616890300    8.8283543800    8.7674779400
O        2.5974198600   13.0936441200    8.7168967100
Si       1.0601809800   10.0195059500    8.2867242600
Si       3.5737290600   14.3095155100    8.2440156800
Si       3.5289007500    8.6327184900    8.3732572100
Si       1.0551986200   12.8792159600    8.2841000200
O        6.1926116200   10.0787577800    6.7356653900
O        8.6621314000   14.3206635500    6.7274532500
O        7.9476562200    7.2816037000    8.9376482700
O        5.3615736700   11.4741557900    8.8396270000
O        7.4847166200    9.9213521200    9.0928336500
O        5.0608451700   14.0798411300    8.8614209900
O        5.9011087100   12.8870165100    6.6452238100
O        8.3543287400    0.2147614000    6.7232790800
O        5.0487172500    8.8736607700    8.8607584700
O        7.5111585900   13.0391965000    8.7846832700
Si       6.0399939100   10.0740899800    8.3782426600
Si       8.5428308400   14.2394419300    8.3778659100
Si       8.5713632000    8.7863120000    8.6220866100
Si       5.9873765200   12.8724950100    8.2920625300
Si      11.9769295400    0.6700531900    5.7815426900
Si      14.4424365000    4.9009000500    5.8060235200
O       12.5725457500    1.3526476200    4.4248605000
O       10.1521046700    5.5698995800    4.3471248000
O       12.2653753700    3.4669760000    2.9029215400
O        9.8926499600    7.6120728500    2.7584211900
O       13.5472454200    3.6199892400    5.3353595100
O       11.1625177000    7.8101267800    5.2874739500
O       10.3994843700    3.9086844000    1.1835459800
O       12.8815934400    8.0893990800    1.1172290200
O        9.8071774900    2.3356144500    3.2061305400
O       12.3369259800    6.6049543000    3.2550722900
Si      10.9409723700    2.8281001800    2.1064813700
Si      13.3898739300    7.0409469300    2.0916908400
Si      13.2963700800    2.7495054200    3.9787001700
Si      10.8836276200    6.9790115000    3.9462317700
Si      16.8314701000    0.6723577100    5.7206030500
Si      19.3556478100    4.8431525900    5.7323723800
O       17.4099224500    1.3471201900    4.3482003800
O       15.0333359000    5.5073359900    4.4094267800
O       17.1928806800    3.4765260700    2.8414908800
O       14.8089162600    7.5372127300    2.7411536200
O       18.4725778800    3.5526898100    5.2718695400
O       15.9357472200    7.8521224200    5.1908422500
O       15.3093453100    3.9131833900    1.1258597100
O       17.7736547900    8.1577746000    1.1748963000
O       14.7179391800    2.4432710600    3.2186361300
O       17.2212577100    6.5586251800    3.2543309900
Si      15.8514851200    2.8651351600    2.0844508700
Si      18.2875595900    7.0842324600    2.1187160800
Si      18.1990840400    2.7135293900    3.9108310600
Si      15.7610566400    6.8724828500    3.9218324000
Si      11.7762034700    9.3141815600    5.8343161700
Si      14.3410625500   13.3913404200    5.7016040600
O       12.6981280600    9.7138352800    4.4330865800
O       10.3446346700   13.9268266800    4.5906278100
O       12.3490979600   11.8210035300    2.7475780400
O        9.8118020900   16.0499128400    2.9682021100
O       13.4855636700   12.1259591800    5.1857830200
O       11.0525774100   16.3500883600    5.3360081700
O       10.4024630300   12.3861176700    1.1204577700
O       12.8228942700   16.6269823300    1.1237594700
O        9.8722307900   10.9097577800    3.2293702900
O       12.2947412800   15.1417259500    3.2686815500
Si      10.9383116700   11.3215446500    2.0635521400
Si      13.3671334500   15.5830272400    2.0850887400
Si      13.3143550000   11.1211255700    3.9230804000
Si      10.8661705100   15.3693489600    4.0496129900
Si      16.8350046300    9.1114908700    5.7002625600
Si      19.3423438200   13.3703385600    5.7141067000
O       17.4800146000    9.7967805700    4.3635000000
O       14.9423549200   14.0964148200    4.3539637400
O       17.2028576900   11.9024117900    2.8221698400
O       14.7267493100   16.1897167000    2.8162327300
O       18.3948143800   12.1206474900    5.2599623700
O       15.9356601500   16.3428748700    5.2588363600
O       15.3082093400   12.3857007500    1.1200750900
O       17.7289836700   16.6872376300    1.1819288800
O       14.7743849500   10.8498357200    3.2096309500
O       17.1620847900   15.1451021200    3.2290139100
Si      15.8472791700   11.3195425700    2.0596468700
Si      18.2672913800   15.6077782800    2.1074787100
Si      18.2006413600   11.2003200200    3.9349219800
Si      15.7107662100   15.4566586000    3.9214515100
O       11.0472507300    1.6523835800    6.7045905000
O       13.5643262800    5.9403580600    6.7115520500
O       12.7188908400   15.6795401000    8.8568723600
O       10.3528188600    3.0247958600    8.8565190200
O       12.4296991500    1.3739300300    8.9999831400
O       10.0360906700    5.6390755300    8.9279430800
O       10.8149562300    4.4490741200    6.6583883300
O       12.8722074700    8.9245483600    7.0330127300
O       10.0003025200    0.3805383200    8.7931873000
O       12.4865100800    4.5980428200    8.7191393100
Si      10.9516203000    1.6166468900    8.3496984300
Si      13.4084752200    5.8966603500    8.3627208600
Si      13.3118710400    0.1557423700    8.3542144100
Si      10.9360612200    4.4425874100    8.2990723800
O       15.8641506300    1.6087240200    6.6429348300
O       18.3963888700    5.8013251500    6.6460470600
O       17.6293704400   15.6617549800    8.7944557600
O       15.1792610300    2.9493138200    8.8586158500
O       17.2447772700    1.3407533000    8.9351598000
O       14.8749322200    5.5757955700    9.0069903000
O       15.7068628400    4.4407307400    6.7242785300
O       18.0803896700    8.6618885900    6.6463492900
O       14.8682188700    0.3024876200    8.7757855200
O       17.3319682700    4.5349555700    8.7847052700
Si      15.7705744000    1.5598095900    8.2925825000
Si      18.2698096300    5.7738556900    8.2946556000
Si      18.1675025400    0.1633216100    8.2988623300
Si      15.7729562100    4.3845837600    8.3675886900
O       10.6210113300   10.2429973600    6.3110040500
O       13.3609965300   14.3084219900    6.6435925300
O       12.7261984000    7.2058794000    8.9930951300
O       10.4331432100   11.4440526300    9.6447688500
O       12.3695275100    9.7070790000    9.7781019900
O        9.9564153500   13.9463205900    9.1019236200
O       10.6115028700   12.6706475400    7.0014492500
O       13.2439269800    0.2262297400    6.7106673100
O        9.9020192200    8.9614799000    9.5155922300
O       12.4305035600   12.9746493200    8.7877923700
Si      10.8611636900   10.0337954400   10.5000000000
Si      13.2735061700   14.2558799500    8.2974137100
Si      13.0715222900    8.7747205000    8.6388620100
Si      10.8434772200   12.6347285600    8.6307081600
O       15.8421314300   10.0217504000    6.6089205100
O       18.4090919700   14.3271619400    6.6476228400
O       17.6299920100    7.1691885300    8.7913601100
O       15.1069151400   11.4605858100    8.7186285600
O       17.1837196700    9.7971625300    8.8722315000
O       14.7958484800   14.0845041900    8.8632911400
O       15.6393385700   12.9471943300    6.5865521400
O       18.0882313400    0.2264425700    6.6560168000
O       14.7127204600    8.8829618000    8.8451679400
O       17.2554342700   13.0239881700    8.6904327500
Si      15.6798271700   10.0210595100    8.2593372600
Si      18.2383985300   14.2535731700    8.2849538000
Si      18.1441939300    8.6305445800    8.2882982500
Si      15.7016079700   12.8864048100    8.2308593000
