    256
Lattice="19.6230000000 0.0000000000 0.0000000000 0.0000000000 16.9480000000 0.0000000000 0.0000000000 0.0000000000 22.0" Properties=species:S:1:pos:R:3 pbc="T T T"
 Si         2.2423713264        0.5856304857        5.6965025461
 Si         4.6875883938        4.8065044838        5.7225104591
  O         2.8228340806        1.2736145972        4.3461950722
  O         0.3103149086        5.5008842290        4.3486336471
  O         2.4576092112        3.4659233070        2.9037174928
  O         0.0015044181        7.6837231014        2.9040525953
  O         3.7590745087        3.5446670674        5.2815187086
  O         1.3023891544        7.7615555347        5.2804047933
  O         0.6456881978        3.9159793968        1.1210446966
  O         3.0672886306        8.2141261374        1.1815543862
  O         0.0049284465        2.4092520782        3.2020586556
  O         2.4533554097        6.6261499493        3.2089984945
 Si         1.1455019636        2.8505524696        2.0824412660
 Si         3.5695464997        7.1119067148        2.0992223405
 Si         3.4969747944        2.6971937569        3.9192388584
 Si         1.0245849745        6.9080107587        3.9282983008
 Si         7.1130052900       17.5429875898        5.7172029740
 Si         9.5926955995        4.8068389466        5.7309183786
  O         7.6669234629        1.2847097166        4.3555475018
  O         5.2181186184        5.5012937039        4.3529830877
  O         7.3695905116        3.4644395150        2.9081061722
  O         4.9069801172        7.6851554224        2.9036365584
  O         8.6562384769        3.5364925034        5.3291836027
  O         6.2120899281        7.7702299173        5.2749383879
  O         5.5552869141        3.9122293818        1.1211052635
  O         7.9772757137        8.0877836073        1.1142278691
  O         4.9204191079        2.4116967677        3.1978099088
  O         7.3564389105        6.6222756379        3.2102007646
 Si         6.0596493909        2.8461686504        2.0790016155
 Si         8.4856619334        7.0396571048        2.0888678242
 Si         8.3880333993        2.6987828389        3.9527928137
 Si         5.9294218076        6.9093813916        3.9272964452
 Si         2.2282409153        9.0311563679        5.7003463298
 Si         4.6832329314       13.2781175222        5.7040248237
  O         2.7690862234        9.7272690169        4.3387540874
  O         0.3081879297       14.0081771657        4.3395401489
  O         2.4626722877       11.9131004795        2.9026560788
  O        -0.0070441179       16.1943174006        2.8989467412
  O         3.7679940285       11.9942756534        5.2777309238
  O         1.3039539387       16.2717796176        5.2734305143
  O         0.6489505964       12.3848644544        1.1164698074
  O         3.0729843604       16.6863433025        1.1214483825
  O         0.0153634277       10.8539415637        3.1868340456
  O         2.4546119896       15.1413753809        3.1964038723
 Si         1.1513625534       11.3198264658        2.0766694974
 Si         3.5754940473       15.6056862372        2.0654913249
 Si         3.4903925459       11.1365438642        3.9234054142
 Si         1.0235282367       15.4178348870        3.9178585839
 Si         7.1348363172        9.0483975268        5.6879493431
 Si         9.5844781185       13.3160052115        5.7163612835
  O         7.6649478722        9.7861798990        4.3452569944
  O         5.2118298239       14.0056267840        4.3502649818
  O         7.3562765881       11.9724306865        2.8993595099
  O         4.9008846035       16.1940387208        2.8960039755
  O         8.6617261656       12.0506194985        5.2731870063
  O         6.1993718296       16.2719492000        5.2791428927
  O         5.4982352145       12.3871803565        1.1189184697
  O         7.9744263315       16.6881142643        1.1800083493
  O         4.9168501881       10.8519114570        3.1985079735
  O         7.3532008625       15.1333199929        3.2139733480
 Si         6.0398172763       11.3446966603        2.0829406410
 Si         8.4769720126       15.5902904931        2.1027680157
 Si         8.3909330184       11.1885099319        3.9178659331
 Si         5.9187772312       15.4185725160        3.9256551788
  O         1.3042060859        1.5768075015        6.6008676142
  O         3.7620111356        5.7948988041        6.6404833588
  O         3.0607395708       15.6046867475        8.7937140772
  O         0.6009238525        2.9137340762        8.7932209930
  O         2.6772912296        1.2762677791        8.8712726100
  O         0.2205525226        5.5060446598        8.9286604147
  O         1.0573227224        4.3808521320        6.6355283000
  O         3.5163613042        8.5941747927        6.6068570622
  O         0.2325316906       17.2441854693        8.7063171787
  O         2.6913502919        4.5186394506        8.7194895906
 Si         1.1952675317        1.5192147647        8.2420949516
 Si         3.6575063512        5.7443186300        8.2792737333
 Si         3.6063752239       17.0401721933        8.2592170364
 Si         1.1522537833        4.3452837389        8.2719529550
  O         6.2040896372        1.5844434085        6.6482126593
  O         8.6652440536        5.7931354133        6.6498292891
  O         7.9708150568       15.6081373997        8.8544682157
  O         5.5138216723        2.9191836390        8.8532139759
  O         7.5815994039        1.2747772573        8.9338213424
  O         5.1291880813        5.5051288718        8.9326245525
  O         5.9668202724        4.3751751439        6.6518339114
  O         8.4234844345        8.5959788255        6.5891449568
  O         5.1407107628       17.2403957277        8.7185030858
  O         7.5967557228        4.5242124183        8.7733422840
 Si         6.1045779129        1.5252476429        8.2904377696
 Si         8.5604565531        5.7413332269        8.2908422354
 Si         8.4985735072       17.0431728852        8.2884900127
 Si         6.0645089690        4.3404606411        8.2941824527
  O         1.3027999325       10.0166373066        6.6188241118
  O         3.7550302899       14.2418770688        6.6404148348
  O         3.0537073456        7.1453757681        8.7957292788
  O         0.6038460437       11.3693268024        8.7833283872
  O         2.6798316513        9.7284797536        8.8735899861
  O         0.2287741372       13.9531449698        8.8757917338
  O         1.0697691801       12.8676995812        6.5940455882
  O         3.5141244156       17.0944549426        6.6255370726
  O         0.2352140124        8.7369156976        8.7130936699
  O         2.6921601352       12.9632053786        8.7122047577
 Si         1.1952121989        9.9657235722        8.2566084476
 Si         3.6566983713       14.1970722398        8.2788784797
 Si         3.6132397919        8.5621902545        8.2437054152
 Si         1.1607355510       12.7919812597        8.2319918571
  O         6.2070899334       10.0198912201        6.6189621693
  O         8.6664277838       14.3018128922        6.6494376242
  O         7.9602806800        7.1489907371        8.7926525569
  O         5.5105127222       11.3671445803        8.7898201318
  O         7.5900659381        9.7275309241        8.8684659728
  O         5.1283922616       13.9463590031        8.9321213172
  O         5.9709068832       12.8750324364        6.6304480439
  O         8.3695777137       17.0933077396        6.6537802807
  O         5.1464230362        8.7405404037        8.7106919822
  O         7.6046813678       12.9694268376        8.7138654227
 Si         6.1063435572        9.9685719193        8.2552012300
 Si         8.5628226629       14.2141920798        8.2918104351
 Si         8.5203223717        8.5616666183        8.2286994121
 Si         6.0649482472       12.7980522865        8.2650347382
 Si        12.0445151988        0.5961362014        5.7175800552
 Si        14.4918112032        4.8077044205        5.7221919759
  O        12.6300306069        1.2722694403        4.3584674696
  O        10.1202704840        5.4986084643        4.3570787076
  O        12.2676435567        3.4614648175        2.9039403787
  O         9.8055119849        7.6776382547        2.8971364238
  O        13.5681421048        3.5440953331        5.2828163035
  O        11.1172948091        7.7695500557        5.2725289941
  O        10.3994843669        3.9086844011        1.1835459784
  O        12.8815934367        8.0893990809        1.1172290199
  O         9.8315377173        2.4097764458        3.2695848990
  O        12.2613956972        6.6218662662        3.2117511949
 Si        10.9409723671        2.8281001796        2.1064813669
 Si        13.3898739345        7.0409469315        2.0916908353
 Si        13.3005388555        2.6961768305        3.9228816273
 Si        10.8301294917        6.9082765610        3.9244528669
 Si        16.9108055764       17.5446081609        5.7116379212
 Si        19.3966719498        4.8083499666        5.7162685333
  O        17.4785125041        1.2827502230        4.3506125858
  O        15.0269736862        5.5004673087        4.3532426705
  O        17.1721899880        3.4679941585        2.8992925325
  O        14.7117764004        7.6802981814        2.8981524542
  O        18.4721125359        3.5424677365        5.2798847518
  O        16.0226098784        7.7652727018        5.2771837571
  O        15.3093453141        3.9131833885        1.1258597109
  O        17.7736547927        8.1577745986        1.1748963014
  O        14.7281168610        2.4098755195        3.2036977346
  O        17.1653024939        6.6192789590        3.2176061675
 Si        15.8514851154        2.8651351622        2.0844508699
 Si        18.2875595905        7.0842324587        2.1187160815
 Si        18.1993040933        2.6890072781        3.9229874681
 Si        15.7317078093        6.9115651602        3.9276584958
 Si        12.0403738781        9.0488115905        5.6825279688
 Si        14.4874598472       13.3151791517        5.7155307951
  O        12.5737072920        9.7874158510        4.3419005752
  O        10.1211630026       14.0137896670        4.3519268026
  O        12.2506808200       11.9685931970        2.8930785334
  O         9.8100569723       16.1934548045        2.9028266696
  O        13.5632367932       12.0514456352        5.2759447644
  O        11.1140312122       16.2793721680        5.2814052905
  O        10.4024630339       12.3861176689        1.1204577714
  O        12.8228942730       16.6269823261        1.1237594727
  O         9.8126310404       10.8608383425        3.1990639188
  O        12.2609775321       15.1352925657        3.2129244542
 Si        10.9383116737       11.3215446464        2.0635521383
 Si        13.3671334491       15.5830272442        2.0850887447
 Si        13.2849215044       11.1996298714        3.9147471842
 Si        10.8311327071       15.4236850405        3.9304257653
 Si        16.9601683822        9.0303050889        5.6931972548
 Si        19.3951760757       13.2795782552        5.6876844814
  O        17.5435446886        9.7143947773        4.3429798313
  O        15.0243790179       14.0128658719        4.3505443055
  O        17.1721872521       11.9073031696        2.8948079045
  O        14.7041431239       16.1918794225        2.8824987275
  O        18.4817657378       11.9951696362        5.2694826467
  O        15.9552056807       16.2972721099        5.2781430185
  O        15.3082093433       12.3857007544        1.1200750870
  O        17.7289836673       16.6872376294        1.1819288778
  O        14.7190722915       10.9166788914        3.2053496756
  O        17.1600655063       15.1388284954        3.2280670236
 Si        15.8472791736       11.3195425680        2.0596468744
 Si        18.2672913800       15.6077782780        2.1074787074
 Si        18.2104274796       11.1410253209        3.9093268246
 Si        15.7183298038       15.4276781838        3.9253452524
  O        11.1177744488        1.5807965016        6.6433465258
  O        13.5686836864        5.7905016948        6.6480614515
  O        12.8762062330       15.6087743209        8.8536270997
  O        10.4199318640        2.9165928192        8.8509819637
  O        12.4873560190        1.2731932434        8.9320147693
  O        10.0367901913        5.5044926261        8.9345437379
  O        10.8762515641        4.3761936770        6.6537700460
  O        13.3286021021        8.5954545913        6.5861192914
  O        10.0441664594       17.2412731062        8.7144951821
  O        12.5034129490        4.5238588329        8.7741984137
 Si        11.0107223241        1.5230930788        8.2857221228
 Si        13.4657885700        5.7411499034        8.2902917359
 Si        13.4093171591       17.0428689277        8.2906967695
 Si        10.9707202406        4.3397406822        8.2958285399
  O        16.0143679941        1.5880411278        6.6495460611
  O        18.4767335886        5.7961940920        6.6403250883
  O        17.7775634385       15.6008068292        8.7949680602
  O        15.3252494220        2.9189000664        8.8534704779
  O        17.3943611509        1.2706837275        8.9312907391
  O        14.9433172368        5.5038718728        8.9326339956
  O        15.7718388087        4.3741832053        6.6455197158
  O        18.2323598728        8.5914067331        6.6215902488
  O        14.9528099967       17.2405706225        8.7211290483
  O        17.4116205680        4.5153623980        8.7204016236
 Si        15.9156457155        1.5242246096        8.2914384807
 Si        18.3663777447        5.7480502213        8.2798474838
 Si        18.3112342956       17.0448064303        8.2727591817
 Si        15.8699245107        4.3383057266        8.2844508796
  O        11.1127682838       10.0210473543        6.6130669008
  O        13.5715485008       14.3025485255        6.6493932857
  O        12.8672453922        7.1492969578        8.7917696134
  O        10.4166023616       11.3663675297        8.7890078091
  O        12.4951712071        9.7271065388        8.8665336729
  O        10.0357657940       13.9476011227        8.9348719077
  O        10.8688964395       12.8801586092        6.6331325431
  O        13.3078228577       17.0963154747        6.6532524573
  O        10.0515413231        8.7406228756        8.7065225139
  O        12.5096608295       12.9690542023        8.7134907178
 Si        11.0117298662        9.9685250625        8.2501999366
 Si        13.4672152694       14.2139964139        8.2913054174
 Si        13.4255530593        8.5621705946        8.2255121742
 Si        10.9687093562       12.7986083756        8.2669451042
  O        16.0223648338       10.0215570026        6.5950731000
  O        18.4671089088       14.2435730142        6.6233342615
  O        17.7301137080        7.1419089394        8.7930084751
  O        15.3201412452       11.3654173869        8.7853542948
  O        17.3948313295        9.7348315438        8.8720091748
  O        14.9403479364       13.9479621641        8.9350219572
  O        15.7729940461       12.8803290684        6.6324697644
  O        18.1753647421       17.0942730291        6.6397914062
  O        14.9582773963        8.7425224199        8.7014531380
  O        17.4126512806       12.9658592163        8.7149456144
 Si        15.9155421476        9.9712869684        8.2375457552
 Si        18.3686889021       14.1990994665        8.2600622222
 Si        18.3200248411        8.5572767828        8.2554697850
 Si        15.8718656459       12.7988119723        8.2665989928
  H         0.1884502100        4.0213942600        0.5029856200
  H         5.0942002200        4.0213942600        0.5029856200
  H         9.9999502200        4.0213942600        0.5029856200
  H        14.9057002200        4.0213942600        0.5029856200
  H         2.6413252100        8.2583942600        0.5029856200
  H         7.5470752100        8.2583942600        0.5029856200
  H        12.4528252200        8.2583942600        0.5029856200
  H        17.3585752100        8.2583942600        0.5029856200
  H         0.1884502100       12.4953942600        0.5029856200
  H         5.0942002200       12.4953942600        0.5029856200
  H         9.9999502100       12.4953942600        0.5029856200
  H        14.9057002200       12.4953942600        0.5029856200
  H         2.6413252200       16.7323942600        0.5029856200
  H         7.5470752100       16.7323942600        0.5029856200
  H        12.4528252200       16.7323942600        0.5029856200
  H        17.3585752100       16.7323942600        0.5029856200
