256
Lattice="19.6230000000 0.0000000000 0.0000000000 0.0000000000 16.9480000000 0.0000000000 0.0000000000 0.0000000000 22.0" Properties=species:S:1:pos:R:3 pbc="T T T"
Si  2.24237133  0.58563049  5.69650255
Si  4.68758839  4.80650448  5.72251046
O  2.82283408  1.27361460  4.34619507
O  0.31031491  5.50088423  4.34863365
O  2.45760921  3.46592331  2.90371749
O  0.00150442  7.68372310  2.90405260
O  3.75907451  3.54466707  5.28151871
O  1.30238915  7.76155553  5.28040479
O  0.64568820  3.91597940  1.12104470
O  3.06728863  8.21412614  1.18155439
O  0.00492845  2.40925208  3.20205866
O  2.45335541  6.62614995  3.20899849
Si  1.14550196  2.85055247  2.08244127
Si  3.56954650  7.11190671  2.09922234
Si  3.49697479  2.69719376  3.91923886
Si  1.02458497  6.90801076  3.92829830
Si  7.11300529  0.59498759  5.71720297
Si  9.59269560  4.80683895  5.73091838
O  7.66692346  1.28470972  4.35554750
O  5.21811862  5.50129370  4.35298309
O  7.36959051  3.46443952  2.90810617
O  4.90698012  7.68515542  2.90363656
O  8.65623848  3.53649250  5.32918360
O  6.21208993  7.77022992  5.27493839
O  5.55528691  3.91222938  1.12110526
O  7.97727571  8.08778361  1.11422787
O  4.92041911  2.41169677  3.19780991
O  7.35643891  6.62227564  3.21020076
Si  6.05964939  2.84616865  2.07900162
Si  8.48566193  7.03965710  2.08886782
Si  8.38803340  2.69878284  3.95279281
Si  5.92942181  6.90938139  3.92729645
Si  2.22824092  9.03115637  5.70034633
Si  4.68323293  13.27811752  5.70402482
O  2.76908622  9.72726902  4.33875409
O  0.30818793  14.00817717  4.33954015
O  2.46267229  11.91310048  2.90265608
O  0.00973342  16.19661410  2.84077757
O  3.76799403  11.99427565  5.27773092
O  1.30395394  16.27177962  5.27343051
O  0.64895060  12.38486445  1.11646981
O  3.07298436  16.68634330  1.12144838
O  0.01536343  10.85394156  3.18683405
O  2.45461199  15.14137538  3.19640387
Si  1.15136255  11.31982647  2.07666950
Si  3.57549405  15.60568624  2.06549132
Si  3.49039255  11.13654386  3.92340541
Si  1.02352824  15.41783489  3.91785858
Si  7.13483632  9.04839753  5.68794934
Si  9.58447812  13.31600521  5.71636128
O  7.66494787  9.78617990  4.34525699
O  5.21182982  14.00562678  4.35026498
O  7.35627659  11.97243069  2.89935951
O  4.90088460  16.19403872  2.89600398
O  8.66172617  12.05061950  5.27318701
O  6.19937183  16.27194920  5.27914289
O  5.49823521  12.38718036  1.11891847
O  7.97442633  16.68811426  1.18000835
O  4.91685019  10.85191146  3.19850797
O  7.35320086  15.13331999  3.21397335
Si  6.03981728  11.34469666  2.08294064
Si  8.47697201  15.59029049  2.10276802
Si  8.39093302  11.18850993  3.91786593
Si  5.91877723  15.41857252  3.92565518
O  1.30420609  1.57680750  6.60086761
O  3.76201114  5.79489880  6.64048336
O  3.06073957  15.60468675  8.79371408
O  0.60092385  2.91373408  8.79322099
O  2.67729123  1.27626778  8.87127261
O  0.22055252  5.50604466  8.92866041
O  1.05732272  4.38085213  6.63552830
O  3.51636130  8.59417479  6.60685706
O  0.23253169  0.29618547  8.70631718
O  2.69135029  4.51863945  8.71948959
Si  1.19526753  1.51921476  8.24209495
Si  3.65750635  5.74431863  8.27927373
Si  3.60637522  0.09217219  8.25921704
Si  1.15225378  4.34528374  8.27195295
O  6.20408964  1.58444341  6.64821266
O  8.66524405  5.79313541  6.64982929
O  7.97081506  15.60813740  8.85446822
O  5.51382167  2.91918364  8.85321398
O  7.58159940  1.27477726  8.93382134
O  5.12918808  5.50512887  8.93262455
O  5.96682027  4.37517514  6.65183391
O  8.42348443  8.59597883  6.58914496
O  5.14071076  0.29239573  8.71850309
O  7.59675572  4.52421242  8.77334228
Si  6.10457791  1.52524764  8.29043777
Si  8.56045655  5.74133323  8.29084224
Si  8.49857351  0.09517289  8.28849001
Si  6.06450897  4.34046064  8.29418245
O  1.30279993  10.01663731  6.61882411
O  3.75503029  14.24187707  6.64041483
O  3.05370735  7.14537577  8.79572928
O  0.60384604  11.36932680  8.78332839
O  2.67983165  9.72847975  8.87358999
O  0.22877414  13.95314497  8.87579173
O  1.06976918  12.86769958  6.59404559
O  3.51412442  0.14645494  6.62553707
O  0.23521401  8.73691570  8.71309367
O  2.69216014  12.96320538  8.71220476
Si  1.19521220  9.96572357  8.25660845
Si  3.65669837  14.19707224  8.27887848
Si  3.61323979  8.56219025  8.24370542
Si  1.16073555  12.79198126  8.23199186
O  6.20708993  10.01989122  6.61896217
O  8.66642778  14.30181289  6.64943762
O  7.96028068  7.14899074  8.79265256
O  5.51051272  11.36714458  8.78982013
O  7.59006594  9.72753092  8.86846597
O  5.12839226  13.94635900  8.93212132
O  5.97090688  12.87503244  6.63044804
O  8.36957771  0.14530774  6.65378028
O  5.14642304  8.74054040  8.71069198
O  7.60468137  12.96942684  8.71386542
Si  6.10634356  9.96857192  8.25520123
Si  8.56282266  14.21419208  8.29181044
Si  8.52032237  8.56166662  8.22869941
Si  6.06494825  12.79805229  8.26503474
Si  12.04451520  0.59613620  5.71758006
Si  14.49181120  4.80770442  5.72219198
O  12.63003061  1.27226944  4.35846747
O  10.12027048  5.49860846  4.35707871
O  12.26764356  3.46146482  2.90394038
O  9.80551198  7.67763825  2.89713642
O  13.56814210  3.54409533  5.28281630
O  11.11729481  7.76955006  5.27252899
O  10.39948437  3.90868440  1.18354598
O  12.88159344  8.08939908  1.11722902
O  9.83153772  2.40977645  3.26958490
O  12.26139570  6.62186627  3.21175119
Si  10.94097237  2.82810018  2.10648137
Si  13.38987393  7.04094693  2.09169084
Si  13.30053886  2.69617683  3.92288163
Si  10.83012949  6.90827656  3.92445287
Si  16.91080558  0.59660816  5.71163792
Si  19.39667195  4.80834997  5.71626853
O  17.47851250  1.28275022  4.35061259
O  15.02697369  5.50046731  4.35324267
O  17.17218999  3.46799416  2.89929253
O  14.71177640  7.68029818  2.89815245
O  18.47211254  3.54246774  5.27988475
O  16.02260988  7.76527270  5.27718376
O  15.30934531  3.91318339  1.12585971
O  17.77365479  8.15777460  1.17489630
O  14.72811686  2.40987552  3.20369773
O  17.16530249  6.61927896  3.21760617
Si  15.85148512  2.86513516  2.08445087
Si  18.28755959  7.08423246  2.11871608
Si  18.19930409  2.68900728  3.92298747
Si  15.73170781  6.91156516  3.92765850
Si  12.04037388  9.04881159  5.68252797
Si  14.48745985  13.31517915  5.71553080
O  12.57370729  9.78741585  4.34190058
O  10.12116300  14.01378967  4.35192680
O  12.25068082  11.96859320  2.89307853
O  9.81005697  16.19345480  2.90282667
O  13.56323679  12.05144564  5.27594476
O  11.11403121  16.27937217  5.28140529
O  10.40246303  12.38611767  1.12045777
O  12.82289427  16.62698233  1.12375947
O  9.81263104  10.86083834  3.19906392
O  12.26097753  15.13529257  3.21292445
Si  10.93831167  11.32154465  2.06355214
Si  13.36713345  15.58302724  2.08508874
Si  13.28492150  11.19962987  3.91474718
Si  10.83113271  15.42368504  3.93042577
Si  16.96016838  9.03030509  5.69319725
Si  19.39517608  13.27957826  5.68768448
O  17.54354469  9.71439478  4.34297983
O  15.02437902  14.01286587  4.35054431
O  17.17218725  11.90730317  2.89480790
O  14.70414312  16.19187942  2.88249873
O  18.48176574  11.99516964  5.26948265
O  15.95520568  16.29727211  5.27814302
O  15.30820934  12.38570075  1.12007509
O  17.72898367  16.68723763  1.18192888
O  14.71907229  10.91667889  3.20534968
O  17.16006551  15.13882850  3.22806702
Si  15.84727917  11.31954257  2.05964687
Si  18.26729138  15.60777828  2.10747871
Si  18.21042748  11.14102532  3.90932682
Si  15.71832980  15.42767818  3.92534525
O  11.11777445  1.58079650  6.64334653
O  13.56868369  5.79050169  6.64806145
O  12.87620623  15.60877432  8.85362710
O  10.41993186  2.91659282  8.85098196
O  12.48735602  1.27319324  8.93201477
O  10.03679019  5.50449263  8.93454374
O  10.87625156  4.37619368  6.65377005
O  13.32860210  8.59545459  6.58611929
O  10.04416646  0.29327311  8.71449518
O  12.50341295  4.52385883  8.77419841
Si  11.01072232  1.52309308  8.28572212
Si  13.46578857  5.74114990  8.29029174
Si  13.40931716  0.09486893  8.29069677
Si  10.97072024  4.33974068  8.29582854
O  16.01436799  1.58804113  6.64954606
O  18.47673359  5.79619409  6.64032509
O  17.77756344  15.60080683  8.79496806
O  15.32524942  2.91890007  8.85347048
O  17.39436115  1.27068373  8.93129074
O  14.94331724  5.50387187  8.93263400
O  15.77183881  4.37418321  6.64551972
O  18.23235987  8.59140673  6.62159025
O  14.95281000  0.29257062  8.72112905
O  17.41162057  4.51536240  8.72040162
Si  15.91564572  1.52422461  8.29143848
Si  18.36637774  5.74805022  8.27984748
Si  18.31123430  0.09680643  8.27275918
Si  15.86992451  4.33830573  8.28445088
O  11.11276828  10.02104735  6.61306690
O  13.57154850  14.30254853  6.64939329
O  12.86724539  7.14929696  8.79176961
O  10.41660236  11.36636753  8.78900781
O  12.49517121  9.72710654  8.86653367
O  10.03576579  13.94760112  8.93487191
O  10.86889644  12.88015861  6.63313254
O  13.30782286  0.14831547  6.65325246
O  10.05154132  8.74062288  8.70652251
O  12.50966083  12.96905420  8.71349072
Si  11.01172987  9.96852506  8.25019994
Si  13.46721527  14.21399641  8.29130542
Si  13.42555306  8.56217059  8.22551217
Si  10.96870936  12.79860838  8.26694510
O  16.02236483  10.02155700  6.59507310
O  18.46710891  14.24357301  6.62333426
O  17.73011371  7.14190894  8.79300848
O  15.32014125  11.36541739  8.78535429
O  17.39483133  9.73483154  8.87200917
O  14.94034794  13.94796216  8.93502196
O  15.77299405  12.88032907  6.63246976
O  18.17536474  0.14627303  6.63979141
O  14.95827740  8.74252242  8.70145314
O  17.41265128  12.96585922  8.71494561
Si  15.91554215  9.97128697  8.23754576
Si  18.36868890  14.19909947  8.26006222
Si  18.32002484  8.55727678  8.25546979
Si  15.87186565  12.79881197  8.26659899
H  0.18845021  4.02139426  0.50298562
H  5.09420022  4.02139426  0.50298562
H  9.99995022  4.02139426  0.50298562
H  14.90570022  4.02139426  0.50298562
H  2.64132521  8.25839426  0.50298562
H  7.54707521  8.25839426  0.50298562
H  12.45282522  8.25839426  0.50298562
H  17.35857521  8.25839426  0.50298562
H  0.18845021  12.49539426  0.50298562
H  5.09420022  12.49539426  0.50298562
H  9.99995021  12.49539426  0.50298562
H  14.90570022  12.49539426  0.50298562
H  2.64132522  16.73239426  0.50298562
H  7.54707521  16.73239426  0.50298562
H  12.45282522  16.73239426  0.50298562
H  17.35857521  16.73239426  0.50298562
256
Lattice="19.6230000000 0.0000000000 0.0000000000 0.0000000000 16.9480000000 0.0000000000 0.0000000000 0.0000000000 22.0000000000" Properties=species:S:1:pos:R:3 pbc="T T T"
Si  2.16682652  0.68355772  5.72002804
Si  4.64877111  4.88519247  5.78170777
O  2.75453702  1.35105759  4.35457747
O  0.30808731  5.50658482  4.35689884
O  2.45591752  3.50510932  2.88845902
O  0.00271588  7.67963933  2.89984919
O  3.75717292  3.61803478  5.27143908
O  1.30641405  7.77669904  5.28122359
O  0.64568820  3.91597940  1.12104470
O  3.06728863  8.21412614  1.18155439
O  0.00259395  2.39629497  3.19659039
O  2.45239190  6.62563277  3.20588270
Si  1.14550196  2.85055247  2.08244127
Si  3.56954650  7.11190671  2.09922234
Si  3.48930357  2.75033121  3.92655985
Si  1.02853883  6.91037890  3.94115312
Si  7.09924071  0.65078488  5.78179179
Si  9.56870053  4.94095634  5.73545771
O  7.66578349  1.36622520  4.43159829
O  5.21903500  5.60303912  4.43584428
O  7.41007373  3.45976559  2.83691498
O  4.91039049  7.68846494  2.91265889
O  8.64705663  3.68138947  5.25093894
O  6.29926420  7.84437465  5.35161830
O  5.55528691  3.91222938  1.12110526
O  7.97727571  8.08778361  1.11422787
O  4.91427316  2.41620292  3.20153821
O  7.35975133  6.69238119  3.21662140
Si  6.05964939  2.84616865  2.07900162
Si  8.48566193  7.03965710  2.08886782
Si  8.40596834  2.74109647  3.94961490
Si  5.95624844  7.00199476  4.00239453
Si  2.20985959  9.04879052  5.76496789
Si  4.64348968  13.33228525  5.71529945
O  2.83379933  9.72796434  4.41926860
O  0.29747212  14.06833911  4.35783105
O  2.53224552  11.83833599  2.83044229
O  0.00973342  16.19661410  2.84077757
O  3.74333730  12.04503713  5.26778915
O  1.29682707  16.33473621  5.26067178
O  0.64895060  12.38486445  1.11646981
O  3.07298436  16.68634330  1.12144838
O  0.05904642  10.97748313  3.27930905
O  2.45208233  15.14452035  3.19460865
Si  1.15136255  11.31982647  2.07666950
Si  3.57549405  15.60568624  2.06549132
Si  3.51919889  11.13088895  3.94680974
Si  1.02773401  15.45957089  3.92126127
Si  7.23115577  9.10662351  5.90838211
Si  9.59279677  13.24984578  5.90193075
O  7.75227253  9.78725903  4.50965067
O  5.21409749  14.02373497  4.35592743
O  7.42988881  11.81377285  2.82738562
O  4.90090712  16.18851496  2.89325079
O  8.53348739  12.21478085  5.21800742
O  6.20248357  16.33554843  5.27315304
O  5.49823521  12.38718036  1.11891847
O  7.97442633  16.68811426  1.18000835
O  4.96016208  10.86626067  3.21412826
O  7.34703574  15.12904155  3.20726068
Si  6.03981728  11.34469666  2.08294064
Si  8.47697201  15.59029049  2.10276802
Si  8.44358065  11.17164653  3.99427306
Si  5.92743185  15.44202357  3.94608664
O  1.16014861  1.58757483  6.63884792
O  3.67967317  5.80110542  6.72707013
O  2.98471885  15.70165539  8.82153100
O  0.46615252  2.98956076  8.78631134
O  2.53360183  1.34630254  8.93615792
O  0.13916432  5.58045248  8.92849800
O  1.01224551  4.44902818  6.66291629
O  3.44669095  8.60197887  6.72749944
O  0.06883483  0.38325216  8.77929497
O  2.60082668  4.58901713  8.84045958
Si  1.05700654  1.57388604  8.28554481
Si  3.59231353  5.79629738  8.37724906
Si  3.51164554  0.20493210  8.30612481
Si  1.08357952  4.41280563  8.30794833
O  6.14216123  1.58979206  6.71358604
O  8.65632687  5.93483304  6.66138109
O  7.96055097  15.65315166  8.92158120
O  5.50808778  3.00112395  8.88264029
O  7.50953149  1.28368653  9.01423676
O  5.07564079  5.56766012  9.00910389
O  5.90811449  4.44637164  6.71601966
O  8.42882061  8.73892797  6.95130414
O  5.04160474  0.38435844  8.79225885
O  7.59082677  4.65730057  8.78111803
Si  6.05460882  1.57813298  8.35773916
Si  8.54160251  5.92152939  8.32374641
Si  8.46411662  0.13702764  8.36347723
Si  6.04938478  4.43561745  8.35364614
O  1.22517055  10.01793200  6.64299476
O  3.68202532  14.32542328  6.59354658
O  2.99457790  7.19766966  8.92582253
O  0.47178330  11.44432846  8.78151623
O  2.53102396  9.78628979  8.94091413
O  0.08696920  14.01014554  8.94435177
O  0.99344540  12.94302604  6.64111701
O  3.44192642  0.29976711  6.66195717
O  0.06168903  8.82835438  8.76747794
O  2.59741986  13.09364412  8.71689671
Si  1.06018098  10.01950595  8.28672426
Si  3.57372906  14.30951551  8.24401568
Si  3.52890075  8.63271849  8.37325721
Si  1.05519862  12.87921596  8.28410002
O  6.19261162  10.07875778  6.73566539
O  8.66213140  14.32066355  6.72745325
O  7.94765622  7.28160370  8.93764827
O  5.36157367  11.47415579  8.83962700
O  7.48471662  9.92135212  9.09283365
O  5.06084517  14.07984113  8.86142099
O  5.90110871  12.88701651  6.64522381
O  8.35432874  0.21476140  6.72327908
O  5.04871725  8.87366077  8.86075847
O  7.51115859  13.03919650  8.78468327
Si  6.03999391  10.07408998  8.37824266
Si  8.54283084  14.23944193  8.37786591
Si  8.57136320  8.78631200  8.62208661
Si  5.98737652  12.87249501  8.29206253
Si  11.97692954  0.67005319  5.78154269
Si  14.44243650  4.90090005  5.80602352
O  12.57254575  1.35264762  4.42486050
O  10.15210467  5.56989958  4.34712480
O  12.26537537  3.46697600  2.90292154
O  9.89264996  7.61207285  2.75842119
O  13.54724542  3.61998924  5.33535951
O  11.16251770  7.81012678  5.28747395
O  10.39948437  3.90868440  1.18354598
O  12.88159344  8.08939908  1.11722902
O  9.80717749  2.33561445  3.20613054
O  12.33692598  6.60495430  3.25507229
Si  10.94097237  2.82810018  2.10648137
Si  13.38987393  7.04094693  2.09169084
Si  13.29637008  2.74950542  3.97870017
Si  10.88362762  6.97901150  3.94623177
Si  16.83147010  0.67235771  5.72060305
Si  19.35564781  4.84315259  5.73237238
O  17.40992245  1.34712019  4.34820038
O  15.03333590  5.50733599  4.40942678
O  17.19288068  3.47652607  2.84149088
O  14.80891626  7.53721273  2.74115362
O  18.47257788  3.55268981  5.27186954
O  15.93574722  7.85212242  5.19084225
O  15.30934531  3.91318339  1.12585971
O  17.77365479  8.15777460  1.17489630
O  14.71793918  2.44327106  3.21863613
O  17.22125771  6.55862518  3.25433099
Si  15.85148512  2.86513516  2.08445087
Si  18.28755959  7.08423246  2.11871608
Si  18.19908404  2.71352939  3.91083106
Si  15.76105664  6.87248285  3.92183240
Si  11.77620347  9.31418156  5.83431617
Si  14.34106255  13.39134042  5.70160406
O  12.69812806  9.71383528  4.43308658
O  10.34463467  13.92682668  4.59062781
O  12.34909796  11.82100353  2.74757804
O  9.81180209  16.04991284  2.96820211
O  13.48556367  12.12595918  5.18578302
O  11.05257741  16.35008836  5.33600817
O  10.40246303  12.38611767  1.12045777
O  12.82289427  16.62698233  1.12375947
O  9.87223079  10.90975778  3.22937029
O  12.29474128  15.14172595  3.26868155
Si  10.93831167  11.32154465  2.06355214
Si  13.36713345  15.58302724  2.08508874
Si  13.31435500  11.12112557  3.92308040
Si  10.86617051  15.36934896  4.04961299
Si  16.83500463  9.11149087  5.70026256
Si  19.34234382  13.37033856  5.71410670
O  17.48001460  9.79678057  4.36350000
O  14.94235492  14.09641482  4.35396374
O  17.20285769  11.90241179  2.82216984
O  14.72674931  16.18971670  2.81623273
O  18.39481438  12.12064749  5.25996237
O  15.93566015  16.34287487  5.25883636
O  15.30820934  12.38570075  1.12007509
O  17.72898367  16.68723763  1.18192888
O  14.77438495  10.84983572  3.20963095
O  17.16208479  15.14510212  3.22901391
Si  15.84727917  11.31954257  2.05964687
Si  18.26729138  15.60777828  2.10747871
Si  18.20064136  11.20032002  3.93492198
Si  15.71076621  15.45665860  3.92145151
O  11.04725073  1.65238358  6.70459050
O  13.56432628  5.94035806  6.71155205
O  12.71889084  15.67954010  8.85687236
O  10.35281886  3.02479586  8.85651902
O  12.42969915  1.37393003  8.99998314
O  10.03609067  5.63907553  8.92794308
O  10.81495623  4.44907412  6.65838833
O  12.87220747  8.92454836  7.03301273
O  10.00030252  0.38053832  8.79318730
O  12.48651008  4.59804282  8.71913931
Si  10.95162030  1.61664689  8.34969843
Si  13.40847522  5.89666035  8.36272086
Si  13.31187104  0.15574237  8.35421441
Si  10.93606122  4.44258741  8.29907238
O  15.86415063  1.60872402  6.64293483
O  18.39638887  5.80132515  6.64604706
O  17.62937044  15.66175498  8.79445576
O  15.17926103  2.94931382  8.85861585
O  17.24477727  1.34075330  8.93515980
O  14.87493222  5.57579557  9.00699030
O  15.70686284  4.44073074  6.72427853
O  18.08038967  8.66188859  6.64634929
O  14.86821887  0.30248762  8.77578552
O  17.33196827  4.53495557  8.78470527
Si  15.77057440  1.55980959  8.29258250
Si  18.26980963  5.77385569  8.29465560
Si  18.16750254  0.16332161  8.29886233
Si  15.77295621  4.38458376  8.36758869
O  10.62101133  10.24299736  6.31100405
O  13.36099653  14.30842199  6.64359253
O  12.72619840  7.20587940  8.99309513
O  10.43314321  11.44405263  9.64476885
O  12.36952751  9.70707900  9.77810199
O  9.95641535  13.94632059  9.10192362
O  10.61150287  12.67064754  7.00144925
O  13.24392698  0.22622974  6.71066731
O  9.90201922  8.96147990  9.51559223
O  12.43050356  12.97464932  8.78779237
Si  10.86116369  10.03379544  10.50000000
Si  13.27350617  14.25587995  8.29741371
Si  13.07152229  8.77472050  8.63886201
Si  10.84347722  12.63472856  8.63070816
O  15.84213143  10.02175040  6.60892051
O  18.40909197  14.32716194  6.64762284
O  17.62999201  7.16918853  8.79136011
O  15.10691514  11.46058581  8.71862856
O  17.18371967  9.79716253  8.87223150
O  14.79584848  14.08450419  8.86329114
O  15.63933857  12.94719433  6.58655214
O  18.08823134  0.22644257  6.65601680
O  14.71272046  8.88296180  8.84516794
O  17.25543427  13.02398817  8.69043275
Si  15.67982717  10.02105951  8.25933726
Si  18.23839853  14.25357317  8.28495380
Si  18.14419393  8.63054458  8.28829825
Si  15.70160797  12.88640481  8.23085930
H  0.18845021  4.02139426  0.50298562
H  5.09420022  4.02139426  0.50298562
H  9.99995022  4.02139426  0.50298562
H  14.90570022  4.02139426  0.50298562
H  2.64132521  8.25839426  0.50298562
H  7.54707521  8.25839426  0.50298562
H  12.45282522  8.25839426  0.50298562
H  17.35857521  8.25839426  0.50298562
H  0.18845021  12.49539426  0.50298562
H  5.09420022  12.49539426  0.50298562
H  9.99995021  12.49539426  0.50298562
H  14.90570022  12.49539426  0.50298562
H  2.64132522  16.73239426  0.50298562
H  7.54707521  16.73239426  0.50298562
H  12.45282522  16.73239426  0.50298562
H  17.35857521  16.73239426  0.50298562
