324
 Atoms. Timestep: 0
Si 15.386 4.83365 17.0639
Si 5.37435 15.8998 15.3469
Si 4.74241 8.16986 3.74365
Si 3.7251 1.94538 6.65408
Si 2.00599 0.560596 4.56942
Si 3.79869 5.01632 3.42724
O 4.3814 5.63329 4.91172
O 4.83877 0.867532 10.3149
O 2.26378 1.54952 5.96005
O 6.17819 8.45312 16.0404
O 3.06558 1.05685 3.30208
O 2.32727 5.47173 2.59029
O 1.42457 5.0902 0.196834
O 2.86636 6.92262 16.9102
O 4.81509 6.92266 2.95471
O 4.76331 0.663501 6.28653
O 3.38142 9.16953 3.61793
O 4.45497 3.35482 6.24766
Si 2.99005 5.5105 0.947092
Si 8.44789 0.163349 1.3749
Si 7.68759 5.09494 5.03404
Si 8.87326 2.90549 3.16856
Si 6.4154 0.659097 3.59458
Si 8.24562 5.50471 2.37307
O 6.56141 4.71735 6.23726
O 6.85337 1.51953 4.93161
O 7.90797 3.6173 1.85735
O 11.2886 5.32058 1.08884
O 7.16733 17.843 0.582773
O 8.53845 6.29017 0.845173
O 5.52394 1.39195 2.38053
O 8.11282 9.96477 0.436374
O 7.14488 5.76116 3.49667
O 10.4438 3.15933 2.80698
O 5.91918 8.90419 4.28013
O 9.7884 5.66898 3.06245
Si 8.47682 5.23695 16.1726
Si 0.644742 17.7256 16.1003
Si 13.3477 4.56267 5.25599
Si 15.0153 1.57271 3.15123
Si 15.3787 2.0598 0.407724
Si 12.5845 6.08996 0.565782
O 12.307 4.66078 3.88022
O 13.5938 1.66518 3.81871
O 15.2553 2.60816 1.92278
O 12.464 7.55048 1.46122
O 13.8267 1.47269 16.9082
O 15.1626 3.49565 16.2812
O 13.9283 5.01796 0.826337
O 12.8289 6.5402 16.1389
O 14.9382 4.80835 4.99149
O 0.535604 1.27647 4.26375
O 0.013836 7.11638 4.95741
O 13.4262 3.13154 6.12813
Si 1.37212 14.1742 0.138102
Si 1.46976 9.96721 15.9464
Si 1.80288 15.3425 4.09651
Si 4.00737 11.7117 2.50509
Si 1.17991 11.3274 1.35224
Si 4.22235 14.7228 1.09936
O 14.2213 13.1193 5.6681
O 3.36759 10.5781 6.16506
O 2.25946 11.6753 2.53417
O 4.39327 15.7773 2.35209
O 1.96931 10.238 0.501382
O 3.89469 15.5898 14.7897
O 0.711664 12.7055 0.304453
O 4.66519 15.3489 16.7372
O 2.7058 14.9964 1.28396
O 5.4473 11.1585 2.0385
O 3.30466 1.8371 8.31553
O 4.03596 12.5091 3.86904
Si 9.25057 13.7826 12.5728
Si 7.05598 9.88028 16.3835
Si 5.73369 15.5416 3.3528
Si 9.10204 11.0307 4.4693
Si 6.11244 12.1658 0.92823
Si 9.55112 15.5448 2.50083
O 4.7149 15.0425 5.02674
O 8.01532 10.2825 5.55182
O 7.21914 13.1773 0.287493
O 9.56683 15.1224 4.01517
O 6.0421 11.026 16.7114
O 8.96601 14.7447 1.16666
O 9.31153 12.3047 13.1763
O 8.49469 1.3658 2.6994
O 6.96228 14.5396 2.7961
O 8.76664 10.6923 2.98492
O 6.01342 17.1302 3.99703
O 9.34178 12.704 4.3148
Si 8.9425 13.4049 0.345863
Si 12.0663 8.02552 15.2554
Si 12.3004 16.4788 2.21752
Si 11.854 9.11067 0.741839
Si 9.37374 10.6173 1.51991
Si 15.2234 16.121 2.19337
O 10.9561 11.0638 6.6034
O 0.354262 8.66961 7.57888
O 10.8063 10.0392 1.66148
O 0.454007 14.8995 3.15431
O 11.0394 8.78373 16.3957
O 0.247901 15.7461 0.687689
O 9.46549 12.3415 1.39522
O 15.2695 17.5707 2.71119
O 11.2196 15.3094 2.16352
O 15.178 10.9248 1.5156
O 12.2369 17.2583 3.55789
O 13.6291 15.6595 1.93779
Si 13.5021 2.76546 7.69523
Si 3.2256 0.542464 9.42456
Si 0.808396 5.95091 8.95954
Si 6.17126 1.96233 10.5733
Si 14.5378 0.0671267 7.51423
Si 3.56781 5.48404 9.05792
O 0.240175 4.85215 10.0542
O 6.405 1.09094 11.8949
O 2.0173 0.342648 10.4962
O 6.84481 7.50606 8.54679
O 0.842149 15.3363 9.17879
O 4.56937 5.6718 7.58811
O 14.6938 1.70236 7.43594
O 2.2218 5.86554 8.19947
O 3.10509 4.30728 9.98319
O 7.83873 1.8622 9.92261
O 0.792722 7.33283 9.85807
O 5.03311 3.23382 10.7606
Si 5.07417 4.77723 6.34702
Si 6.39766 0.721722 6.48872
Si 6.432 8.11035 10.0245
Si 9.35542 4.51164 9.58418
Si 8.37014 1.84805 8.53516
Si 7.87363 6.74925 7.36851
O 4.5354 5.85915 10.3888
O 10.8527 0.421059 12.7678
O 9.45594 3.25559 8.42048
O 9.34617 7.59872 7.98752
O 6.86635 1.84097 7.51992
O 7.83249 5.03665 9.09421
O 8.27496 3.63768 4.41759
O 8.73555 5.83173 5.88976
O 7.25078 7.65485 6.13196
O 10.863 5.43084 9.48936
O 7.39888 9.63369 9.72125
O 9.19419 3.68547 11.1222
Si 11.0718 4.69902 2.65779
Si 12.6598 0.455014 4.69091
Si 9.08346 9.06729 8.79961
Si 1.04373 1.51087 11.5984
Si 11.1595 1.13506 7.01691
Si 14.9364 5.89669 6.1409
O 10.1248 9.58001 9.95166
O 11.7817 17.463 10.6867
O 12.2661 1.87627 7.89086
O 15.3804 5.61796 7.56823
O 11.5239 17.5588 7.10354
O 13.5759 3.77798 9.08447
O 9.55573 1.20271 7.622
O 13.6688 11.9984 8.31548
O 13.3737 5.95836 6.2655
O 13.4889 17.3608 8.48488
O 8.99248 10.4027 7.90608
O 15.5067 2.74126 11.2711
Si 14.5761 12.6337 7.10869
Si 2.6745 9.63098 4.96762
Si 13.9935 13.8727 11.2328
Si 4.27603 14.2331 10.1897
Si 0.777949 8.94155 9.19928
Si 1.69912 16.2847 8.11865
O 6.41592 14.8871 14.643
O 2.43458 9.34807 9.16135
O 4.43271 11.2287 8.56644
O 2.2137 14.7715 7.27758
O 2.573 8.16705 5.7902
O 2.16194 13.8928 5.00891
O 0.680412 12.6833 7.95369
O 3.14353 17.0629 8.46179
O 15.0729 14.5728 12.189
O 3.03852 13.6968 9.25705
O 0.359413 17.2023 7.33519
O 3.76584 11.6259 13.2123
Si 4.02125 13.6111 5.26134
Si 6.84929 9.3532 5.76779
Si 6.35763 15.5051 9.46811
Si 9.80826 11.7917 7.66068
Si 4.73236 11.1347 6.99952
Si 7.71047 16.0594 6.88
O 5.4386 14.0827 9.00779
O 7.79266 9.99703 12.4233
O 10.8966 10.0687 4.52524
O 11.3477 1.15088 5.3834
O 5.95114 10.085 6.82686
O 7.99395 14.9337 5.92272
O 4.94788 12.5087 6.22169
O 7.52423 17.6514 6.29556
O 6.39507 15.8614 7.75368
O 9.88097 12.4721 9.03953
O 7.07696 16.9872 10.3245
O 9.45835 13.0235 6.58881
Si 9.54363 14.1071 5.40891
Si 0.906356 8.28242 5.9293
Si 10.5833 16.2025 7.32778
Si 13.9106 11.0949 9.65637
Si 11.9446 9.85837 5.7866
Si 12.4753 16.5754 9.50597
O 8.88647 16.4172 7.80558
O 12.4875 10.3656 9.85247
O 0.997986 9.62324 4.78763
O 13.4673 15.4111 10.3602
O 13.2162 9.11475 6.10827
O 1.54821 17.0521 4.31202
O 10.8173 14.8474 6.4961
O 13.7276 0.114117 5.92206
O 11.2803 15.8106 8.76416
O 15.0633 9.95629 9.6376
O 11.8254 1.65282 15.7742
O 13.9332 12.2389 10.8184
Si 14.5464 3.96979 10.4441
Si 6.66187 0.65553 16.1626
Si 1.30694 6.91172 16.0623
Si 3.81502 1.97046 2.46104
Si 4.37253 2.79155 16.39
Si 3.67525 5.34915 14.7362
O 15.2714 6.4422 16.0228
O 5.90514 17.4351 15.5946
O 3.42784 2.11932 0.857068
O 4.85835 6.31726 15.1888
O 2.27089 2.28911 12.5699
O 3.77944 4.64301 12.9344
O 1.25335 1.15602 14.9414
O 4.95347 8.88936 9.72494
O 2.06745 5.56818 14.9314
O 6.44538 16.7294 12.7218
O 1.29798 8.42162 15.4219
O 4.37873 4.77823 1.60511
Si 4.1174 4.55971 11.2784
Si 5.75291 17.5785 11.5174
Si 6.27657 7.18858 15.1968
Si 13.1961 2.27197 15.5355
Si 7.52737 2.89315 14.6837
Si 7.29894 7.15723 12.6571
O 7.56251 6.49079 15.5589
O 9.83051 0.293517 0.133057
O 7.84099 1.17527 15.2498
O 8.67583 7.59877 13.2433
O 8.90858 3.00811 13.8284
O 7.542 5.49836 12.5134
O 5.59631 1.74821 16.6045
O 6.63503 8.09071 11.5264
O 6.0637 7.72128 13.7204
O 12.6241 3.14181 14.169
O 4.09409 3.28717 3.5377
O 8.27137 3.63741 16.0999
Si 8.78138 4.2442 12.6656
Si 12.2628 17.9295 12.0502
Si 9.87056 6.49193 13.9355
Si 15.5138 0.79193 13.9983
Si 13.2976 2.68327 12.726
Si 11.6174 6.11302 10.7413
O 9.81245 5.80676 15.4984
O 0.712459 0.497142 0.343425
O 14.8557 17.4414 15.0738
O 3.90568 4.22705 16.0481
O 13.2322 16.905 12.8941
O 13.1568 6.12088 10.883
O 10.1828 5.34894 12.7078
O 11.0736 7.79583 11.0471
O 13.7239 4.1987 11.8736
O 14.076 1.51145 14.0588
O 11.2154 7.40651 13.9423
O 0.536544 0.099688 12.4542
Si 0.460896 13.6021 13.656
Si 3.83976 9.93671 9.43197
Si 2.26965 15.6376 14.6896
Si 4.2887 11.855 11.6266
Si 2.27968 11.0428 13.3512
Si 3.48999 1.69017 13.4815
O 1.67195 14.3726 15.6204
O 2.38658 10.9272 14.936
O 5.92182 11.6481 11.437
O 4.05681 0.20703 12.9261
O 1.85272 9.75324 12.4167
O 6.01742 3.31134 14.0419
O 0.745207 12.0783 13.0407
O 4.81466 16.1188 10.4008
O 1.71293 14.7999 13.5424
O 10.0164 13.6747 11.0972
O 3.47382 2.44682 14.9032
O 4.47718 13.558 11.6352
Si 1.64619 13.8977 8.41934
Si 7.261 10.6052 11.0568
Si 7.43965 15.9089 13.5663
Si 9.04702 11.5978 14.5319
Si 8.79096 13.4235 9.92913
Si 10.1102 17.2637 13.8093
O 4.61402 13.0327 1.38937
O 10.7444 15.802 13.0487
O 7.82187 14.4341 12.6441
O 9.19862 13.2078 15.5689
O 8.11868 11.9778 10.6478
O 7.91996 14.7299 9.62975
O 3.22749 11.1681 10.4897
O 12.822 1.52316 11.7242
O 8.66334 16.9025 13.887
O 10.761 10.6604 14.6064
O 9.001 16.9747 2.07965
O 7.64589 10.6986 15.0998
Si 12.3539 15.3709 13.2315
Si 11.4872 9.3382 10.8437
Si 11.2301 0.160303 16.6245
Si 14.3133 11.0547 16.898
Si 12.0942 10.6907 13.7099
Si 13.4757 13.0716 15.3465
O 10.9706 17.3138 15.2864
O 13.2117 9.65371 0.0268319
O 13.0122 9.09181 14.5985
O 1.91764 16.7841 15.7301
O 11.9212 10.0883 12.2192
O 14.8403 13.751 15.0022
O 12.9553 12.0111 14.2511
O 12.7044 13.8171 12.1827
O 12.8314 14.6972 14.7928
O 15.4806 10.3865 15.8674
O 11.7786 17.3681 0.901742
O 13.4523 12.5003 16.7943
324
 Atoms. Timestep: 39
Si 15.472 5.15667 0.234135
Si 5.22687 15.8792 15.59
Si 4.78566 7.80768 4.27656
Si 3.69037 1.85916 6.73074
Si 2.20473 0.571329 4.35389
Si 4.39968 5.01111 3.35957
O 4.05244 5.18736 4.95791
O 4.69931 1.40928 9.7745
O 2.75182 1.292 5.62345
O 6.29942 8.53446 15.9971
O 2.97041 1.06798 3.06518
O 2.65642 5.72514 2.82425
O 1.34343 4.89736 0.915103
O 2.55164 6.72919 -0.0171914
O 4.98658 7.11875 2.86702
O 4.99647 0.909816 6.71774
O 3.65619 8.86252 3.92343
O 4.26596 3.2538 6.40031
Si 2.76384 5.57294 1.09694
Si 8.63867 0.181363 1.30212
Si 7.6945 4.90132 5.22721
Si 8.76921 2.81155 3.29766
Si 6.51401 0.751709 3.33293
Si 8.23935 5.61168 2.34289
O 6.2695 4.62557 5.86217
O 6.50107 1.39631 4.77345
O 8.14237 3.96824 2.32768
O 11.7393 5.0792 1.42629
O 7.27231 0.264258 0.481502
O 8.52007 5.76815 0.745788
O 5.37749 1.47641 2.57491
O 8.04107 9.94135 0.387922
O 7.55624 5.70929 3.84781
O 10.3252 3.3363 3.02669
O 6.04851 8.78393 4.33386
O 9.79663 5.69406 2.85424
Si 8.32636 5.42077 16.3014
Si 1.03988 17.7568 15.9841
Si 12.9886 4.35274 5.21474
Si 15.1099 1.13991 3.06022
Si 15.2378 2.15653 0.22886
Si 12.4922 6.0306 0.390149
O 12.2332 4.96401 3.95466
O 13.7668 1.17056 3.90609
O 15.1602 2.16149 1.84341
O 12.4656 7.48 1.12618
O 13.6224 2.04712 16.9841
O 15.3378 3.66357 16.7381
O 14.0126 5.60958 0.582325
O 12.5388 6.60989 15.9776
O 14.704 4.57499 4.71741
O 0.721391 1.12539 4.11992
O -0.0460672 7.13605 5.52676
O 13.3009 3.35708 6.40945
Si 1.34858 14.4681 0.211926
Si 1.34914 9.85026 16.0966
Si 2.10924 15.6225 3.69117
Si 4.04085 11.859 2.44034
Si 1.15408 11.5777 1.49317
Si 4.22366 14.7164 1.17055
O 13.9994 13.0421 6.31038
O 3.40455 10.4538 5.93319
O 2.46294 11.8039 2.35102
O 4.63665 15.5414 2.43587
O 1.76173 10.5632 0.373114
O 3.9917 15.4485 14.6955
O 1.17033 12.9515 0.644584
O 4.9932 15.2258 16.9944
O 2.6659 14.9172 0.996002
O 5.6004 11.1908 2.19176
O 2.989 1.49842 8.13446
O 4.22615 12.7349 3.78295
Si 9.4359 13.7098 12.8337
Si 6.99416 9.9376 16.1028
Si 5.54691 15.7883 3.70458
Si 9.21829 10.9762 4.32378
Si 6.61474 11.8378 1.08021
Si 9.53797 15.4171 2.401
O 4.9426 14.8161 4.81114
O 8.10576 10.3341 5.20858
O 7.33548 13.0169 0.35151
O 9.51118 15.0189 3.93795
O 5.97454 11.1008 16.8341
O 9.00489 14.6081 1.18167
O 8.9812 12.2917 13.3708
O 8.69212 1.51509 2.26664
O 6.79851 14.9797 3.22003
O 8.8517 10.5409 2.84787
O 5.96159 17.2908 3.59566
O 9.06675 12.5572 4.38599
Si 8.9064 13.4166 0.150029
Si 12.3565 8.00896 15.1593
Si 12.238 16.6974 2.10043
Si 11.8511 8.94256 0.866563
Si 9.30532 10.6205 1.32447
Si 15.191 16.0584 2.17062
O 11.2897 10.9904 6.90957
O 0.558794 9.07504 7.41559
O 10.7338 9.977 1.23801
O 0.529963 15.4544 3.39827
O 11.4319 8.66928 16.3793
O 0.22469 15.3344 0.904685
O 9.45362 12.1946 1.06379
O 15.2442 17.6503 2.41179
O 11.0983 15.584 2.11619
O 15.1725 11.1961 1.25182
O 12.0845 17.3966 3.5256
O 13.6034 15.8424 2.16049
Si 13.4042 2.61767 7.81415
Si 3.41672 0.532152 9.39646
Si 0.6268 6.02769 8.9513
Si 5.92923 2.07745 10.4926
Si 14.4184 17.808 7.32055
Si 3.64587 5.59315 9.08887
O 0.0741058 4.94517 9.98037
O 6.197 0.896641 11.5561
O 2.28717 0.908798 10.4541
O 6.79744 7.61946 8.61802
O 0.968364 15.4385 9.20853
O 4.55937 5.16293 7.88387
O 14.4227 1.39788 7.57131
O 2.14825 5.74852 8.62649
O 3.34184 3.972 9.82247
O 7.2315 2.00676 9.60254
O 0.493895 7.55949 9.38675
O 5.35916 3.35768 11.246
Si 4.74451 4.75861 6.35741
Si 6.54121 0.948003 6.31103
Si 6.26019 8.3587 9.90005
Si 9.53188 4.61921 9.41057
Si 8.37687 1.93602 8.48409
Si 7.87493 7.02554 7.48901
O 4.62943 5.72303 10.6179
O 10.9306 0.0451296 12.8643
O 8.97024 3.40676 8.54183
O 9.19612 7.97356 8.10798
O 7.37093 2.0038 7.18952
O 8.30428 5.59528 9.1389
O 8.42685 3.58922 4.68492
O 8.38953 5.89388 6.28489
O 7.41358 8.16928 6.34744
O 10.6039 5.76785 9.77882
O 6.87901 9.91534 9.88904
O 9.17875 4.11848 10.8705
Si 11.0964 4.7476 2.83702
Si 12.8101 0.162252 4.72613
Si 9.0464 9.27409 9.08705
Si 1.44107 1.58137 11.585
Si 10.9301 1.1046 6.89432
Si 15.2412 5.67574 6.07117
O 10.1741 9.74579 10.0444
O 12.1301 17.4769 10.628
O 12.0254 1.81082 7.87267
O 15.3537 5.83168 7.63127
O 11.2335 17.5304 7.149
O 13.9128 3.15772 9.22969
O 9.59744 1.22072 7.7559
O 14.017 11.7982 8.37715
O 13.3814 5.83044 6.12443
O 13.5387 17.1811 8.48506
O 9.11586 10.4081 7.98179
O 0.380673 2.54727 10.8804
Si 14.9927 12.2503 7.20633
Si 2.67627 9.82662 4.71607
Si 13.7247 13.8963 11.0527
Si 4.01582 14.6059 10.3659
Si 0.726577 9.07093 8.96722
Si 1.57492 16.5984 7.94292
O 6.56255 15.3079 14.8504
O 2.23719 9.45622 9.22007
O 4.18953 10.8536 8.20718
O 2.09524 15.0486 7.19222
O 2.21412 8.26303 5.81781
O 2.5093 14.4376 4.67174
O 0.244343 13.4328 7.86244
O 2.81293 17.1305 8.79357
O 15.0279 14.0551 11.9637
O 2.9956 13.9915 9.29785
O 0.195084 16.9953 7.32582
O 3.49912 11.6329 13.0048
Si 3.88844 13.6442 5.07294
Si 6.8838 9.43511 5.54528
Si 6.72855 15.4046 9.44542
Si 10.0353 11.6853 7.66141
Si 4.59228 11.1455 6.70302
Si 7.7782 16.1552 6.75181
O 5.4081 14.5424 9.54578
O 7.98607 10.0948 12.2211
O 10.7248 10.4256 4.64989
O 11.7243 1.13417 5.4539
O 5.8498 10.222 6.42473
O 8.11289 14.7828 6.00885
O 4.53528 12.6741 6.19266
O 7.34038 17.5803 6.30576
O 6.79669 15.8171 7.9393
O 10.0259 12.452 9.07625
O 6.53482 16.6869 10.3429
O 9.55289 12.8669 6.70667
Si 9.57954 13.9932 5.39367
Si 0.528022 8.56715 5.94884
Si 10.6881 16.1033 7.46322
Si 14.0181 11.0834 9.80969
Si 11.394 9.70776 5.93545
Si 12.7519 16.3943 9.61867
O 9.12706 16.3742 7.62231
O 12.6838 10.202 9.90496
O 0.992444 10.081 4.97247
O 13.6483 15.2063 10.1448
O 12.9385 9.65198 5.81207
O 2.08581 16.9499 4.56592
O 10.6484 15.0914 6.23873
O 13.6868 17.6253 5.94444
O 11.5078 15.7561 8.8089
O 15.217 10.0494 9.58637
O 11.5964 1.46114 15.8265
O 13.7239 12.3308 10.7599
Si 14.8736 3.62737 10.4085
Si 6.42297 0.67312 16.297
Si 1.76332 6.82337 15.6164
Si 3.96392 2.06336 2.37197
Si 3.86709 2.3259 16.3046
Si 3.89679 4.91789 14.6358
O 0.39199 6.07757 16.0914
O 5.6147 17.4046 15.766
O 3.62724 2.37004 0.836913
O 4.75399 6.14572 15.0913
O 2.50248 2.0661 12.6489
O 4.13803 4.77697 13.0247
O 0.98677 1.10214 14.7539
O 4.71697 8.7856 9.70126
O 2.46293 5.59148 14.8557
O 6.41292 16.6697 12.7616
O 1.36256 8.35145 15.6137
O 4.3296 5.09291 1.20943
Si 4.04996 4.23521 11.4813
Si 5.51525 17.2783 11.5318
Si 5.91987 7.17004 15.2646
Si 12.8207 2.43992 15.5922
Si 7.82612 2.84439 14.7632
Si 7.37181 7.07996 12.5996
O 7.06992 6.20511 15.7919
O 9.81081 0.461282 0.279613
O 7.50291 1.36728 15.3063
O 8.7822 7.39714 13.3136
O 8.51983 3.23779 13.4078
O 7.54852 5.49885 12.3961
O 5.38997 1.85506 16.4069
O 6.89752 7.69552 11.2117
O 6.35484 7.39086 13.7427
O 12.3845 3.21123 13.9683
O 3.93807 3.45497 3.1639
O 8.161 3.90815 15.879
Si 8.71552 4.38403 12.3243
Si 12.3633 0.0791969 12.1085
Si 9.9683 6.53982 14.0169
Si 15.2071 0.468404 13.7427
Si 13.5115 2.72648 12.8417
Si 11.5423 6.32794 10.9175
O 9.47761 6.05499 15.437
O 0.176015 0.689647 -0.127306
O 15.2276 17.1412 15.0378
O 4.02712 3.85244 15.83
O 13.0316 16.7385 12.7738
O 12.9349 5.97013 10.3535
O 9.89525 5.25111 13.0538
O 11.5541 7.87922 10.7297
O 13.8828 3.78186 11.7016
O 13.8685 1.33112 14.6798
O 11.1677 7.52121 14.1961
O 0.599361 0.492345 12.4244
Si 0.266189 13.6446 13.2535
Si 3.70132 9.98157 9.41852
Si 2.40826 15.3382 14.5988
Si 4.42953 11.8681 11.7251
Si 2.04585 11.1783 13.4445
Si 3.8992 1.79494 13.3269
O 1.98212 14.4351 15.8485
O 1.9235 10.7736 14.9405
O 5.96035 11.4368 11.6588
O 4.14047 0.291296 12.9219
O 1.74804 9.90006 12.6152
O 6.36458 3.26516 14.3883
O 1.03823 12.2947 13.0022
O 4.43742 15.8949 11.2924
O 1.31243 14.8071 13.5674
O 9.7076 13.5089 11.3259
O 3.50869 1.67191 14.8674
O 4.26677 13.3681 11.3202
Si 1.61829 13.9099 8.51873
Si 7.41216 10.9484 11.068
Si 7.44085 15.7738 13.5681
Si 9.24622 11.4842 14.7594
Si 8.95752 13.3208 9.95417
Si 10.1611 17.0977 13.9426
O 4.34647 13.1361 1.39416
O 11.0096 15.7594 13.5596
O 8.06036 14.5066 12.838
O 9.21314 12.7021 15.8164
O 7.94181 12.192 10.3509
O 7.99307 14.58 9.83164
O 3.71969 10.9758 10.6328
O 12.6615 1.65441 12.0591
O 8.6564 16.616 14.0763
O 10.6413 10.8043 14.5104
O 9.02412 16.9089 2.20693
O 7.92174 10.6778 15.0657
Si 12.5725 15.3457 13.4383
Si 11.5479 9.45018 10.7378
Si 11.1695 0.139272 16.6262
Si 14.2313 10.8372 17.0881
Si 11.9686 10.6185 13.6638
Si 13.4414 12.9756 15.0909
O 10.71 17.2001 15.4388
O 13.1244 9.85895 0.528882
O 12.6655 9.39676 14.4074
O 1.98291 16.7765 15.1579
O 11.5373 10.0201 12.2308
O 14.8644 13.3307 14.4562
O 12.8591 11.8575 14.1089
O 12.6131 14.3009 12.1728
O 12.652 14.2924 14.655
O 15.3368 10.225 16.1063
O 12.0446 17.3809 0.662636
O 13.7661 12.1982 16.436
324
 Atoms. Timestep: 500
Si 0.060331 5.17301 17.0388
Si 5.16477 15.9247 15.736
Si 5.2564 7.26758 4.88151
Si 3.95823 1.92205 6.49905
Si 2.36523 0.530346 4.277
Si 4.00868 5.02978 3.37226
O 3.51199 5.65294 5.31281
O 4.6451 1.29519 9.74522
O 3.04924 1.19183 5.51838
O 6.14482 8.64465 15.1162
O 3.03219 0.884639 2.94914
O 2.29964 6.22056 3.07176
O 1.03655 5.51898 1.17576
O 2.68375 6.76693 16.9448
O 5.39602 6.2363 3.56769
O 5.18296 1.02622 6.78146
O 4.0796 8.01882 4.22481
O 4.32443 3.51259 6.5401
Si 2.41539 6.37735 1.44931
Si 8.51797 0.722882 1.33333
Si 7.63344 5.43672 5.20453
Si 8.66361 3.09882 3.5037
Si 6.43545 1.03236 3.33771
Si 8.39283 5.8524 2.21365
O 6.27298 5.07643 5.86479
O 6.4115 1.64299 4.83941
O 8.1062 4.23198 2.35523
O 12.0531 4.71252 1.53691
O 7.2857 0.691348 0.417482
O 8.47588 5.86651 0.634792
O 5.37151 2.07038 2.59949
O 7.75042 9.80528 0.666071
O 8.06255 6.05341 3.81256
O 10.2949 3.45263 3.5584
O 6.33211 8.44687 4.68616
O 10.0946 5.67247 2.50838
Si 8.25104 5.58641 16.1726
Si 0.612451 17.8206 15.6616
Si 13.0847 4.60339 5.75023
Si 15.1474 0.796227 2.99819
Si 14.789 2.29607 0.177947
Si 12.5599 5.69808 0.319027
O 12.2767 4.91444 4.33373
O 13.7607 0.850348 3.6946
O 14.9422 1.72582 1.65686
O 12.3494 7.11995 1.15126
O 13.3991 2.99028 16.6598
O 0.254584 3.53327 0.129602
O 14.1364 5.55886 0.430702
O 12.4274 6.22023 15.8269
O 14.8727 4.56681 5.64392
O 0.763498 0.934436 4.13653
O 15.3648 7.47374 6.29975
O 12.9145 3.61362 7.01966
Si 1.3073 14.6897 0.327204
Si 1.31099 10.1482 16.0298
Si 2.24958 15.5241 3.7318
Si 4.35319 11.9518 2.32273
Si 1.27889 11.7853 1.42213
Si 4.05889 14.8901 1.49629
O 13.2955 13.5808 7.36142
O 3.68611 10.1301 5.21582
O 2.69962 11.6642 2.09059
O 5.01117 15.8424 2.35339
O 1.8792 10.8733 0.28676
O 3.96602 15.6368 14.7526
O 1.2158 13.1437 0.694838
O 4.94006 15.2139 0.0914771
O 2.57732 15.1874 1.16416
O 5.76089 11.3931 1.80444
O 3.1018 1.71619 7.89408
O 4.63448 12.8402 3.6377
Si 9.25466 13.2402 12.9231
Si 6.98597 9.61442 15.9633
Si 6.04539 15.9873 3.6312
Si 9.492 10.9722 4.25486
Si 6.94534 11.6178 0.858283
Si 9.2726 15.6334 2.35348
O 5.45057 14.8562 4.71085
O 8.2242 10.2784 4.81816
O 7.94832 12.6542 0.0253761
O 9.89308 14.9893 3.78457
O 6.15296 11.1484 16.4075
O 9.34564 14.3712 1.00121
O 9.07684 11.7095 13.4463
O 8.59304 1.8399 2.49188
O 7.48342 15.4102 3.03492
O 9.65132 10.4472 2.81488
O 6.38389 17.5272 3.63826
O 9.25612 12.5927 4.13595
Si 9.47958 13.151 0.0455703
Si 12.4376 7.64439 15.1156
Si 12.2828 16.7512 1.91616
Si 11.9251 8.61468 0.900531
Si 9.76833 10.5909 1.23614
Si 14.9635 15.7442 2.61776
O 11.5895 10.8227 7.24444
O 0.607108 9.71095 7.3132
O 11.2648 9.99314 0.981205
O 0.812301 15.2709 3.47335
O 11.6906 8.32198 16.4326
O 0.0506538 15.3408 1.09018
O 10.0235 12.1855 1.25422
O 15.2423 17.255 2.43524
O 10.8449 16.1352 1.80114
O 15.24 11.2678 1.45965
O 12.034 17.2726 3.43098
O 13.3784 15.6962 2.1466
Si 13.3724 2.38855 7.92126
Si 3.47094 0.63126 9.08471
Si 0.295892 6.20289 9.44803
Si 5.90323 1.87443 10.5992
Si 14.5059 17.6915 7.05489
Si 3.28733 5.63912 9.06814
O 15.1989 5.05627 10.1992
O 6.18737 0.690781 11.6227
O 2.28698 1.09558 10.119
O 6.86091 7.6105 8.64381
O 0.689675 15.2636 8.89918
O 4.52499 5.54051 7.97431
O 14.3361 1.28055 7.47123
O 1.91311 5.90472 9.64477
O 3.41931 3.90383 9.93625
O 7.11543 2.1489 9.58979
O 0.380706 7.73543 9.06024
O 5.3007 3.1668 11.2496
Si 4.69345 4.93687 6.47704
Si 6.76454 0.828735 6.32085
Si 6.21457 8.32036 9.76806
Si 9.6216 4.76141 9.63956
Si 8.29519 1.91691 8.51569
Si 7.99244 7.48778 7.41139
O 4.31652 5.85514 10.5807
O 10.7839 0.109882 12.9854
O 8.97081 3.36077 8.88848
O 9.36862 8.19605 8.30079
O 7.35635 2.28129 7.07707
O 8.03025 5.24205 9.82544
O 8.10565 3.88258 4.76631
O 8.37739 6.49315 6.30731
O 7.66642 8.68509 6.55448
O 10.3223 6.11708 10.0906
O 6.54768 9.92155 10.0312
O 9.50502 4.09871 11.0722
Si 11.2121 4.5982 2.94473
Si 12.684 0.196549 4.59228
Si 9.18289 9.58184 9.26526
Si 1.44936 1.8282 11.4508
Si 10.7249 1.0743 6.68181
Si 15.3877 5.97863 6.48564
O 10.5733 9.36525 9.80734
O 12.3403 17.3819 10.577
O 12.0619 1.52802 7.69256
O 0.134476 5.64879 7.94362
O 10.8329 17.4394 6.84721
O 13.9221 3.13396 9.15203
O 9.65295 1.34116 7.88541
O 14.0037 11.5059 8.17265
O 13.4127 5.99547 6.58731
O 13.8407 17.0896 8.47802
O 9.40825 10.762 8.28067
O 0.597342 2.70156 10.4286
Si 14.4264 12.5414 7.13992
Si 2.83789 8.97195 4.6032
Si 13.5901 13.9934 11.1597
Si 3.90011 14.2646 10.3998
Si 0.682811 9.37391 8.90494
Si 1.62011 16.3554 7.67436
O 6.47542 15.5545 15.0211
O 2.19685 9.33492 9.17115
O 3.68188 10.6604 7.68954
O 1.99478 15.0385 6.89697
O 2.23723 8.31412 6.02267
O 2.7699 14.3703 4.63514
O 0.0385547 13.4048 7.6813
O 2.74407 17.3021 8.4266
O 14.8592 13.9615 12.1248
O 2.82165 14.0785 9.29603
O 0.526309 17.2293 7.00073
O 3.46035 11.2403 12.7594
Si 4.35523 13.7603 4.78353
Si 6.99117 9.65005 5.48069
Si 6.53634 15.3132 9.28173
Si 10.5303 11.8327 7.89075
Si 4.44989 11.1628 6.32578
Si 7.60455 15.9023 6.58609
O 5.35827 14.4692 9.90666
O 8.69653 10.0058 11.012
O 10.7517 10.7281 4.95216
O 11.638 1.15953 5.42414
O 5.971 10.6429 6.35441
O 8.34276 14.7382 5.7492
O 4.07958 12.6601 6.08499
O 6.66869 17.251 6.27238
O 6.61791 15.1059 7.67072
O 10.2873 12.8446 9.13555
O 6.17205 16.5172 10.2515
O 9.8486 12.689 6.55979
Si 9.7734 14.203 5.29677
Si 0.426503 8.88976 5.97064
Si 10.3519 16.1894 7.71277
Si 13.942 11.1703 9.81162
Si 11.9683 10.1827 5.8042
Si 12.8195 16.4278 9.44814
O 8.73407 16.4777 7.43832
O 12.7968 10.2216 10.1771
O 1.13091 9.88271 4.7936
O 13.354 15.1428 10.1832
O 12.9457 11.355 5.33367
O 2.40127 16.9056 4.46535
O 10.4721 15.1131 6.56762
O 13.8012 17.4573 5.65984
O 11.5378 15.7583 8.72842
O 15.2826 10.1803 9.8945
O 11.6558 1.55729 15.6901
O 13.5056 12.4212 10.7826
Si 14.8356 3.51162 10.3668
Si 6.34498 0.732477 16.2597
Si 1.86448 7.0168 15.5979
Si 3.86243 2.22453 2.34313
Si 3.66477 2.11914 16.075
Si 3.66878 4.80124 14.5675
O 0.382819 6.41817 16.0422
O 5.35158 17.4846 15.9924
O 3.35149 2.22835 0.69711
O 4.8562 5.60392 15.2276
O 2.57497 1.77864 12.5366
O 3.89553 4.5483 12.9242
O 0.840554 0.99744 14.1866
O 4.69041 8.63856 9.39346
O 2.48596 5.79714 14.7039
O 6.44667 16.0704 12.684
O 1.73225 8.63877 15.8316
O 3.42502 5.15552 1.37319
Si 4.3076 4.34271 11.2913
Si 5.2911 16.7619 11.8159
Si 5.69019 7.07301 14.9947
Si 12.4547 2.91228 15.4737
Si 8.10411 2.81574 14.8331
Si 7.14481 6.70557 12.3464
O 6.85669 6.33226 15.9385
O 9.8925 0.868452 0.492768
O 7.27021 1.45029 15.1915
O 8.2791 7.47398 13.1198
O 9.26138 2.90497 13.6614
O 7.65161 5.16983 12.0945
O 5.25483 1.81271 16.2099
O 6.58811 7.59227 11.1001
O 5.94651 6.77708 13.4167
O 12.1066 3.32821 13.9444
O 3.29627 3.54288 3.16713
O 8.63055 4.05131 15.7288
Si 8.98001 4.33146 12.463
Si 12.0579 17.8174 12.0744
Si 9.72501 7.00487 13.9165
Si 15.3234 0.226444 13.2816
Si 13.5863 2.59185 12.9649
Si 11.6601 6.2892 11.0178
O 9.33625 6.47534 15.3804
O 15.4265 1.17516 16.2836
O 14.8779 17.1858 14.5939
O 3.58213 3.61876 15.6894
O 12.8822 16.6526 12.8452
O 12.7117 5.76077 10.4132
O 9.90924 5.51109 13.2789
O 12.062 7.82679 10.8167
O 13.9287 3.45838 11.7608
O 14.0061 1.92429 14.3231
O 11.156 7.50319 14.2312
O 0.321465 0.587521 11.8466
Si 15.5801 13.7355 13.5343
Si 3.70973 9.84921 9.06034
Si 2.36687 15.348 14.6201
Si 4.4843 11.595 11.6402
Si 2.05377 11.2834 13.35
Si 4.00284 1.30393 13.2145
O 1.89331 14.5291 15.9365
O 1.74951 11.1092 14.8792
O 5.90061 10.9925 12.1443
O 4.30978 17.7282 12.9351
O 1.49022 10.0316 12.7872
O 7.00346 3.66646 14.0187
O 1.16122 12.6738 13.0333
O 4.17976 15.5898 11.4526
O 0.85135 15.0641 13.7912
O 9.29696 13.2536 11.4132
O 3.57392 1.27466 14.7244
O 3.95449 13.1596 11.3964
Si 1.50113 13.7685 8.4536
Si 7.26736 10.9769 10.9651
Si 7.38454 15.3136 13.8356
Si 9.38731 11.0355 14.8777
Si 8.97938 13.4476 9.91829
Si 10.0248 16.9553 14.0817
O 4.18865 13.3903 1.47339
O 10.976 15.7396 13.9683
O 7.97894 13.7839 13.4751
O 9.90664 12.3806 15.817
O 7.91303 12.1532 9.76027
O 7.78067 14.5055 9.94618
O 3.9159 10.9033 10.2261
O 12.7455 1.2873 12.2083
O 8.54272 16.2914 14.3136
O 10.6739 10.1511 14.6533
O 8.82044 17.2854 2.30815
O 8.25371 10.1017 15.1433
Si 12.503 15.2696 13.7201
Si 11.6903 9.35938 10.8589
Si 11.1574 0.444635 16.6046
Si 14.1481 10.7767 0.368648
Si 12.1591 10.3187 13.7957
Si 13.242 12.7194 15.3281
O 10.3988 17.3653 15.6228
O 13.4494 9.38233 0.738639
O 13.0632 8.98516 14.4012
O 1.82424 16.8589 15.1978
O 11.6534 9.58197 12.4485
O 14.5167 12.8928 14.3183
O 12.7646 11.4744 14.5597
O 12.4827 14.3555 12.3132
O 12.3193 13.8978 14.8717
O 15.1838 10.2205 16.3366
O 12.1638 17.6066 0.570167
O 13.836 12.1116 16.5829
324
 Atoms. Timestep: 1000
Si 0.140738 5.23269 0.346824
Si 5.15716 16.0042 15.2861
Si 4.5945 7.34433 4.79436
Si 3.89189 2.2122 6.56212
Si 2.62124 0.541599 4.06975
Si 3.53678 5.0449 3.13558
O 4.98385 6.41602 6.31417
O 4.58185 1.12585 9.65243
O 2.9301 1.75599 5.32564
O 6.17612 8.31567 15.9056
O 3.44432 1.3015 3.08407
O 2.49344 6.29394 3.31584
O 1.36037 5.79321 1.19132
O 2.63508 7.02475 16.7131
O 4.74815 6.10688 3.67252
O 5.11421 1.31135 6.40321
O 3.45028 8.45711 3.97857
O 4.24472 3.69474 6.2068
Si 2.5026 6.82715 1.3864
Si 8.58187 1.00119 1.0587
Si 7.77697 5.61824 5.57318
Si 9.12359 3.54471 4.03265
Si 6.89377 1.11518 3.40079
Si 8.7781 6.21381 2.73971
O 6.7621 4.63743 6.38981
O 6.81459 1.60226 4.78212
O 8.62873 4.63793 2.91153
O 12.196 4.89522 2.06819
O 7.17791 1.01987 0.413937
O 8.4661 6.58217 1.1815
O 5.82541 1.63864 2.26559
O 8.19244 9.5249 0.829732
O 7.93559 6.57383 4.2617
O 10.6559 3.76469 3.95324
O 5.86285 8.25261 4.55343
O 10.3981 6.28971 3.06868
Si 8.41991 5.95643 16.7017
Si 0.644022 0.257977 15.8202
Si 13.0008 4.50096 5.97671
Si 15.1727 0.97595 3.46291
Si 14.5612 2.29795 0.72366
Si 12.7634 5.9069 0.864165
O 12.2353 5.50571 4.84836
O 13.8465 1.20937 4.34974
O 14.7862 1.55796 2.12139
O 12.5799 7.4183 1.37483
O 13.5193 2.89615 16.6064
O 0.0591239 3.71162 0.867935
O 14.2884 5.74341 1.16796
O 13.0587 6.27614 16.2432
O 14.8374 4.69764 5.52869
O 1.1924 1.37345 3.7343
O 14.9612 7.75626 5.93542
O 13.4907 3.41089 7.08029
Si 1.36202 14.4895 0.800104
Si 1.25898 10.1513 15.7994
Si 2.20825 15.3867 3.55176
Si 4.43463 11.9971 2.35507
Si 1.57458 11.2746 1.67168
Si 4.50258 14.6493 0.870114
O 12.952 14.1102 7.77023
O 2.9693 10.8687 5.45471
O 3.08087 11.0953 2.22473
O 5.16007 15.5424 2.12933
O 1.94137 10.6257 0.178084
O 3.71452 15.6715 14.7762
O 1.61353 12.9542 1.30999
O 5.28023 14.9003 16.5197
O 2.89436 15.1358 1.01338
O 5.66301 11 1.95294
O 3.10712 1.69187 7.81078
O 4.97036 12.9006 3.57157
Si 9.28052 13.0422 12.8501
Si 7.40946 9.19614 16.2323
Si 6.22819 15.821 3.20756
Si 9.53964 10.995 4.68678
Si 6.87269 11.4852 0.868097
Si 9.17276 15.3726 2.42594
O 5.49631 15.1588 4.57601
O 8.16187 10.1879 4.85343
O 7.78363 12.4099 0.0768357
O 9.33175 15.0266 4.07357
O 6.29521 10.7291 16.5999
O 9.14112 14.3157 1.05733
O 8.85781 11.5463 13.5052
O 8.73441 1.66147 2.66011
O 7.56015 15.2079 2.45421
O 10.0921 10.3237 3.20033
O 6.50537 17.4316 3.38265
O 8.80543 12.5735 4.25562
Si 9.19585 12.8685 0.0300256
Si 12.528 7.34763 15.1901
Si 11.9246 16.7866 2.04934
Si 12.0428 8.77075 0.873881
Si 9.49451 10.2815 1.7284
Si 14.8069 15.5648 2.84849
O 11.7477 11.5718 7.22977
O 0.564473 9.36922 7.66711
O 10.6029 9.24496 1.13178
O 0.561091 14.9231 3.84555
O 11.7322 8.30268 16.2229
O 0.224252 15.3332 1.39951
O 9.7205 11.8 1.37928
O 15.1797 17.1999 3.06873
O 10.9032 15.5483 2.30437
O 15.3872 11.0307 1.77016
O 12.0249 17.6113 3.3863
O 13.4145 16.0566 2.14426
Si 13.5139 2.17597 8.00004
Si 3.26301 0.58198 9.03428
Si 0.513269 6.24513 9.23224
Si 5.86092 1.68132 10.2531
Si 14.1088 17.3328 7.05119
Si 3.44725 5.29813 9.24561
O 15.3363 4.97042 10.1062
O 6.24928 0.766199 11.6236
O 2.19475 0.845017 10.2817
O 6.89208 7.57266 8.40669
O 0.786799 15.7845 9.04435
O 4.74871 4.97508 8.26751
O 14.3587 1.07834 7.05697
O 2.08758 5.99076 9.05118
O 2.92602 3.81411 10.2371
O 7.29123 1.88298 9.69763
O 0.253002 7.69735 9.47178
O 5.33757 3.23267 10.4541
Si 5.20828 4.89389 6.81631
Si 6.6466 1.03444 6.23721
Si 5.85435 7.92771 9.76732
Si 9.33222 5.28844 9.57253
Si 8.23266 2.51413 8.52677
Si 7.97925 8.31839 7.43732
O 4.47148 5.57486 10.6705
O 10.4426 17.3594 12.9469
O 8.76796 3.98058 8.60865
O 9.3087 8.45548 8.47219
O 7.25145 2.31361 7.23088
O 8.26575 6.21805 9.70611
O 8.90352 4.54996 5.35316
O 8.46857 6.83553 6.61898
O 7.07536 9.27874 6.6966
O 10.5763 6.08222 9.97642
O 6.72673 9.45935 9.7147
O 9.25857 4.42002 10.9853
Si 11.4851 5.16774 3.47043
Si 12.5072 0.49049 4.75387
Si 9.83097 9.63316 9.42881
Si 1.57011 1.59046 11.5655
Si 10.7873 1.32492 7.02788
Si 15.0387 6.26917 6.22018
O 11.1853 9.5147 10.1946
O 12.0608 17.1236 10.6989
O 12.0661 1.77469 7.77268
O 15.3219 5.86611 7.78191
O 10.7225 17.6312 7.28195
O 14.6919 2.5177 9.14765
O 9.49277 1.74719 7.90512
O 13.8981 12.1888 8.4481
O 13.2378 6.04998 6.8597
O 13.1638 16.8788 8.27764
O 9.91218 10.8217 8.53048
O 0.786661 2.76052 11.0214
Si 14.1327 13.287 7.08358
Si 2.39786 9.62939 4.57868
Si 13.3305 13.783 11.4753
Si 3.70433 13.9984 10.5038
Si 0.629801 9.29471 9.15316
Si 1.64046 16.4722 7.54935
O 6.02294 15.1246 14.1885
O 2.26104 9.20468 9.34668
O 4.10668 10.4038 7.6229
O 2.2166 14.7932 7.21225
O 1.85712 8.64395 5.86959
O 3.0408 14.3678 4.38357
O 15.5772 13.9604 7.52336
O 2.71161 16.9455 8.61118
O 14.9221 13.7611 11.9914
O 2.38632 13.9754 9.78042
O 0.190943 16.6169 7.03187
O 3.16579 10.5747 12.5534
Si 4.58174 13.8771 4.6674
Si 6.74141 9.49062 5.07893
Si 6.03366 15.177 9.03389
Si 10.378 12.2828 7.98528
Si 4.31491 11.1748 6.288
Si 7.61383 15.8979 6.58672
O 4.8909 14.1439 9.48683
O 8.73067 9.90379 10.9534
O 11.0325 11.6265 4.95011
O 11.3491 1.28422 5.50957
O 5.33334 10.4079 5.38685
O 7.89546 14.3583 5.9106
O 4.53158 12.7588 5.99756
O 7.35677 17.5262 6.27342
O 6.4238 15.4807 7.51724
O 9.62826 13.3603 9.02927
O 5.63844 16.701 9.80254
O 9.68538 12.8621 6.7769
Si 9.42428 13.9376 5.21996
Si 0.163481 9.22678 5.98896
Si 10.4187 16.0483 7.42044
Si 14.2246 11.4097 10.0005
Si 12.3592 11.4606 5.78051
Si 12.6334 16.1393 9.55339
O 8.84658 15.8214 7.63299
O 13.4455 10.0709 9.84774
O 0.456376 9.68591 4.35284
O 13.2043 14.8032 10.1786
O 13.0903 12.9499 5.75817
O 2.31654 16.82 3.95798
O 10.819 15.1089 6.08079
O 12.8456 17.3462 5.94661
O 11.1565 15.81 8.86044
O 0.198931 10.6805 9.7963
O 12.3382 0.907639 15.5654
O 12.8938 12.324 10.9582
Si 14.8736 3.50381 10.4169
Si 6.70124 0.927602 15.7821
Si 1.6817 6.9893 15.4318
Si 4.29716 2.12217 2.03122
Si 3.87375 2.00161 15.8594
Si 3.44234 4.92637 14.3477
O 0.223493 6.38251 16.1327
O 6.01353 17.3695 15.5894
O 3.89401 1.59795 0.530565
O 4.86644 5.55541 14.7106
O 2.6501 1.81243 12.6388
O 3.4738 4.39212 12.7409
O 0.806544 1.13648 14.5272
O 4.57982 8.48963 9.00039
O 2.16441 5.67691 14.7527
O 6.2185 15.6574 11.8285
O 1.29504 8.5574 15.0481
O 3.86708 5.76619 1.46724
Si 4.32175 3.96417 11.4047
Si 4.8881 16.751 11.2633
Si 5.905 6.78282 15.1106
Si 12.8693 2.41273 15.2839
Si 8.51771 3.45696 15.1309
Si 7.3061 7.16198 12.3978
O 6.75287 6.0705 16.2235
O 10.0648 1.41775 0.0318168
O 7.69385 2.0357 15.1993
O 8.75211 7.26035 12.9131
O 9.40549 2.98133 13.895
O 7.42953 5.46765 12.0082
O 5.47621 2.0941 15.7326
O 6.81244 7.40495 10.9355
O 6.38173 7.27406 13.6596
O 11.8434 3.1019 13.731
O 4.03364 3.67298 2.81083
O 8.4544 4.27215 16.4969
Si 8.38841 4.29979 12.3391
Si 11.8403 17.5629 12.22
Si 9.8948 6.5914 13.8984
Si 14.7757 0.829618 13.5457
Si 12.7785 2.59336 12.4533
Si 12.1019 6.06718 10.5188
O 9.19093 6.35733 15.3365
O 15.3705 1.15567 16.879
O 14.3229 17.852 14.9322
O 3.42371 3.38954 15.1287
O 12.7305 16.4849 13.0211
O 12.8108 5.03126 9.87116
O 9.62464 5.04455 13.1941
O 12.5886 7.53582 10.1765
O 13.6459 2.87187 11.2676
O 14.1963 2.57597 14.2342
O 11.2992 6.48611 14.4507
O 0.46718 0.646293 12.2858
Si 0.483321 13.5709 13.1413
Si 3.67366 9.82449 9.03916
Si 2.18237 15.3798 14.9826
Si 4.35113 11.2938 11.6266
Si 1.66703 10.8327 12.9039
Si 4.04858 1.21871 13.0844
O 1.30234 14.6074 16.2146
O 1.75637 10.8526 14.5335
O 5.90262 10.9314 11.7035
O 4.19163 17.6694 12.4753
O 0.901071 9.9536 11.7721
O 7.39193 4.26965 14.2171
O 1.40494 12.4687 12.6595
O 3.65725 15.5798 11.0346
O 1.4961 14.6521 13.6784
O 9.22912 12.8528 11.2854
O 3.88804 0.903327 14.6455
O 4.17694 12.7889 11.5101
Si 1.21056 14.0165 8.70755
Si 7.27249 10.5493 10.742
Si 7.22423 15.3118 13.0629
Si 9.54684 10.6366 14.7055
Si 8.36437 13.2175 9.96751
Si 9.73921 16.4833 14.2311
O 4.36777 13.1341 1.03924
O 10.9331 15.4455 14.4577
O 7.79805 13.7407 13.0818
O 9.75863 11.7912 15.7708
O 7.60243 11.8591 9.70092
O 7.32999 14.4276 9.5516
O 3.9701 10.8005 10.2762
O 12.224 1.23715 12.2998
O 8.29795 16.124 13.7974
O 10.8082 10.1435 13.9782
O 8.79375 17.2511 1.30701
O 8.19284 9.93104 15.0777
Si 12.5079 15.1464 13.9749
Si 12.677 9.08392 10.9023
Si 11.1096 0.356915 16.4268
Si 14.3974 10.798 0.454628
Si 12.3221 9.96375 13.7295
Si 13.6477 12.4304 14.8434
O 10.0487 17.4403 15.5368
O 13.0535 10.0262 0.840833
O 12.7711 8.49405 14.163
O 1.42242 16.7715 15.1049
O 12.4157 9.99723 12.1722
O 15.0761 12.7546 14.2732
O 13.3549 10.9014 14.4293
O 12.4115 14.1464 12.8007
O 12.8661 13.8042 14.9385
O 15.0489 9.87749 16.3012
O 11.4701 17.3816 0.7873
O 13.8244 12.0533 16.3595
324
 Atoms. Timestep: 1500
Si 0.211896 4.80523 0.0818055
Si 4.91152 15.823 15.1115
Si 4.62754 7.51703 5.14825
Si 3.83355 2.54791 6.56785
Si 2.53437 1.22663 3.97449
Si 3.84608 5.43249 3.27687
O 4.73444 6.63775 6.46599
O 4.48945 1.1389 9.94748
O 3.00769 1.72083 5.35702
O 6.51215 7.91466 16.2464
O 3.40624 1.7044 2.69112
O 2.26791 6.00617 3.19339
O 1.48536 5.36116 0.892782
O 2.53524 6.88633 16.4499
O 4.85373 6.42494 3.98631
O 5.28468 1.98634 6.66568
O 3.26221 8.02328 4.79049
O 4.32201 4.0059 6.23748
Si 2.34183 6.71774 1.2746
Si 8.84717 0.0757093 1.09392
Si 8.53072 5.72969 5.73109
Si 9.08102 3.39539 3.89589
Si 6.70445 1.11319 2.94868
Si 8.22898 5.91696 2.60394
O 6.82973 5.28346 6.30669
O 6.56845 1.66554 4.44353
O 8.22956 4.28928 3.00257
O 12.191 5.81914 2.27508
O 7.57768 17.6647 17.0497
O 8.53815 5.59636 1.00682
O 5.72168 1.94138 1.86556
O 7.89779 9.10028 0.881927
O 7.93157 6.36371 4.11146
O 10.5558 4.00213 3.37135
O 6.21607 8.35024 4.93468
O 9.78766 6.34453 2.85259
Si 8.57493 5.34561 16.3429
Si 0.729239 17.9145 16.2231
Si 13.2491 4.61712 5.82321
Si 14.9391 1.25135 3.66199
Si 14.2974 2.2041 0.906951
Si 13.038 6.30325 1.00954
O 12.3276 5.31605 4.66539
O 13.896 0.905102 4.77534
O 14.0986 2.17939 2.42984
O 13.0343 7.89315 1.43911
O 13.8322 2.26948 16.2249
O 15.4619 3.3498 0.663224
O 14.5648 5.80268 0.849321
O 12.6798 6.44037 16.3355
O 14.9258 4.81321 5.30293
O 1.07356 1.6399 3.63415
O 15.2167 7.78315 5.60468
O 13.6768 3.52491 6.95609
Si 1.18596 14.3863 0.696881
Si 1.10366 9.51298 15.4348
Si 2.60311 15.8651 3.77367
Si 4.52315 12.3015 2.35722
Si 1.76184 11.3305 1.03503
Si 4.23792 14.8808 1.02652
O 13.1853 14.2142 7.11813
O 3.19188 10.4817 5.15775
O 3.17338 11.571 1.73412
O 4.95738 15.4799 2.23165
O 2.02889 10.2901 16.5927
O 3.49764 15.2187 14.639
O 1.54273 12.689 0.551776
O 4.96959 15.3611 16.7436
O 2.69687 14.7438 1.0808
O 5.72956 11.2097 2.05502
O 2.78297 2.12975 7.89738
O 4.21224 13.1525 3.55875
Si 9.04938 13.0886 13.0711
Si 7.18738 9.36461 16.1427
Si 6.20258 15.7511 2.99767
Si 9.32867 11.232 4.5523
Si 6.95386 11.56 0.939942
Si 9.65157 15.0471 2.27257
O 5.72989 15.0782 4.50326
O 8.39444 10.3703 5.49338
O 8.03857 12.3785 16.8645
O 9.86062 15.1015 4.07994
O 6.29342 10.5921 16.7185
O 9.73734 13.7112 1.24449
O 9.09396 11.5668 13.4833
O 8.15334 0.817272 2.30953
O 7.35437 14.8072 2.67139
O 9.47575 10.0715 3.34029
O 6.1874 17.3963 3.03876
O 8.65916 12.5023 4.07537
Si 9.74105 12.3092 0.217708
Si 12.6856 7.60704 15.2264
Si 12.3547 16.4143 1.98323
Si 11.7873 9.02286 0.890577
Si 9.06586 9.67845 1.80927
Si 15.2281 15.9308 2.92242
O 11.0418 11.9824 7.45039
O 15.3655 9.02263 7.69011
O 10.381 8.65282 1.44234
O 1.05783 15.9061 4.11603
O 11.5832 8.40958 16.2063
O 0.577501 15.6036 1.53388
O 9.55556 11.0359 1.16489
O 14.956 17.6664 2.71153
O 11.1853 15.3481 1.77472
O 0.0762204 11.0895 1.39224
O 12.4071 17.0525 3.47598
O 13.7197 15.3819 2.30325
Si 14.0237 2.20557 7.72224
Si 3.08372 1.08684 9.17684
Si 0.915444 5.83727 9.27731
Si 6.05455 1.69099 10.1392
Si 13.7722 16.993 7.01549
Si 3.85879 5.25541 9.32671
O 0.270569 4.24341 9.44565
O 6.61135 0.356069 11.0317
O 1.80465 1.05071 10.2699
O 6.85925 7.63014 9.29012
O 0.586117 16.1319 8.95691
O 5.02161 4.88061 8.41022
O 13.927 0.73681 7.07843
O 2.44738 5.7819 9.8224
O 3.7838 3.7652 10.3738
O 6.867 2.44716 9.04814
O 0.762563 7.31217 9.49609
O 5.81757 2.73892 11.2901
Si 5.38519 5.04109 6.8902
Si 6.61807 1.61922 6.07432
Si 5.67146 8.42698 10.1892
Si 9.22984 5.07538 10.0136
Si 8.32843 2.76006 8.26879
Si 7.958 7.7352 7.91903
O 5.10267 5.61266 10.737
O 10.262 17.1548 12.9497
O 8.80494 4.13719 8.79928
O 8.942 8.76167 8.58345
O 7.79016 2.45528 6.76118
O 8.07702 6.21315 10.2092
O 8.91583 4.34053 5.27796
O 8.48915 6.93549 6.64509
O 7.044 8.74726 7.16393
O 10.7637 5.53686 10.1481
O 6.28475 9.95416 10.0572
O 9.02324 4.21252 11.2307
Si 11.1959 5.47949 3.4463
Si 12.3153 0.34244 4.73984
Si 9.58415 9.92353 9.33701
Si 0.987035 1.01085 11.644
Si 11.1579 1.39822 7.33384
Si 15.4153 6.27471 6.11325
O 10.9926 9.68858 9.88116
O 11.8188 17.0439 11.0269
O 12.3339 1.94709 8.37609
O 0.591328 5.90606 7.6235
O 10.5774 17.7114 7.78632
O 14.6589 2.23379 9.24251
O 9.9142 2.28668 7.69084
O 14.2807 12.1114 7.90265
O 13.6933 6.27514 6.60032
O 13.3369 16.6646 8.59759
O 8.79422 11.2182 8.25168
O 0.446524 2.56661 11.3948
Si 14.2136 13.1259 6.66541
Si 2.12225 9.24318 4.64572
Si 13.4409 13.6355 11.5164
Si 3.27611 14.1128 10.3381
Si 0.566842 9.05594 9.2145
Si 1.47952 16.8415 7.65895
O 6.13987 14.8118 14.7638
O 2.12999 9.10123 8.69407
O 3.8508 10.6834 7.23378
O 2.03178 15.2325 7.39542
O 1.738 8.98415 6.27416
O 3.32323 15.1909 4.98068
O 15.388 14.2704 7.32965
O 2.77212 17.4676 8.37846
O 14.7932 14.5394 11.9569
O 1.95511 14.0423 9.57999
O 15.3421 16.7648 6.7794
O 3.44054 10.3171 12.6728
Si 4.46996 14.0087 5.02239
Si 7.08037 9.44786 5.54552
Si 5.72925 15.0021 8.90313
Si 9.68276 12.5969 7.91119
Si 4.43848 11.134 5.88377
Si 7.31222 16.2791 6.59246
O 4.57338 14.1296 9.43625
O 8.58489 10.116 10.6455
O 10.8045 11.1652 5.02645
O 11.6917 1.24382 5.90071
O 5.86987 10.6812 5.66007
O 7.97821 14.9733 5.72393
O 4.07699 12.6915 5.84286
O 6.68631 -0.0490184 6.44511
O 6.13673 15.4742 7.46153
O 9.48886 13.4303 9.23372
O 5.6486 16.3293 9.94599
O 9.21879 13.1881 6.5271
Si 9.30093 14.1253 5.25511
Si 15.2825 9.33374 6.20952
Si 10.0747 16.199 7.89699
Si 14.3038 11.5776 9.43485
Si 11.8967 11.3268 6.23819
Si 12.3763 15.9683 9.91698
O 8.48984 16.444 7.55209
O 13.3461 10.3394 9.63146
O 0.363091 9.92941 4.70471
O 12.9031 14.472 10.1994
O 13.0045 12.3579 5.79201
O 2.93973 17.4189 3.87117
O 10.1493 15.4811 6.56581
O 12.5702 16.8127 5.82957
O 11.0154 15.8924 9.14364
O 0.354823 10.6615 9.44366
O 11.6897 1.59436 15.7928
O 14.1599 12.2695 10.8703
Si 14.7924 3.33946 10.3888
Si 7.09119 0.587529 15.5644
Si 1.52979 6.58852 15.0814
Si 4.28284 2.61087 1.7726
Si 4.54351 1.98306 15.6964
Si 3.98986 4.67321 14.3225
O 0.481404 5.63386 15.6534
O 5.74784 17.2453 15.3393
O 3.84829 2.05451 0.312917
O 4.90264 5.59081 15.0317
O 2.21422 1.3684 12.6615
O 4.00012 4.19976 12.8092
O 0.995346 1.29665 15.0949
O 4.59099 8.45238 8.90961
O 2.50002 5.06249 14.6373
O 5.70131 15.7611 12.5007
O 0.876168 7.97612 15.2345
O 3.85606 5.98812 1.54555
Si 5.04336 4.08389 11.6263
Si 4.87164 16.6998 11.3554
Si 5.96875 6.6107 15.5377
Si 12.5906 2.70061 15.2789
Si 9.12119 2.77281 14.9126
Si 7.25327 7.29107 12.7532
O 7.02004 5.5202 15.7937
O 10.29 0.364244 0.636484
O 8.40658 1.33373 15.1297
O 8.86945 7.47635 13.3114
O 9.9121 2.60489 13.5195
O 7.42675 5.75583 12.3748
O 6.12739 1.7761 16.0853
O 6.10517 7.86201 11.5593
O 6.48819 7.1814 14.0682
O 11.8985 3.17918 13.947
O 4.50187 3.99701 2.6809
O 9.21439 3.98524 15.8991
Si 8.56288 4.66654 12.7738
Si 11.6943 17.6499 12.6137
Si 10.0306 6.83084 14.114
Si 14.7283 1.03692 14.0591
Si 12.8289 2.77978 12.5158
Si 12.2574 6.01902 9.92762
O 9.36279 6.47145 15.517
O 15.276 0.902096 0.47889
O 14.3771 17.5866 15.5161
O 4.32795 3.31419 14.9799
O 12.5308 16.7013 13.503
O 12.5913 5.6555 8.65582
O 9.85833 5.2451 13.4196
O 12.527 7.68695 10.3403
O 13.568 3.53325 11.3849
O 14.2901 3.00522 13.9565
O 11.5545 7.08233 14.246
O 0.0116817 0.372726 12.8723
Si 0.692278 13.6192 12.897
Si 3.60725 9.7677 8.52782
Si 1.89701 15.5243 14.7872
Si 4.10435 11.2211 11.3808
Si 1.58443 10.8549 12.7581
Si 3.72656 1.21917 12.8473
O 1.34095 14.8191 16.0498
O 1.07537 10.6829 14.3861
O 5.69559 11.444 11.7415
O 4.25696 17.7815 12.2441
O 1.1739 9.63475 11.9066
O 7.84356 3.40985 13.8337
O 0.970926 12.1733 12.2553
O 3.58339 15.5115 11.1069
O 1.23428 15.1151 13.4515
O 9.28328 13.4578 11.5513
O 3.84693 1.06146 14.3968
O 3.51379 12.7064 11.3518
Si 0.830307 14.3306 8.59365
Si 7.208 10.8052 11.1048
Si 6.89423 14.9906 13.3624
Si 9.70773 10.6764 14.651
Si 8.13106 13.6127 10.3128
Si 9.57304 16.4104 14.2838
O 4.99599 13.2652 1.09714
O 10.4132 14.9683 14.2123
O 7.48064 13.2224 13.3738
O 10.3212 11.8905 15.7645
O 7.48394 12.2586 10.5686
O 7.04025 14.2559 9.16872
O 3.73364 10.6577 9.78088
O 12.4788 1.32575 12.4933
O 8.07302 16.0348 13.8729
O 11.0289 10.276 13.9025
O 9.0532 16.3088 1.63625
O 8.37405 9.97921 15.2969
Si 12.2375 14.9974 13.8728
Si 12.4205 9.22126 10.4783
Si 11.4902 17.9133 16.4741
Si 14.3671 10.7345 0.209566
Si 12.5846 10.0952 13.5384
Si 13.7791 12.6006 14.7598
O 10.7539 16.8753 15.2885
O 12.663 10.372 0.227712
O 13.0008 8.92471 14.4812
O 1.5284 17.0042 14.9185
O 12.3774 9.60514 12.0373
O 15.0339 13.3382 13.9865
O 13.1905 11.4477 13.8861
O 12.2542 14.2648 12.5178
O 12.639 13.6376 14.8142
O 14.9939 9.57978 16.1805
O 12.7166 17.3356 0.695352
O 14.0801 12.0182 16.1368
324
 Atoms. Timestep: 2000
Si 0.310699 5.19334 0.231957
Si 4.92461 15.8162 14.7947
Si 4.9238 7.52284 4.50778
Si 3.57472 2.75269 6.61377
Si 2.24162 1.40458 4.2353
Si 4.16749 5.1344 2.84352
O 4.5721 6.57034 5.77314
O 4.4988 0.90661 9.48201
O 2.66525 2.5604 5.37755
O 6.65162 7.8625 16.4379
O 2.81175 1.62024 2.86316
O 2.84367 6.5132 2.86349
O 1.50834 5.53002 1.15234
O 2.79174 6.62688 16.4913
O 4.97495 6.43304 3.39701
O 4.66074 1.58049 6.06369
O 3.84685 8.67707 3.83628
O 4.23319 4.17206 6.31295
Si 2.70452 6.69689 1.15737
Si 8.62809 17.5891 1.30725
Si 8.00938 5.62729 5.56254
Si 9.78045 3.45709 4.27467
Si 6.43827 0.438246 3.34531
Si 8.93784 5.6933 2.71828
O 6.56802 4.86351 5.79509
O 6.76537 1.84137 4.24761
O 9.0389 4.05739 3.0958
O 12.5282 4.96997 1.99065
O 7.6061 17.4663 0.0737921
O 8.75496 5.31595 1.13499
O 5.25598 1.11753 2.5287
O 8.45131 9.40238 1.06733
O 7.99105 6.15691 3.92375
O 11.1226 4.08282 4.04395
O 6.17054 8.58964 4.84393
O 10.4159 6.00564 3.09317
Si 8.42365 4.94723 16.375
Si 0.904257 0.630456 15.9274
Si 14.0484 4.49193 5.11855
Si 14.7148 1.05855 3.68662
Si 14.5298 2.49845 0.791976
Si 12.7108 5.81235 0.694332
O 13.2823 5.53645 4.17718
O 13.2376 0.943161 4.0718
O 14.4543 1.92116 2.34601
O 12.3969 7.25214 1.30411
O 13.0398 2.73436 0.22418
O 15.3483 3.70352 0.372867
O 14.4788 5.89304 0.978169
O 12.7578 6.42747 16.1111
O 0.468531 4.76783 5.24441
O 0.686507 1.5355 4.08712
O 0.318914 7.21376 5.33793
O 14.089 3.38 6.4687
Si 1.69403 14.6214 0.406168
Si 0.7822 9.35138 15.5372
Si 2.77781 16.1664 3.7506
Si 4.43071 12.0173 2.07231
Si 1.99941 11.351 0.433576
Si 4.6342 14.7559 0.657677
O 13.0459 13.3083 8.10167
O 2.61633 11.0648 5.69971
O 3.06181 11.0121 1.63753
O 5.39223 15.3756 1.92068
O 2.03822 9.80466 16.6886
O 3.37219 15.672 14.623
O 1.93932 13.0054 0.549294
O 5.34855 15.332 16.2843
O 3.07289 15.388 0.837347
O 5.63504 10.8723 1.941
O 2.92538 2.1955 8.03729
O 3.93782 12.3315 3.59574
Si 9.53521 12.9626 13.0338
Si 7.33027 9.22559 16.1435
Si 6.18329 15.1993 3.22046
Si 8.99846 11.5164 4.71823
Si 7.04271 11.1896 1.21052
Si 9.5779 14.8439 2.6504
O 5.59736 14.1305 4.23682
O 7.75224 10.8513 5.29538
O 7.82292 12.2493 0.202328
O 10.1089 15.4257 4.09072
O 6.36416 10.4424 16.5881
O 9.54107 13.841 1.31553
O 9.26253 11.4305 13.368
O 7.7252 0.482911 2.43946
O 7.95329 15.0215 3.01403
O 8.87679 10.9558 3.23093
O 5.99929 16.7047 3.70939
O 8.69467 13.1149 4.67951
Si 9.56933 12.6207 0.10602
Si 12.6375 7.79912 15.2908
Si 12.2455 16.128 2.12897
Si 12.2269 8.79174 1.29169
Si 9.70259 10.3091 1.9831
Si 15.4018 15.9074 2.77586
O 10.8701 11.8163 7.33633
O 15.3375 8.62064 7.34345
O 10.8912 9.30843 1.71693
O 1.42091 15.4559 3.43685
O 12.1233 8.84215 16.5096
O 0.56513 15.341 1.29537
O 9.94548 11.5015 1.12026
O 15.1786 17.426 3.11989
O 11.8654 14.6769 2.05203
O 0.478236 11.1772 0.969886
O 11.6875 17.1588 3.05816
O 13.8083 15.8728 2.11591
Si 13.5974 2.57664 7.84025
Si 3.03916 0.945294 9.05337
Si 0.87461 5.51257 9.40088
Si 5.87483 1.29751 10.1774
Si 14.156 17.6345 6.87463
Si 3.86896 6.04009 9.77022
O 15.0298 5.10223 10.5106
O 6.33041 0.256888 11.6065
O 2.07247 1.08653 10.2309
O 6.57292 7.80386 8.7456
O 0.522452 15.8257 8.83733
O 4.69721 5.80054 8.17778
O 14.2102 1.22431 7.50471
O 2.45421 5.82484 9.31596
O 3.78329 4.16274 10.3726
O 6.95377 1.88682 9.25121
O 0.314794 6.96567 9.361
O 5.52526 2.63407 10.9431
Si 5.23354 5.32769 6.68451
Si 6.39343 1.85366 5.89515
Si 5.87387 8.42472 10.1804
Si 9.30738 5.09937 9.74227
Si 7.92416 2.54216 8.34143
Si 7.80135 7.84616 7.73565
O 5.40848 5.84217 10.6717
O 9.90675 17.3821 12.6839
O 8.47768 3.764 9.08085
O 9.04176 8.55258 8.60047
O 7.28698 2.67252 6.76314
O 8.12642 6.35486 9.90561
O 8.99881 4.4545 5.31723
O 8.05606 6.74148 6.61788
O 7.176 9.18944 6.9523
O 10.4709 6.05165 9.78305
O 6.22958 10.0702 9.81049
O 9.40204 4.4559 11.216
Si 11.8673 5.51697 3.621
Si 12.0577 17.7096 4.58374
Si 9.11328 9.48506 9.89473
Si 1.26414 1.41021 11.6891
Si 10.5364 1.25715 6.9847
Si 0.567313 5.8116 6.42377
O 10.5025 9.5876 10.4293
O 12.1045 17.5258 10.4862
O 11.9482 2.18751 7.32838
O 0.695994 5.01268 7.86264
O 10.8241 17.7606 7.7237
O 13.9617 3.18577 9.18114
O 9.49416 1.9518 7.98886
O 14.698 11.7203 8.07893
O 14.1756 5.86127 6.44933
O 13.6041 16.7078 8.24683
O 9.25962 10.7104 8.64313
O 0.241071 2.64757 11.0558
Si 14.1867 12.8359 6.99306
Si 3.046 9.63557 5.04458
Si 13.2549 13.736 11.0128
Si 3.52118 14.4418 10.4591
Si 0.311352 8.50126 9.00926
Si 1.50075 16.6969 7.49395
O 6.08174 14.7599 14.1376
O 1.7998 9.17112 9.07795
O 3.66927 10.3735 7.86525
O 2.04473 15.0778 7.10076
O 2.27309 8.29271 6.31927
O 3.39351 15.0845 4.81365
O 15.3276 13.7998 7.519
O 2.5542 17.5954 8.1028
O 14.5669 13.8891 11.7665
O 2.20287 14.1607 9.60335
O 0.341275 17.2553 6.67894
O 2.97791 10.5444 12.8241
Si 4.00053 13.5076 4.63252
Si 6.64493 9.85333 5.6051
Si 6.04024 14.8441 8.8809
Si 9.39 12.3644 7.78872
Si 4.16875 11.5316 6.85877
Si 7.22063 16.5742 6.74855
O 4.76549 14.2757 9.39688
O 8.2603 10.3371 10.8391
O 10.5615 11.3488 5.15492
O 11.1604 0.67185 5.54348
O 5.38653 10.6657 5.89585
O 7.93115 15.4925 5.65161
O 3.97407 12.9615 6.05035
O 7.16047 0.400213 6.13987
O 6.42154 15.4824 7.41638
O 9.51914 13.015 9.21336
O 5.82897 16.2552 9.60045
O 9.12788 13.7168 6.9499
Si 9.14521 14.6474 5.56984
Si 0.521489 8.75771 5.90175
Si 10.063 16.4255 8.1352
Si 14.0789 11.0679 9.3564
Si 11.6744 11.2087 6.25083
Si 12.7028 16.3703 9.54797
O 8.35398 16.6079 7.86185
O 12.6757 10.2114 9.3539
O 1.27758 9.48075 4.62639
O 13.1726 14.9342 10.052
O 12.9222 12.3012 6.13083
O 2.56952 17.5312 4.47743
O 10.2486 15.7049 6.60114
O 13.0725 17.0716 5.82253
O 11.2773 15.7998 8.95228
O 14.9251 9.77717 9.62287
O 12.1655 0.930237 15.6045
O 13.6966 12.4528 10.0462
Si 14.2882 3.56749 10.6361
Si 6.71942 0.384217 15.8966
Si 2.05967 6.48601 15.1159
Si 4.16413 2.09727 2.09063
Si 4.3361 2.16778 15.9992
Si 4.16805 4.63919 14.1313
O 0.896353 5.47859 15.6519
O 5.69259 17.3682 14.9984
O 3.84525 2.79111 0.590342
O 4.94628 5.68632 14.9711
O 2.4354 1.45633 12.7316
O 4.85017 4.41599 12.7818
O 0.667655 1.76899 14.6776
O 4.13197 8.57006 10.0009
O 2.76277 5.18365 14.1388
O 6.77728 15.5947 11.8747
O 1.21147 7.95769 14.9152
O 4.34685 5.38274 1.206
Si 5.29882 4.12069 11.1384
Si 5.47608 16.5146 11.4721
Si 6.00022 6.62682 15.3973
Si 12.3717 2.57669 15.6388
Si 8.49119 2.50398 14.5567
Si 7.47949 7.5447 12.7527
O 7.05312 5.46913 16.0669
O 9.8955 0.733542 0.920124
O 7.44618 1.36747 14.7649
O 8.90085 7.5321 13.6206
O 9.60516 1.59703 14.6264
O 7.79167 5.97597 12.0926
O 5.63615 1.48361 16.4594
O 6.72571 8.18178 11.5946
O 6.57559 7.25526 13.9753
O 11.4448 3.00115 14.3604
O 4.55424 3.53934 2.76959
O 8.66772 3.48484 15.9986
Si 8.49747 4.68192 12.5246
Si 11.3935 17.8354 12.1322
Si 10.0311 6.53264 14.4488
Si 14.7479 1.12369 13.8452
Si 12.4272 2.86059 12.9853
Si 12.1012 6.11042 10.1958
O 9.27592 6.00412 15.6751
O 15.0911 1.10022 16.9148
O 14.7113 17.5106 14.765
O 4.20095 3.38412 15.0591
O 12.3696 16.5773 12.6308
O 12.5846 5.9276 8.70157
O 10.1281 5.22451 13.3616
O 12.2642 7.60881 10.2003
O 13.1938 3.21234 11.6826
O 13.9128 2.96279 14.1626
O 11.1099 7.56164 14.8854
O 15.4227 0.641886 12.3019
Si 0.07156 13.7935 13.1494
Si 3.12483 9.79732 9.29614
Si 1.79856 15.8323 14.5675
Si 3.87684 11.6983 11.6298
Si 1.25089 10.9712 12.8428
Si 3.94041 1.39713 12.9103
O 1.42029 14.9447 15.8111
O 0.981329 10.6992 14.3859
O 5.49847 11.4248 11.8115
O 4.19899 17.7128 12.6812
O 0.468482 9.97906 12.1055
O 8.63055 3.27166 13.2328
O 1.00432 12.5269 12.7816
O 4.35783 15.3103 11.5066
O 1.35126 14.8132 13.3803
O 9.38078 13.1263 11.499
O 4.05772 1.27381 14.6425
O 3.52759 13.0628 11.1575
Si 1.18407 14.188 8.37839
Si 6.85184 11.125 11.0778
Si 7.37127 15.0864 13.2209
Si 9.74832 10.5583 14.7888
Si 8.37619 13.4859 10.3601
Si 9.66892 16.5223 14.1447
O 4.48221 13.2052 0.87689
O 10.7709 15.3672 13.9981
O 8.07378 13.5758 13.295
O 9.95245 11.8731 15.7486
O 7.09643 12.43 9.94617
O 7.32694 14.6204 9.60818
O 3.31861 10.8873 10.4467
O 12.0921 1.27761 12.9121
O 8.18035 15.8923 14.2795
O 11.2004 10.33 14.2251
O 9.398 16.3912 1.8547
O 8.51244 9.80608 15.2662
Si 12.2865 15.1795 13.4452
Si 11.9858 9.27643 10.503
Si 10.9993 0.179901 16.6551
Si 14.2683 10.7404 0.392494
Si 12.7468 10.1947 13.5334
Si 13.4382 12.8041 15.0275
O 10.2123 17.2053 15.5309
O 13.4443 9.8734 1.45445
O 13.0595 8.73644 14.1391
O 1.83898 17.4203 15.2032
O 12.6009 10.03 11.9688
O 14.789 13.3166 14.682
O 13.1282 11.6763 13.7126
O 12.3678 14.3031 12.1471
O 12.5171 13.8757 14.5948
O 14.9706 9.55617 16.5888
O 11.9281 16.8262 0.63902
O 13.6527 11.697 16.154
324
 Atoms. Timestep: 2500
Si 0.17537 5.18214 0.418983
Si 5.28595 15.6305 15.0574
Si 5.22839 7.44488 4.28152
Si 3.21573 2.59658 6.34085
Si 1.79628 0.61305 4.58139
Si 4.88155 4.92489 2.30494
O 4.81175 6.72746 5.83714
O 4.85307 1.23751 9.10367
O 2.25987 1.35401 5.82407
O 6.39931 8.33876 16.0794
O 2.58191 1.33624 3.29051
O 3.19529 5.76584 2.65167
O 1.41924 5.81996 1.28943
O 3.01409 6.37735 16.4327
O 5.51862 6.17914 3.39229
O 4.70263 1.74502 6.14298
O 3.80429 8.01431 3.81675
O 3.98069 3.96561 6.29852
Si 2.88008 6.1949 1.00552
Si 8.45805 0.458667 1.04338
Si 7.81645 5.77154 5.62669
Si 9.58918 3.46729 4.72119
Si 6.14454 0.774637 3.19111
Si 8.75993 5.51085 2.82501
O 6.55966 5.04081 6.36895
O 6.5124 1.30548 4.62254
O 8.76677 4.12627 3.52956
O 12.1358 4.84173 2.0196
O 7.36015 0.294471 16.6787
O 8.59948 5.00661 1.17426
O 4.754 1.11976 2.69908
O 8.74985 9.70384 1.11664
O 8.04952 6.29302 4.09463
O 11.0206 3.85837 4.3972
O 6.2913 8.74922 4.86696
O 10.406 5.7401 3.21165
Si 8.40853 5.19101 16.4826
Si 0.436102 0.108415 15.3039
Si 14.3834 3.99756 5.29445
Si 14.6222 0.956696 2.95542
Si 14.8524 2.35376 0.280982
Si 12.8093 5.97921 0.92483
O 13.3322 4.5538 4.07639
O 13.2802 0.86085 3.67015
O 14.7502 1.87936 1.79908
O 12.4344 7.35662 1.63343
O 13.4992 3.01559 16.79
O 0.391066 3.59123 0.215438
O 14.4765 5.98744 1.07332
O 12.8439 6.23171 16.3852
O 0.370968 3.67455 6.06563
O 0.313403 0.557889 4.07043
O 1.29661 6.59376 6.0459
O 13.4257 3.86234 6.5978
Si 1.93937 14.7972 0.25523
Si 1.14337 9.37699 15.7741
Si 2.47041 16.0481 3.15731
Si 4.36983 11.5167 2.25996
Si 1.86086 11.7479 0.719681
Si 4.81633 14.3222 0.763405
O 12.8943 13.936 8.14167
O 3.28131 10.9031 5.4655
O 2.81389 11.4195 1.83499
O 5.73719 15.124 1.70208
O 1.871 10.735 16.2783
O 3.9065 15.7736 14.3693
O 1.47003 13.3371 0.720181
O 4.88623 14.5331 16.131
O 3.41299 14.9798 0.83945
O 5.82866 10.8549 2.56025
O 2.91041 2.20937 7.91574
O 4.18418 12.5854 3.58128
Si 9.63131 12.9168 13.069
Si 7.706 9.1667 16.9647
Si 6.44629 15.1769 3.14433
Si 8.96364 11.7052 4.48394
Si 7.10091 11.5029 1.41173
Si 9.13282 15.328 1.67623
O 5.22176 14.7322 4.11194
O 7.60486 10.8197 5.08816
O 7.41555 12.6907 0.198938
O 9.70925 15.0199 4.52741
O 6.66133 10.5432 17.1445
O 9.09095 14.5684 0.413265
O 9.11196 11.4443 13.5909
O 7.47357 1.21533 2.19823
O 7.72878 14.6241 2.38531
O 9.48001 10.6923 3.43772
O 6.47212 16.9921 3.3505
O 8.45793 13.1723 4.12639
Si 9.0029 13.0121 16.828
Si 12.8675 7.65047 15.4466
Si 12.109 15.9319 2.03545
Si 12.3426 8.88658 1.13578
Si 9.97629 10.6192 1.93662
Si 15.1875 15.9217 2.04651
O 10.7472 11.5923 7.39509
O 0.160624 8.62391 6.99714
O 11.1409 9.66951 1.74682
O 0.897506 15.7313 2.98043
O 11.8548 8.65316 16.6492
O 0.490755 15.6541 0.724766
O 9.53941 12.057 1.39478
O 14.7783 17.4172 2.09305
O 10.7282 15.335 2.00027
O 0.388531 11.1481 1.37088
O 12.0875 16.7023 3.41769
O 13.613 15.4866 1.57821
Si 13.4306 2.59235 7.73575
Si 3.15582 0.938889 8.7755
Si 0.607342 5.80759 9.46064
Si 6.18289 1.60073 10.068
Si 14.1229 17.6708 6.9789
Si 3.8966 5.95226 9.54959
O 15.1804 4.88682 10.2981
O 6.07724 0.345563 11.321
O 2.14593 0.97055 10.0769
O 6.35751 7.6194 9.05532
O 0.694608 15.3548 8.98717
O 4.37189 5.50393 8.21068
O 14.4407 1.3545 7.14061
O 2.38669 5.81864 9.91491
O 3.55886 3.98267 10.287
O 7.74657 1.92411 9.48425
O 0.263677 7.42015 9.51376
O 5.68419 2.95419 10.6496
Si 4.94923 5.2517 6.72728
Si 6.25863 1.28681 6.17172
Si 5.66725 8.50891 10.375
Si 9.2277 5.26906 9.26497
Si 8.08982 2.67121 8.13171
Si 7.42854 7.77441 7.83897
O 5.03473 5.79795 10.9554
O 10.6869 17.4681 12.7871
O 8.61424 4.1634 8.26898
O 8.66207 8.34196 9.00939
O 7.03961 2.53227 6.74637
O 8.13881 6.11159 9.68824
O 9.12231 4.37795 5.79751
O 8.22862 6.81985 6.74446
O 7.22215 9.15713 7.16315
O 10.5316 6.07513 9.37765
O 6.35157 9.78425 9.74173
O 9.49447 4.46964 10.7949
Si 11.8186 5.07145 3.61155
Si 12.3033 17.7906 4.58338
Si 8.93075 9.57031 9.84121
Si 1.54477 1.98552 11.164
Si 10.8445 1.45342 6.6951
Si 1.16428 5.07763 6.51728
O 10.4229 9.3142 10.273
O 12.6031 17.5694 10.786
O 11.8084 2.24678 7.67674
O 0.523491 5.5071 8.01988
O 10.7014 -0.00364104 7.37448
O 13.3035 3.15723 9.31924
O 9.2969 1.87415 7.55825
O 13.5118 11.6411 8.04362
O 14.778 5.55117 5.69328
O 13.4478 17.0732 8.24704
O 9.13859 10.7765 8.84687
O 0.288558 2.58887 10.6661
Si 13.8214 13.0247 7.29902
Si 3.20267 9.4977 4.71431
Si 13.6017 13.8426 11.294
Si 3.50063 13.9704 10.5478
Si 0.350581 8.86784 8.61262
Si 1.49683 16.3093 7.49822
O 6.5359 14.9046 14.2945
O 1.90625 8.9957 8.57152
O 3.66713 10.6711 7.97941
O 1.53321 14.8005 6.77507
O 2.78419 8.28695 6.18346
O 2.74439 14.655 4.00915
O 15.1406 13.6466 7.74851
O 2.29262 17.5898 7.96527
O 14.9595 14.0036 12.0038
O 2.61364 13.9279 9.07965
O 0.0934037 16.9197 6.78349
O 2.75704 11.0798 13.1379
Si 3.93017 13.797 4.64901
Si 6.70044 9.85305 5.83358
Si 5.99609 15.0193 9.27211
Si 9.17311 12.0161 7.9035
Si 4.04474 11.5047 6.72494
Si 7.17111 16.436 6.9171
O 4.96893 13.8716 9.67892
O 8.33356 10.2654 11.2989
O 10.616 12.1245 4.95785
O 11.5026 1.07716 5.38612
O 5.50565 10.8895 6.23743
O 7.96881 15.7307 5.64042
O 4.28821 13.0702 6.00695
O 6.84218 0.0960808 6.92938
O 6.13983 15.5259 7.71629
O 9.46636 13.1895 8.96142
O 5.36518 16.3896 9.97934
O 9.16976 13.2245 6.72599
Si 9.07689 14.3907 5.66603
Si 1.09724 8.16164 5.81753
Si 10.1806 16.509 7.76928
Si 13.9912 11.0966 9.60957
Si 11.4556 11.3231 6.09317
Si 12.7327 16.555 9.54048
O 8.56625 16.3144 7.89532
O 12.9043 10.1251 10.1668
O 1.18251 9.22591 4.58882
O 13.3186 15.1087 9.96947
O 12.6663 12.4598 6.01484
O 2.34512 16.8913 4.70674
O 10.7202 15.577 6.65888
O 13.517 17.2423 5.51096
O 11.2372 16.2078 9.12779
O 15.1959 10.127 9.31712
O 12.0667 1.29243 16.3091
O 13.7316 12.4084 10.5694
Si 14.4421 3.58059 10.514
Si 6.18878 0.832566 15.9814
Si 1.9664 6.55903 15.181
Si 3.64899 2.16392 2.31062
Si 3.36553 2.12422 16.0248
Si 4.01513 4.55696 14.3277
O 0.524926 5.81598 15.8685
O 5.61417 17.2033 15.1139
O 3.25474 2.31353 0.755874
O 5.32198 5.26637 15.0446
O 2.84992 1.92242 12.0882
O 4.42403 4.21021 12.8041
O 0.757887 1.83433 14.3798
O 4.21989 8.69257 9.49992
O 2.88251 5.63222 14.2632
O 6.29439 16.2039 12.4141
O 1.62137 7.99111 15.5047
O 4.78 5.15912 0.748286
Si 4.81916 4.01833 11.2335
Si 5.04012 16.7952 11.4101
Si 6.17838 6.71392 15.2475
Si 12.3365 2.80537 15.7585
Si 7.74571 3.0564 14.5174
Si 7.71148 7.27008 12.75
O 7.13908 6.16129 16.1996
O 9.98293 0.531635 0.72924
O 6.83264 1.76916 14.8321
O 9.22774 7.45066 13.1314
O 9.12847 2.42329 14.9692
O 8.23961 5.80939 12.2545
O 4.86796 1.60618 16.0962
O 6.66721 7.93655 11.5812
O 6.87946 7.0569 13.9689
O 11.3258 3.12788 14.2215
O 4.51416 3.44334 2.50328
O 7.58084 3.9529 15.8315
Si 9.39734 4.68946 12.3664
Si 12.1358 17.7925 12.2671
Si 10.0144 6.65332 14.441
Si 15.0922 1.3724 13.1486
Si 12.5241 2.93603 12.9936
Si 12.0275 6.292 9.93885
O 9.50051 6.00167 15.7199
O 15.0287 0.980128 16.4366
O 14.8073 17.7509 14.002
O 3.6159 3.73626 15.6547
O 12.6497 16.5281 13.0265
O 12.9573 6.01701 8.85619
O 10.3101 5.41529 13.5768
O 12.3643 7.68838 10.3959
O 13.5841 3.33173 11.8556
O 13.6255 2.56808 14.5272
O 11.6012 7.14101 14.7549
O 0.666888 0.740281 12.0047
Si 0.24458 13.6762 13.4236
Si 3.22892 9.91937 9.17881
Si 2.3876 15.851 14.2718
Si 3.84448 11.4879 11.9021
Si 1.17383 10.6919 13.0016
Si 3.92081 1.65934 13.1164
O 2.07613 15.2624 15.8028
O 0.696224 9.82014 14.246
O 5.29803 11.3248 11.2807
O 4.22522 0.294136 13.1859
O 1.1534 10.1326 11.5816
O 8.51293 3.57983 13.2271
O 0.578069 12.1012 13.3379
O 4.23859 15.1334 11.7301
O 1.52637 14.5859 13.5281
O 9.63551 12.7537 11.5857
O 3.02712 1.60917 14.4779
O 3.06778 12.7142 11.1623
Si 1.10628 13.7826 8.27973
Si 6.78219 10.9722 11.2776
Si 7.58408 15.2385 13.0343
Si 9.63268 10.7438 14.8797
Si 8.46872 13.4654 10.3536
Si 10.0973 16.7358 14.0603
O 4.86563 12.8007 1.34576
O 10.841 15.2415 13.9687
O 8.56483 13.9068 13.2518
O 9.53998 11.8894 15.9177
O 7.24176 12.3653 10.4764
O 7.49239 14.7878 9.90733
O 3.19487 10.3679 10.7536
O 12.3048 1.50476 12.5072
O 8.54484 16.2882 13.6489
O 11.1968 10.1842 14.7751
O 8.51985 16.7695 1.55075
O 8.48461 9.58268 15.7159
Si 12.5888 15.1105 13.7249
Si 11.8298 9.32982 10.9917
Si 11.2579 0.113472 16.8722
Si 14.5033 10.7599 0.475135
Si 12.4889 10.1927 13.9195
Si 13.7096 12.8135 15.389
O 10.7974 17.167 15.5343
O 13.5901 9.97658 1.66189
O 13.2729 9.02086 14.6517
O 1.68048 17.3199 14.4795
O 11.8461 9.52921 12.5491
O 14.783 13.5625 14.6569
O 13.5076 11.2811 14.415
O 12.4086 14.1858 12.3232
O 12.458 13.8263 14.892
O 14.9752 9.8096 16.2658
O 12.0245 17.2993 1.2079
O 13.9796 12.0662 16.7829
324
 Atoms. Timestep: 3000
Si 0.361456 4.88948 0.754531
Si 5.27891 16.2542 15.2894
Si 5.23241 7.15093 4.93303
Si 3.61758 2.29839 5.92011
Si 1.84305 0.249264 4.07802
Si 4.71106 4.6248 3.02958
O 4.92469 6.47258 6.35886
O 4.66205 1.86847 9.1836
O 2.65716 1.36318 4.89288
O 5.96384 8.30146 16.6897
O 2.99781 0.444982 2.73284
O 3.18073 5.50295 3.24016
O 1.93289 4.9441 1.35288
O 2.79614 7.26029 0.369951
O 5.18024 5.95629 3.66639
O 4.89142 1.42075 5.85564
O 4.13005 8.15347 4.03332
O 4.04747 3.78238 6.27609
Si 2.99886 6.16147 1.67355
Si 8.76165 1.08759 0.946215
Si 8.31887 5.49477 5.96847
Si 9.30454 3.05207 4.27624
Si 6.43254 0.665756 2.79415
Si 8.36959 5.50894 3.00219
O 6.71035 4.82044 6.16213
O 6.65092 1.42549 4.28154
O 8.67302 4.02836 3.14636
O 12.4031 4.67555 2.47123
O 7.4193 1.48888 0.130928
O 8.42199 5.41025 1.05591
O 5.208 1.63285 2.36867
O 8.40174 9.76129 0.86678
O 8.03219 5.87181 4.4723
O 10.8061 3.39529 3.8493
O 6.21421 8.317 5.51378
O 10.0492 5.86843 3.05561
Si 8.26671 5.50928 16.4978
Si 0.752445 0.0959821 15.005
Si 13.8736 4.02177 5.73681
Si 14.8156 0.582864 2.42919
Si 14.9054 2.26928 16.7277
Si 13.0634 5.59351 1.1339
O 12.4793 4.94794 5.08097
O 13.8658 0.947927 3.58207
O 14.7706 1.44528 1.08166
O 13.0017 7.20948 2.01786
O 13.4631 2.59684 16.3995
O 0.158567 3.51593 0.0775269
O 14.5697 5.47677 1.46673
O 13.1425 6.07554 16.5081
O 15.3462 3.72041 5.41264
O 0.714213 0.971285 3.18661
O 1.60606 6.33124 5.46426
O 13.6842 3.43698 7.0968
Si 1.56328 14.5415 0.304599
Si 1.0216 9.75708 15.6422
Si 1.69382 15.2935 3.40887
Si 4.2941 12.2144 2.27181
Si 1.6282 11.3024 1.12573
Si 4.57699 14.79 0.769542
O 12.5845 14.3421 7.69119
O 3.45131 10.6474 5.15053
O 2.81754 11.6994 2.07867
O 5.42218 14.8725 2.10461
O 1.76142 10.3448 16.9383
O 3.92806 15.8856 14.4822
O 1.63023 12.8267 0.376022
O 5.39208 15.7128 16.765
O 3.04136 15.1616 0.935192
O 5.58944 11.433 1.93247
O 2.9118 1.89225 7.45916
O 4.0114 13.1631 3.546
Si 9.38709 12.8739 13.0767
Si 7.27208 9.42327 16.7476
Si 6.27044 15.6545 3.17938
Si 9.10806 11.3114 4.55795
Si 7.00271 11.8297 1.08756
Si 9.00044 16.0687 1.60821
O 5.63312 15.0209 4.49451
O 8.17917 10.6433 5.53944
O 7.48908 12.7667 16.8955
O 10.0507 14.6946 4.11659
O 6.3697 10.8207 16.7595
O 9.13717 14.9106 0.424741
O 8.63771 11.4554 13.581
O 7.90314 0.858271 2.24546
O 7.73507 15.6236 2.65766
O 8.85245 10.0898 3.1987
O 5.96238 17.1491 3.03086
O 8.60396 12.6303 4.00255
Si 9.30547 13.2134 0.130355
Si 12.5781 7.41723 15.7883
Si 11.7796 16.4027 1.92778
Si 11.9827 8.40251 1.5084
Si 9.56316 10.4667 1.79839
Si 14.7183 15.3414 2.09691
O 10.5186 11.9045 7.18494
O 0.993936 8.88081 7.30097
O 10.9455 9.39794 1.87935
O 0.0795491 14.7262 3.49793
O 11.7291 7.768 0.112763
O 0.154876 14.8873 0.976381
O 9.57563 12.1319 1.17015
O 15.0627 16.9092 2.32163
O 10.5747 15.4627 2.0369
O 15.4441 11.0394 1.29097
O 11.7857 17.0947 3.28551
O 13.2599 15.7145 1.51616
Si 12.9652 2.41394 8.21273
Si 3.42866 1.05463 8.61425
Si 0.649346 6.17408 9.54583
Si 5.716 1.72438 10.2876
Si 13.9536 17.5107 7.51116
Si 3.56439 5.28355 9.46663
O 15.2449 5.15497 10.3794
O 5.82358 0.240354 10.9726
O 2.38129 1.24754 9.87498
O 6.81083 7.50939 9.06211
O 0.465161 15.6542 9.52496
O 4.24632 4.89534 8.15208
O 14.1311 1.16047 7.94678
O 2.18774 5.92287 9.54248
O 3.55325 3.76628 10.1855
O 7.13763 1.94562 9.31676
O 0.244655 7.86988 9.58046
O 5.47589 2.86964 11.3662
Si 5.11382 4.99103 6.83179
Si 6.48832 1.12416 5.82058
Si 5.73363 8.3704 9.88365
Si 9.622 4.59436 9.37876
Si 8.13183 2.11686 8.13649
Si 7.9936 7.72777 7.98761
O 4.90546 5.55704 11.0488
O 10.9622 17.8732 13.2958
O 9.06221 3.47991 8.23044
O 9.24032 8.40011 8.78574
O 7.17545 2.39754 7.03616
O 8.52713 5.46741 9.67032
O 9.03838 4.12618 5.62378
O 8.62569 6.84861 6.85035
O 7.47666 9.13305 7.40687
O 10.9202 5.5908 9.4634
O 6.5928 9.92811 9.92514
O 9.31394 3.86142 10.9885
Si 11.3972 4.8388 3.59218
Si 12.8048 17.8028 4.46712
Si 9.41806 9.79377 9.76373
Si 1.72843 1.76744 11.1583
Si 10.6158 0.892789 6.30025
Si 0.599003 5.15075 6.69594
O 10.8428 9.711 10.509
O 12.0075 17.3842 11.045
O 11.6741 1.76767 7.29177
O 0.415765 5.56292 8.16916
O 10.9372 17.3231 7.10816
O 13.862 3.06331 9.45552
O 9.26506 1.30398 7.35361
O 13.7851 12.1609 8.61769
O 14.4229 5.62361 6.72446
O 13.3262 17.0683 8.84503
O 8.8361 10.9058 8.88376
O 0.735109 3.27333 11.6824
Si 13.7986 13.0748 7.41672
Si 3.17821 9.29641 4.46766
Si 13.4241 13.8597 11.177
Si 3.51123 14.5621 10.4611
Si 0.759458 9.16146 8.98698
Si 1.12325 16.8168 8.41427
O 6.44296 15.4963 14.534
O 2.13686 9.83406 9.21601
O 3.54866 10.8587 7.46755
O 1.59929 15.1831 7.53105
O 2.96035 8.3099 6.10636
O 2.49807 14.9455 4.7546
O 15.0786 13.8298 7.63799
O 2.74566 17.252 8.59914
O 14.8949 14.3988 12.2515
O 2.37956 14.0824 9.56589
O 15.3488 16.8682 7.52077
O 3.19456 11.1032 12.2619
Si 4.04197 14.2274 4.86037
Si 6.97886 9.61493 5.935
Si 6.02807 14.5401 8.54567
Si 9.16485 12.233 7.88583
Si 4.3495 11.5276 6.13194
Si 7.4228 16.2968 6.66994
O 4.68785 14.0424 9.27717
O 8.5908 9.92165 11.1321
O 11.0533 11.4158 4.77122
O 11.8094 1.03331 5.01577
O 5.67682 10.5937 6.34118
O 8.34723 15.4525 5.46391
O 4.38793 13.1847 6.11528
O 6.65174 17.5609 6.17586
O 6.40066 14.9194 6.84431
O 9.2553 13.2379 9.06063
O 6.27142 16.1999 9.10372
O 8.16037 13.3346 6.80021
Si 9.24231 14.1969 5.55809
Si 1.34701 7.90281 6.0857
Si 10.0689 16.4138 7.91712
Si 14.3902 11.2491 9.75718
Si 11.5841 11.0748 6.42364
Si 12.4045 16.3673 9.90344
O 8.6651 16.8881 7.46477
O 13.3052 10.2192 10.2724
O 1.38804 8.50182 4.43736
O 12.8873 14.9409 10.2066
O 12.9964 11.9885 6.48414
O 1.47978 16.7659 3.57575
O 10.0705 15.0482 6.80995
O 13.4936 17.6461 5.97944
O 11.1508 16.0212 9.01422
O 15.0897 10.1776 8.75091
O 11.6862 1.43268 15.2719
O 14.1855 12.4995 10.9599
Si 15.0007 3.44328 10.4963
Si 6.52292 1.1009 15.8288
Si 1.87015 6.8463 16.0589
Si 3.57242 1.95934 2.31968
Si 3.71492 2.3848 16.2332
Si 3.82301 5.04487 14.8035
O 0.643897 6.22752 16.8562
O 5.86535 17.6664 15.0143
O 3.30647 2.16294 0.729517
O 4.74568 6.16034 15.3864
O 2.78 1.81708 12.3417
O 4.21672 4.53693 13.2811
O 1.17716 1.16989 13.8361
O 4.26892 8.86939 9.57339
O 2.3954 5.75269 14.9641
O 6.59206 15.7634 11.9918
O 1.55717 8.29196 15.2398
O 4.55089 5.43868 1.32841
Si 4.63165 4.06818 11.7629
Si 5.81813 16.5151 10.7341
Si 5.84056 7.2494 15.224
Si 12.4629 2.95064 15.175
Si 8.19863 3.08608 14.6626
Si 7.17954 7.45155 12.4898
O 7.00951 6.02596 15.8178
O 9.94844 1.36183 0.00719408
O 7.01049 1.9169 14.6099
O 8.69446 7.30572 13.3637
O 9.32256 1.96035 14.2851
O 7.50242 5.99514 11.9273
O 5.16137 1.70085 16.3563
O 6.01346 8.06197 11.4663
O 6.22628 7.13201 13.7003
O 11.8311 3.67485 13.8899
O 3.82946 3.49635 2.62031
O 8.32676 3.90121 16.0375
Si 8.72103 4.86759 12.2016
Si 12.312 17.7189 12.6028
Si 9.96399 6.73158 14.0857
Si 15.1101 1.01304 12.7824
Si 12.8427 3.00475 12.5125
Si 12.2033 6.63876 10.0684
O 9.33367 5.87947 15.4009
O 0.492019 1.50117 15.9655
O 14.9874 17.661 13.9108
O 3.95329 3.93429 15.8951
O 13.0074 16.5576 13.4389
O 12.5663 7.39512 8.99865
O 10.06 5.47557 12.9777
O 11.4885 7.5698 11.2513
O 13.9088 3.68952 11.6863
O 13.9313 2.71151 13.904
O 11.4033 6.78854 14.7718
O 0.665813 0.476481 11.7967
Si 0.486442 13.5182 12.9267
Si 3.55589 10.2166 8.93805
Si 2.38092 15.3783 14.4086
Si 4.33182 11.7516 11.4263
Si 1.56536 10.7175 12.8341
Si 4.19514 1.55294 13.4516
O 1.6323 14.8735 15.6599
O 1.05413 10.5589 14.2505
O 5.61591 10.9641 12.0253
O 4.02019 0.194302 13.3167
O 0.571625 9.72835 12.0979
O 8.25844 3.77542 13.1658
O 0.731284 12.0636 12.3514
O 4.37367 15.9883 10.9222
O 1.70051 14.8138 13.0619
O 9.49948 12.9711 11.6131
O 3.53596 1.89648 14.8158
O 3.98579 13.3733 11.3362
Si 1.00467 14.0686 8.62258
Si 7.02175 10.6816 11.2277
Si 7.3436 15.3628 13.2601
Si 9.41807 11.0702 15.2738
Si 8.25128 13.4747 10.3826
Si 9.84358 17.0705 14.0692
O 4.47509 13.1477 0.770851
O 10.7318 15.5612 14.3728
O 8.04569 13.9306 13.2888
O 9.94574 12.5213 15.7758
O 7.26134 12.0799 10.5188
O 7.29543 14.2012 9.51397
O 4.07837 11.2898 9.90453
O 12.6326 1.55535 12.2157
O 8.73802 16.1472 13.2145
O 10.704 10.3649 14.6002
O 8.44378 17.3285 0.705062
O 8.02575 9.89604 15.3302
Si 12.0785 14.8907 13.6695
Si 12.1879 9.28947 11.1535
Si 11.2026 0.486334 16.4384
Si 14.324 10.5001 0.367778
Si 12.2993 10.073 14.3157
Si 13.8524 12.6879 14.9462
O 10.0807 17.5246 15.5531
O 13.101 9.6495 0.982221
O 12.805 8.8144 15.0381
O 1.9068 16.901 14.5951
O 12.2033 9.61282 12.6673
O 15.0968 13.0678 14.2042
O 12.977 11.769 14.2118
O 12.5605 14.0794 12.4574
O 13.0972 14.2158 14.8085
O 15.0071 9.50612 16.3279
O 11.6311 17.4056 0.654932
O 13.9028 11.8903 16.39
324
 Atoms. Timestep: 3500
Si 0.0424564 4.78978 0.813939
Si 4.91788 16.4076 15.2894
Si 5.29835 6.97007 4.96881
Si 3.56558 2.05702 6.15685
Si 2.55417 0.470191 3.65913
Si 4.17559 4.75131 3.36691
O 4.62782 6.10741 6.20269
O 4.92751 1.21923 8.8749
O 2.67752 1.27278 5.1816
O 6.79034 8.11693 15.8353
O 3.36438 0.893513 2.36664
O 2.88603 6.12007 3.63055
O 1.26427 5.47183 1.74662
O 2.63733 6.80777 0.268445
O 5.43044 5.64898 3.74901
O 4.97678 1.27938 6.29113
O 4.13488 7.72662 4.28337
O 4.10063 3.48737 6.53436
Si 2.61563 6.49938 1.91723
Si 8.75125 0.457367 0.97378
Si 7.65966 5.29208 5.71263
Si 9.26201 3.33558 4.2902
Si 6.63187 0.83929 3.37649
Si 8.53524 5.68329 2.59952
O 6.56386 4.43707 6.55687
O 6.87644 1.56977 4.77689
O 8.48171 4.15367 3.00176
O 11.8568 4.90705 1.62769
O 7.69268 1.12599 17.0058
O 8.22455 5.56169 1.0647
O 5.61306 1.97613 2.61464
O 7.86538 9.63627 0.987023
O 7.67881 5.89664 4.05496
O 10.779 3.5738 3.77535
O 6.42869 8.11212 5.33866
O 10.0324 5.96217 3.13636
Si 8.28672 5.55231 16.5989
Si 0.773912 0.135994 15.4404
Si 13.056 4.55194 6.06726
Si 15.0467 0.783343 3.12422
Si 14.8285 2.08547 0.277395
Si 12.7841 6.05919 1.17609
O 12.6893 5.19244 4.67905
O 14.0899 0.874482 4.30003
O 14.9674 1.61925 1.73443
O 12.2797 7.5309 1.58223
O 14.0768 2.92046 16.1449
O 0.423367 3.37122 0.491315
O 14.3135 5.5899 1.55404
O 12.7445 5.99593 16.4809
O 14.7205 4.31166 5.644
O 0.986429 0.708662 3.50292
O -0.0662747 7.63571 6.11127
O 12.9131 3.32504 7.12168
Si 1.01889 14.6856 0.854197
Si 1.00924 9.78592 15.5879
Si 1.98329 15.5362 3.57184
Si 4.09884 12.1211 1.89017
Si 1.31665 11.5687 1.00052
Si 4.15512 15.06 0.864161
O 12.7696 13.8203 7.68511
O 3.49374 10.1958 5.04675
O 2.6249 11.2784 1.88458
O 4.96794 16.1704 1.92453
O 1.64949 11.138 16.6546
O 3.70607 15.4856 14.8667
O 1.09972 13.1525 1.11264
O 5.35288 15.4626 16.6224
O 2.58806 15.2445 1.09725
O 5.26891 11.1431 1.32793
O 3.05901 1.25558 7.43312
O 3.9952 13.142 3.23454
Si 9.12098 13.625 12.7587
Si 7.74875 9.26286 16.3333
Si 5.93835 15.794 3.10648
Si 9.38632 11.0112 4.41327
Si 6.79779 11.3105 0.844831
Si 8.95466 15.5139 1.9647
O 5.2556 14.8762 4.44407
O 8.20244 9.97163 4.93512
O 7.62857 12.6386 0.232789
O 11.7506 13.5804 4.71133
O 6.50129 10.7521 16.2584
O 9.09555 14.7067 0.688328
O 9.27764 12.0811 13.2819
O 8.09928 0.885645 2.42156
O 7.43141 15.3394 2.32047
O 10.0937 10.8464 3.13519
O 6.11843 17.3694 3.58675
O 9.49968 12.8799 4.02035
Si 9.12216 13.3009 17.0748
Si 12.4253 7.3181 15.5069
Si 11.9052 16.6956 1.88829
Si 11.8273 8.89242 0.973081
Si 9.66622 10.7527 1.54853
Si 14.426 15.708 2.8496
O 11.2278 11.687 7.54108
O 1.32698 9.31517 7.15506
O 10.8878 10.2606 0.864265
O 0.426834 15.6028 3.57659
O 11.5691 8.10723 16.592
O 14.9905 15.1159 1.27526
O 9.60756 12.2055 1.21411
O 14.686 17.2734 2.39766
O 10.3547 16.171 2.27685
O 15.3194 10.8464 1.1122
O 11.9551 17.6019 3.03229
O 12.883 15.5398 2.47131
Si 13.0948 2.41274 8.36303
Si 3.33453 0.803126 8.85205
Si 0.852331 6.0738 9.15364
Si 5.87341 1.88475 10.0334
Si 13.9725 17.7021 7.20575
Si 3.87077 4.94447 9.71875
O 15.4477 5.1411 9.91447
O 6.07036 0.621925 10.8923
O 2.29611 1.61095 9.87319
O 6.81113 7.37727 8.87652
O 0.365773 15.9481 9.73069
O 4.91156 5.04748 8.48929
O 14.2808 1.40542 7.7807
O 2.47079 5.71686 9.44597
O 3.45209 3.71418 10.8175
O 7.47851 1.84396 9.60937
O 0.763471 7.61333 9.20925
O 5.94886 2.95527 11.3847
Si 4.85865 4.79319 6.92399
Si 6.5107 1.39437 6.28898
Si 5.94708 8.24581 9.98149
Si 9.83311 4.41506 9.73478
Si 8.50171 1.88364 8.47844
Si 8.11392 7.35987 8.09253
O 5.05391 5.37327 11.2848
O 10.179 17.191 12.8201
O 9.37546 3.17638 8.97788
O 9.33183 7.82569 9.08798
O 7.26738 2.2927 7.44371
O 8.72695 5.4206 9.31275
O 8.81205 4.35927 5.3977
O 8.26889 6.41276 6.83874
O 8.04226 8.74195 7.19502
O 10.9796 5.4355 9.89604
O 6.60554 9.63771 10.2117
O 9.17722 4.27791 11.0712
Si 11.4786 5.07221 3.55273
Si 12.5615 0.160252 4.63714
Si 9.70114 9.43533 9.82833
Si 1.24331 1.54435 11.0304
Si 10.8798 1.12037 6.86366
Si 15.5529 6.02041 6.37865
O 11.2257 9.76894 10.1732
O 12.1181 17.0172 10.7012
O 11.7724 1.4619 8.21469
O 0.913963 5.66206 7.56859
O 10.6841 17.4191 7.1055
O 14.1299 3.35444 9.20345
O 9.60406 1.95168 7.19795
O 13.5328 11.6561 8.82712
O 13.9358 5.74938 7.26879
O 13.0832 16.7537 8.21824
O 9.3141 10.4266 8.58768
O 0.715446 3.16791 11.0069
Si 14.0488 12.6063 7.54094
Si 2.93257 8.89834 4.22566
Si 13.6086 13.868 11.6986
Si 3.76733 14.9333 10.4443
Si 0.985196 9.12019 8.76094
Si 1.02296 16.8569 8.31268
O 5.99418 15.7447 14.3515
O 2.38589 9.67819 9.40829
O 4.03072 10.6664 7.38661
O 1.38682 15.0362 7.76586
O 2.16366 8.14811 5.37514
O 2.49035 14.5 4.65093
O 15.0852 13.5064 8.43153
O 2.67608 17.2304 8.62327
O 15.1518 14.228 11.7768
O 2.40294 14.4566 9.93255
O 15.3927 16.8661 7.29421
O 3.48311 11.3698 12.3117
Si 4.11676 13.834 4.62358
Si 7.17755 9.35096 6.02518
Si 5.82009 15.0522 8.2811
Si 9.54866 11.8601 7.7349
Si 4.67064 10.951 5.89971
Si 7.70157 16.2783 6.18841
O 4.48577 14.5418 9.01988
O 8.76128 10.1281 10.9345
O 10.7365 10.952 5.35147
O 11.8336 1.40859 5.60621
O 6.13572 10.4373 6.19283
O 8.49362 15.1982 5.26026
O 4.46709 12.5247 5.39942
O 6.94001 17.6682 6.08257
O 6.60957 15.3494 6.78516
O 9.68598 13.0974 8.85622
O 6.03836 16.466 9.25536
O 9.3576 12.8141 6.40237
Si 9.90777 13.9028 5.31932
Si 0.711325 8.86595 5.82517
Si 10.2275 15.924 7.53313
Si 14.2766 11.2087 10.1259
Si 12.0028 10.7737 6.5196
Si 12.3194 15.9489 9.51374
O 8.53657 16.259 7.50359
O 13.4648 10.0346 10.7368
O 1.29805 9.72492 3.97943
O 13.0776 14.6699 10.3781
O 13.2696 12.0618 6.23278
O 2.47483 16.9161 4.17313
O 10.5469 14.8503 6.58111
O 13.2502 17.2154 5.74804
O 10.7 15.6103 9.26072
O 0.151708 10.3935 9.52242
O 11.8782 1.60155 15.6525
O 13.9617 12.335 11.0836
Si 14.9407 3.76643 10.6005
Si 6.55319 1.03759 15.805
Si 1.47189 6.91379 16.2251
Si 4.2731 2.08285 1.72489
Si 3.8953 2.43164 15.7069
Si 3.41681 5.30263 14.5934
O 0.675292 5.5615 16.5323
O 5.47443 17.786 15.823
O 3.71282 2.58495 0.305002
O 4.55781 6.19841 15.068
O 2.2737 1.69403 12.2855
O 3.83331 4.8506 13.0858
O 0.911397 1.19199 14.1019
O 4.52316 8.80243 9.14802
O 2.11369 6.25655 14.9083
O 6.89608 15.9827 11.7153
O 1.67068 8.52979 15.925
O 4.10517 5.38399 1.74574
Si 4.71784 4.04925 12.0693
Si 6.13506 17.0503 10.7471
Si 5.85596 6.91338 15.2534
Si 12.9338 2.87514 15.0833
Si 8.43797 3.06232 14.6928
Si 7.0578 7.62714 12.651
O 6.64715 5.66035 16.1809
O 10.23 0.892812 0.332425
O 7.4867 1.76538 14.5625
O 8.45701 7.83837 13.3574
O 9.78507 2.20868 14.5289
O 7.85406 6.46325 11.6292
O 5.55371 2.19701 15.9194
O 5.8102 7.76181 11.7111
O 6.5269 6.4846 13.8212
O 12.2169 3.31159 13.7527
O 3.61308 3.2755 2.5407
O 8.56174 4.08398 15.9211
Si 8.41213 5.02157 12.4173
Si 11.6185 17.4906 12.2941
Si 9.60254 6.97881 14.2297
Si 14.9694 0.604078 13.1974
Si 12.6862 2.41418 12.3386
Si 12.2057 6.32262 9.27794
O 8.79294 6.23112 15.3621
O -0.00102397 1.20265 16.215
O 15.0562 17.2786 14.1162
O 3.48262 3.9804 15.3506
O 12.5944 16.7249 13.3574
O 11.6204 6.66548 8.17024
O 9.77867 5.79745 13.0381
O 12.6835 7.62548 10.31
O 13.6476 3.26465 11.6072
O 13.9177 1.73997 14.0096
O 11.0615 6.88274 14.7502
O 0.559166 0.261426 11.6747
Si 0.527783 13.5217 13.1562
Si 3.83089 10.2039 8.82141
Si 2.16184 15.4192 15.1401
Si 4.43221 12.01 11.282
Si 1.90556 10.8595 12.8386
Si 3.64896 1.32154 12.8354
O 1.09283 14.9567 16.2646
O 1.85877 10.5019 14.4577
O 5.89996 11.5303 11.8081
O 3.9414 0.0285683 12.4163
O 0.999831 9.77987 12.0157
O 7.96262 3.90288 13.3449
O 1.05407 12.211 12.4518
O 4.65039 16.2119 10.9683
O 1.80134 14.3101 14.0546
O 8.47614 13.4275 11.4662
O 3.50977 1.84777 14.2755
O 4.12196 13.5842 11.2723
Si 1.04479 14.3064 9.24348
Si 7.19867 10.8429 11.0704
Si 7.11746 15.5243 13.2206
Si 9.32304 11.2414 14.6104
Si 8.14111 13.4167 9.76464
Si 9.83853 16.6128 14.3674
O 4.08261 13.3841 1.02684
O 10.8532 15.362 14.2291
O 7.71806 13.9299 13.524
O 9.41959 12.368 15.7301
O 7.42016 12.0659 9.98553
O 6.99525 14.144 8.7828
O 4.37717 11.1761 9.90493
O 11.7869 1.10149 12.6531
O 8.31126 16.3038 13.9877
O 10.8055 10.7322 14.6565
O 8.55434 16.9033 1.01883
O 8.49395 10.1112 15.1555
Si 12.544 15.1395 14.0738
Si 12.2596 8.87741 11.1347
Si 11.3597 0.365018 16.4652
Si 14.1152 10.5931 0.0780495
Si 11.9751 9.98528 14.1378
Si 13.6891 12.7036 14.9835
O 10.7058 17.4917 15.2909
O 13.3276 9.37492 0.906463
O 12.6258 8.73442 14.653
O 2.01778 17.0572 15.3756
O 11.7316 9.49046 12.5724
O 15.0046 13.2407 14.4048
O 13.1604 11.1355 14.353
O 12.4795 14.3742 12.7117
O 12.5034 13.8124 15.2327
O 15.0992 9.87248 16.025
O 12.4062 17.7174 0.529471
O 13.8194 12.1971 16.4981
324
 Atoms. Timestep: 4000
Si 0.122503 5.19705 0.113684
Si 4.50457 16.4164 15.3197
Si 4.90616 7.37476 4.79754
Si 3.88496 2.23197 6.27926
Si 2.12839 0.647331 4.03353
Si 4.4369 4.85914 3.06462
O 4.55379 6.29576 5.86163
O 4.52262 0.773815 9.64828
O 3.26323 1.32917 5.12561
O 6.88239 8.34528 15.8555
O 2.83723 1.24222 2.62243
O 2.64413 5.70874 3.29456
O 1.21315 5.27842 1.44653
O 2.71881 6.40538 0.213918
O 4.80242 6.27047 3.61057
O 5.18014 1.38361 6.57171
O 3.67393 8.213 4.56843
O 3.98339 3.75633 6.13626
Si 2.54713 6.22064 1.71642
Si 8.2451 0.574349 0.836923
Si 7.69828 5.01879 5.57966
Si 9.24105 3.1427 4.08663
Si 6.52519 0.776667 3.30571
Si 8.36134 5.48311 2.62563
O 6.40722 4.25082 6.13972
O 6.71617 1.38774 4.77165
O 8.23198 4.02407 2.94528
O 12.2325 5.22694 2.20096
O 6.93446 0.746879 16.9526
O 8.94218 5.3424 1.07166
O 5.4278 1.48697 2.52026
O 8.03573 9.45916 0.737923
O 7.85324 5.93697 4.23219
O 10.5325 3.85323 3.89162
O 6.3881 8.11028 4.53063
O 9.94776 6.15049 3.16851
Si 8.20807 5.48244 16.6236
Si 0.336822 0.0392269 15.992
Si 12.9481 4.6257 6.04546
Si 14.999 1.32621 3.32471
Si 14.4073 2.36319 0.451766
Si 12.8998 5.99329 0.754249
O 11.8574 5.50105 5.04899
O 13.3662 1.13309 4.09252
O 14.792 1.89863 1.87449
O 12.2932 7.37631 1.2356
O 13.3287 3.18529 16.585
O 15.4131 3.47887 0.234889
O 14.3615 5.57746 0.869556
O 12.6826 6.10847 16.2225
O 14.2745 4.9809 4.85589
O 0.907886 1.51457 4.17965
O 15.3754 7.93101 5.50107
O 13.7519 3.66047 6.99983
Si 1.07248 14.7435 1.02491
Si 1.05631 9.90542 15.4114
Si 2.21045 15.6772 3.80652
Si 4.07722 12.3924 2.06902
Si 1.52615 11.7198 0.656658
Si 3.98881 15.2264 1.08212
O 13.1422 13.4785 8.28888
O 3.57584 10.4134 5.40713
O 2.73478 11.5524 1.70432
O 4.92296 15.3992 2.18315
O 1.58081 11.1757 16.079
O 3.2311 15.6486 14.7052
O 1.2133 13.2876 0.803694
O 4.38688 15.6668 16.6911
O 2.46093 15.4041 1.1084
O 5.38039 11.6454 1.69469
O 3.03383 2.06262 7.76259
O 4.03487 12.9793 3.59457
Si 8.94535 13.5133 12.6433
Si 7.8805 9.56268 16.1299
Si 6.10115 15.8644 3.38593
Si 10.0121 10.8765 4.42979
Si 6.55106 11.3015 0.846851
Si 8.69061 15.7799 1.85005
O 5.35004 14.6974 4.26689
O 8.8536 9.80433 4.963
O 7.05579 12.886 0.241028
O 11.785 13.5127 5.20116
O 6.26882 10.7577 16.3816
O 8.94986 14.4964 0.782005
O 9.30901 12.21 13.2432
O 7.81124 0.738462 2.44948
O 7.62138 15.517 2.80639
O 9.52499 10.8419 2.79471
O 5.97407 17.3141 3.56948
O 9.60901 12.4044 4.39581
Si 8.64814 13.1674 17.0658
Si 12.5228 7.56907 15.1931
Si 11.6462 16.5843 2.43245
Si 11.863 8.76867 0.73224
Si 9.42638 10.5887 1.30959
Si 14.9139 16.3353 3.03935
O 11.4419 11.1357 7.54421
O 15.2617 9.23879 7.60487
O 10.7109 9.78478 0.932396
O 0.604935 15.607 4.03693
O 11.5588 8.38215 16.2687
O 15.3819 15.6637 1.72442
O 9.56673 12.1045 0.677646
O 15.3578 17.7684 2.98881
O 10.2335 15.9804 2.48948
O 0.190901 10.9201 0.892667
O 11.4031 17.7473 3.47936
O 13.1193 16.2529 2.90201
Si 13.6012 2.30099 7.90303
Si 2.93255 0.851083 9.10318
Si 0.646003 5.96624 8.87836
Si 5.68611 1.43245 10.4061
Si 14.3856 17.4575 7.25904
Si 3.56307 5.64232 9.47141
O 14.9785 5.18982 9.7515
O 6.12865 0.221889 11.4954
O 1.5391 0.970578 9.85364
O 6.4655 7.35134 8.6261
O 1.05461 16.0456 9.09898
O 4.40881 4.6535 8.27726
O 14.4721 0.934826 7.5401
O 2.15004 5.611 8.78005
O 3.17604 4.09385 10.5943
O 7.06866 1.62624 9.53317
O 0.537745 7.45275 9.0325
O 5.49875 3.03823 10.9693
Si 4.86746 5.05588 6.75743
Si 6.6431 0.751265 6.26251
Si 5.73848 8.07108 9.98878
Si 9.48612 4.71625 9.74439
Si 8.26894 2.11412 8.533
Si 7.94303 7.37104 7.65664
O 4.88201 5.55265 10.5081
O 10.6905 17.6433 13.451
O 8.57613 3.58658 8.91431
O 8.63956 8.35874 8.73506
O 7.58301 1.80411 7.17524
O 8.76634 6.12669 9.15765
O 8.83837 3.82972 5.35353
O 8.05 6.01746 6.68924
O 7.25472 8.46294 6.65874
O 11.0196 5.17304 9.82545
O 6.68671 9.51984 9.78188
O 9.25053 4.3799 11.1791
Si 11.2677 5.24108 3.45722
Si 12.4066 0.00584977 4.78987
Si 9.53528 9.40096 9.51508
Si 1.35763 1.78386 11.3347
Si 10.8792 1.12242 7.18379
Si 15.1221 6.26851 5.90457
O 10.9367 8.91817 10.5572
O 11.9417 16.6485 10.7654
O 12.0297 1.90177 7.91987
O 0.364838 5.7443 7.25909
O 11.0686 17.4463 7.50611
O 13.9919 2.66948 9.40947
O 9.67889 1.42227 8.2991
O 14.7818 11.5237 8.49371
O 13.7406 6.33187 6.84101
O 13.9551 16.8278 8.64592
O 9.31882 10.5207 8.42159
O 0.68066 3.13008 10.6843
Si 14.1845 12.6956 7.61939
Si 2.57561 9.42406 4.79632
Si 13.5065 13.6333 11.3006
Si 3.69011 14.6738 10.257
Si 0.908719 8.93561 8.8972
Si 1.69036 16.6016 7.59808
O 5.72318 15.5855 14.6305
O 2.32702 9.91977 8.32428
O 4.84214 10.5276 7.70406
O 2.0415 14.7024 7.31952
O 2.04477 8.7349 6.24057
O 2.96041 14.6294 4.81217
O 15.3025 14.037 8.13161
O 3.01458 17.3562 8.2377
O 14.8928 13.9322 11.9206
O 2.27031 14.2872 9.70678
O 0.235948 16.8491 7.06897
O 3.59149 11.6508 12.4801
Si 4.20237 13.7547 4.98671
Si 7.32596 9.0968 5.29954
Si 6.20255 15.2625 8.64697
Si 9.98418 11.7436 7.73094
Si 5.01077 10.9199 6.08742
Si 7.98957 16.0391 6.32487
O 4.62843 14.7423 9.00226
O 8.95781 10.373 10.8765
O 11.4436 11.066 5.28387
O 11.2453 1.04537 5.59388
O 6.30175 10.3715 5.31875
O 8.16566 14.6232 5.49365
O 4.64348 12.5002 5.72872
O 7.7295 17.4874 6.18655
O 6.79077 15.5786 7.18533
O 9.63567 12.578 8.99093
O 6.47167 16.1999 10.0002
O 9.78842 13.0281 6.59605
Si 10.1594 13.9939 5.16382
Si 0.245298 9.41943 6.11176
Si 10.8716 15.9988 7.49747
Si 14.4692 10.8805 10.0099
Si 12.372 10.6543 6.41635
Si 12.9675 16.1802 9.63452
O 9.23287 15.9546 7.33142
O 13.1245 9.86207 9.80971
O 0.979334 10.4232 4.80655
O 13.5941 14.836 10.2729
O 13.4188 11.8038 6.53929
O 2.57031 17.0517 4.45119
O 11.0857 15.5012 5.76587
O 13.5004 17.3772 5.90447
O 12.0176 15.3672 8.54165
O 0.198528 9.81731 10.1118
O 11.8803 1.16473 15.9215
O 13.7822 12.1892 10.6385
Si 14.799 3.68096 10.3406
Si 6.35249 0.898482 15.5568
Si 2.07878 7.12414 16.0468
Si 3.96152 2.288 1.84726
Si 3.83908 2.48848 15.941
Si 3.84142 5.36141 14.3858
O 0.61729 6.25531 16.1497
O 5.21757 17.6798 15.7993
O 3.57086 1.96371 0.329704
O 4.73688 6.11129 15.5579
O 2.64432 1.93591 12.3101
O 4.42343 5.18991 12.9842
O 0.726691 1.01536 14.5342
O 4.37843 8.66757 9.3727
O 2.41152 6.1676 14.7023
O 6.9847 16.198 12.5655
O 1.734 8.53355 15.8924
O 4.46761 5.3024 1.6251
Si 4.57017 4.34848 11.5295
Si 5.97235 16.6313 11.3458
Si 6.05865 7.10911 15.4007
Si 12.2833 2.48472 15.2327
Si 8.65755 3.01356 15.0292
Si 7.33009 7.52166 12.6751
O 7.03765 5.82598 15.715
O 9.79932 0.917525 0.514529
O 7.80862 1.74963 14.9359
O 8.54294 7.56823 13.6026
O 10.3112 2.93489 14.945
O 7.46025 5.95979 12.3308
O 5.35395 2.06414 15.2669
O 6.07312 7.90259 11.5529
O 6.27536 7.27634 13.7983
O 12.2383 3.08375 13.6688
O 3.98662 3.30776 3.03022
O 8.53333 3.91721 16.2435
Si 8.53486 4.70102 12.5159
Si 11.7822 17.5794 12.2784
Si 9.81331 6.78929 14.2704
Si 15.0482 0.536653 13.4523
Si 13.0206 2.35022 12.3936
Si 11.9514 6.32741 9.39026
O 9.40483 6.34053 15.832
O 15.1887 1.03343 16.8314
O 14.8282 17.2723 14.6167
O 3.8688 3.91395 15.1528
O 12.6778 16.3602 13.1319
O 11.1342 7.12861 8.72618
O 9.48681 5.58117 13.2937
O 12.5461 7.09693 10.7009
O 14.2203 3.47638 12.0243
O 14.066 1.77802 14.1447
O 11.4142 6.85721 14.1595
O 0.266677 0.966717 12.0672
Si 0.453259 13.4297 13.2543
Si 3.84867 10.0084 8.75947
Si 1.59838 15.3923 15.2131
Si 4.62527 11.9097 11.316
Si 2.10237 10.967 12.6615
Si 3.3498 0.898978 13.4284
O 0.697226 15.0199 16.4728
O 1.81845 10.1563 14.0185
O 5.72428 10.8172 11.6393
O 2.53096 17.7436 13.3095
O 1.95454 10.111 11.4893
O 8.51056 3.50572 13.4588
O 1.36086 12.2124 13.0817
O 4.61608 15.5803 11.2442
O 1.13737 14.7999 13.6039
O 8.7186 13.639 11.1869
O 3.08456 1.38305 14.9055
O 4.21948 13.2358 10.7418
Si 1.16163 14.191 8.67355
Si 7.23192 10.5617 10.8807
Si 7.21954 15.4371 13.9019
Si 9.71838 11.4342 14.6088
Si 8.22597 13.2011 9.69463
Si 10.0512 16.8452 14.7396
O 4.07162 13.6509 0.954043
O 10.5625 15.3645 14.0794
O 7.52932 14.0114 13.3197
O 8.83602 12.4821 15.5375
O 7.18403 11.8399 9.89427
O 6.86439 13.8183 9.08986
O 3.95001 10.7847 10.1158
O 12.59 0.943693 12.2626
O 8.45621 16.4436 14.8964
O 10.8366 10.4379 13.9403
O 8.20656 16.9393 0.978025
O 8.66074 10.1354 14.8203
Si 12.2445 14.9767 13.729
Si 12.4906 8.89255 10.8942
Si 11.3005 0.36622 0.0322389
Si 14.3078 10.6884 0.0918256
Si 12.3433 10.1181 13.6442
Si 13.6974 12.512 14.9815
O 10.9125 16.9712 16.2001
O 13.3414 9.43965 0.383347
O 13.1218 8.88595 14.5146
O 1.40394 16.9673 15.5474
O 12.9835 9.72686 12.2603
O 15.0993 13.1072 14.3789
O 13.0774 11.4626 14.049
O 12.3631 14.0772 12.3011
O 12.6518 13.828 14.6753
O 15.0623 9.85325 15.8363
O 11.8482 17.5379 1.19487
O 13.6019 11.7471 16.3787
324
 Atoms. Timestep: 4500
Si 0.0434663 5.02556 0.0862114
Si 4.51104 15.8984 15.543
Si 5.16061 7.23628 4.66053
Si 3.86659 2.13618 6.38803
Si 1.98399 1.07788 4.18186
Si 4.07583 5.07588 2.78258
O 4.70519 6.46829 5.99069
O 4.52116 0.642825 9.53936
O 2.75001 1.73291 5.34602
O 6.21756 8.70444 15.7018
O 2.78084 1.32776 2.87583
O 2.42102 5.58128 2.72978
O 1.76973 4.9474 0.583675
O 2.15508 7.23063 16.78
O 4.93299 6.25284 3.35661
O 5.25074 0.973425 6.41984
O 3.79479 8.1341 4.3014
O 4.2691 3.6248 6.38472
Si 2.49585 6.3174 0.989568
Si 8.08921 0.140078 0.954843
Si 7.78419 5.12756 5.3543
Si 9.24316 2.93787 3.7503
Si 6.38875 0.569103 3.12964
Si 8.45884 5.58269 2.55475
O 6.21675 4.83718 5.69984
O 6.73506 1.5838 4.5291
O 8.46636 3.93159 2.83032
O 12.1582 5.00986 1.70336
O 6.75319 0.562159 0.0986567
O 8.25336 5.49543 0.96684
O 5.18892 1.18225 2.31131
O 7.5343 9.60023 1.08439
O 7.8502 5.84962 4.01439
O 10.7127 3.5832 3.50714
O 6.39592 8.16616 5.07098
O 9.9858 5.86875 2.73532
Si 8.44664 5.47016 16.4204
Si 15.4726 0.125729 16.0272
Si 13.0978 4.5628 5.71573
Si 14.5964 1.33968 2.86361
Si 13.9697 2.59237 0.347303
Si 12.8894 6.03546 0.709989
O 12.4986 5.21853 4.38254
O 13.5457 1.50188 4.00983
O 14.1993 2.41779 1.86823
O 12.8698 7.64923 1.26279
O 12.5527 3.12437 16.8526
O 15.0256 3.69311 16.901
O 14.4215 5.77067 0.791393
O 12.625 6.49167 16.294
O 14.6996 4.45238 5.20114
O 0.531075 1.43176 3.83379
O 0.108904 7.63508 4.98734
O 13.3274 4.15116 7.24502
Si 0.931235 14.4436 0.601646
Si 1.23462 10.0488 15.2659
Si 2.13967 16.0645 3.39576
Si 4.15995 12.2084 2.28148
Si 1.56692 11.2124 0.913739
Si 4.03774 15.3906 1.2784
O 13.7406 13.87 7.73061
O 3.35421 10.6132 5.68836
O 3.12156 11.2507 1.59332
O 5.3313 15.6372 2.08455
O 1.74919 10.6469 16.5847
O 3.02251 15.5626 15.2678
O 1.40133 12.8529 0.806739
O 4.69601 15.6313 17.0123
O 2.38351 15.346 0.771495
O 5.48612 11.5702 2.05137
O 3.20897 1.80583 7.73186
O 4.28206 12.9484 3.77788
Si 9.19892 13.6045 12.8362
Si 7.6105 9.44493 16.4165
Si 6.36408 15.5596 3.33792
Si 9.47575 11.3019 4.84661
Si 6.71684 11.5081 0.979278
Si 9.04319 15.2221 2.08114
O 5.48651 14.9302 4.61805
O 8.40019 10.3492 5.6121
O 7.83571 12.7122 0.442613
O 11.5833 13.8903 4.90007
O 6.33764 10.8695 16.62
O 9.41108 14.4275 0.859471
O 9.02849 12.0174 13.3381
O 7.80818 0.765421 2.30212
O 7.66098 14.5706 2.48941
O 9.53565 11.219 3.36353
O 6.73778 17.0659 3.55213
O 9.18275 12.9176 5.13571
Si 9.3457 12.8398 0.0872047
Si 12.4169 7.69842 15.2294
Si 11.8157 16.2366 2.52913
Si 11.8059 8.77864 0.875076
Si 9.36952 10.5083 1.95218
Si 14.8409 15.9444 2.6027
O 11.7191 11.4971 7.88
O 0.320819 9.23183 7.53278
O 10.4319 9.38275 1.50274
O 0.566155 15.8459 3.57971
O 11.532 8.51649 16.445
O 15.274 15.3911 1.19395
O 9.72291 11.9378 1.23722
O 14.5004 17.6947 2.35907
O 10.3218 15.7081 2.7531
O 0.100384 10.9313 1.11418
O 11.8812 17.4629 3.68912
O 13.1538 15.566 2.71225
Si 13.7741 2.87166 7.96408
Si 2.9773 0.780038 8.99865
Si 0.777346 5.92448 8.72519
Si 5.60003 1.33966 10.2761
Si 14.4575 17.7972 7.20765
Si 3.69684 5.60995 9.49708
O 15.3057 5.0391 9.69123
O 5.52718 0.220373 11.4582
O 2.28949 1.29597 10.4244
O 6.39334 6.98552 8.8261
O 0.968638 15.6599 8.82074
O 4.51262 4.75633 8.33772
O 14.3799 1.43241 7.29047
O 2.45519 6.06065 8.62823
O 3.007 4.35209 10.4421
O 6.8642 1.82387 9.45542
O 0.31374 7.34346 9.56661
O 5.17045 2.65931 10.9293
Si 5.02425 5.05394 6.69521
Si 6.7917 0.869611 6.10042
Si 6.01715 8.06651 9.9585
Si 9.03955 4.79395 9.64143
Si 8.42607 1.98532 8.89521
Si 8.14379 7.06358 7.73472
O 5.0124 5.23234 10.9313
O 10.6501 17.5688 13.0209
O 8.95494 3.51366 8.5675
O 9.42148 8.11855 8.10862
O 7.84601 1.58319 7.25788
O 8.42222 5.95373 8.71212
O 8.8455 3.66188 5.11695
O 8.29889 6.42883 6.34595
O 7.37518 8.86221 6.94555
O 10.4814 5.31999 9.7949
O 6.59465 9.51335 10.2023
O 8.75101 4.0378 10.8813
Si 11.392 5.02976 3.14121
Si 12.5696 0.481832 4.95876
Si 9.47387 9.42109 9.17103
Si 1.57249 2.03019 11.5488
Si 11.1731 1.36027 7.5957
Si 15.2029 6.33313 5.83587
O 10.9843 9.62806 9.50097
O 12.7471 17.3375 10.5668
O 12.2089 2.21186 8.28696
O 0.129879 6.17692 7.30441
O 11.3746 17.8612 7.7986
O 14.5747 2.62002 9.21985
O 9.91018 1.319 8.79154
O 14.4131 11.5722 8.2756
O 13.363 6.41927 5.99636
O 13.6173 17.0703 8.31326
O 9.5711 10.8477 8.35077
O 0.405055 3.16272 11.3024
Si 14.6415 12.5613 7.01251
Si 3.05738 9.40503 4.81033
Si 13.4028 13.5033 11.4026
Si 3.85048 14.8295 10.1996
Si 0.800167 8.84269 9.03544
Si 1.63872 16.5246 7.29984
O 5.92206 15.0501 15.0441
O 2.36325 9.28747 9.09901
O 4.15423 11.1228 8.10398
O 2.38614 14.9998 7.05489
O 2.37922 8.49369 6.37391
O 3.02432 14.9508 4.13142
O 0.391988 13.412 7.3758
O 2.57133 17.4212 8.1361
O 14.9198 13.9566 11.9061
O 2.49268 14.3739 9.56617
O 0.0258896 16.6804 6.80265
O 3.59093 11.9712 12.3336
Si 4.21261 14.1291 4.96384
Si 6.92788 9.76892 5.69699
Si 6.48332 15.4497 9.08049
Si 10.393 12.1649 8.30337
Si 4.23373 11.5036 6.57723
Si 7.88624 16.1166 6.57772
O 4.97667 14.9413 8.93219
O 8.73148 9.43656 10.5478
O 11.0557 11.2148 5.48738
O 11.7284 1.39874 5.99389
O 5.63606 10.7899 6.19993
O 8.88159 15.4462 5.50171
O 4.47518 13.1617 6.20757
O 7.33492 17.3503 5.7596
O 6.8978 16.0231 7.74859
O 9.97163 13.1842 9.67294
O 6.53673 16.2269 10.5223
O 10.1741 13.3423 7.24872
Si 10.2462 14.0654 5.85902
Si 0.535289 9.03208 6.00997
Si 10.7489 16.3828 7.91484
Si 14.405 11.1211 9.77175
Si 12.3323 10.8964 6.4456
Si 13.2206 16.2846 9.616
O 9.36239 16.5258 7.46328
O 13.2397 10.1822 10.0924
O 1.53557 9.78962 4.58858
O 13.3884 14.915 10.3409
O 13.3643 11.9325 6.32754
O 2.02596 17.4439 4.15701
O 11.4799 15.6034 6.69138
O 13.6102 17.7678 5.92302
O 11.6151 15.7493 9.16994
O 15.5254 10.0495 9.68648
O 11.545 0.916679 16.562
O 14.0583 12.6298 10.254
Si 14.6362 3.67266 10.6857
Si 6.12625 0.58719 15.7247
Si 1.20662 7.08291 15.2796
Si 3.83046 1.95615 2.00833
Si 3.70787 2.58268 16.2086
Si 3.61893 5.24239 14.627
O 0.228744 5.98596 15.9222
O 4.96306 17.4813 15.6456
O 3.12607 2.00808 0.396166
O 4.66805 6.26642 15.1757
O 2.63582 2.07285 12.7109
O 4.06017 4.66295 13.1619
O 0.71635 1.25568 14.6744
O 4.82804 8.63865 8.97998
O 2.32096 6.14967 14.6832
O 6.3402 15.4261 12.6917
O 1.66085 8.63074 14.9171
O 4.25419 5.68742 1.15521
Si 4.2792 3.95876 11.5547
Si 5.61421 16.6337 11.755
Si 6.03274 7.18752 15.0604
Si 11.6082 2.18614 15.7603
Si 8.33709 2.7526 15.2978
Si 7.52818 6.79896 12.4425
O 7.23208 6.37204 15.883
O 9.51917 0.551244 0.551775
O 7.37611 1.54906 15.2221
O 9.05924 7.30895 12.9393
O 10.0559 2.30879 15.9081
O 7.37024 5.20721 12.8153
O 5.255 2.04115 16.1495
O 6.59736 7.22526 11.2543
O 6.58308 7.40691 13.6398
O 12.155 2.23581 14.2694
O 4.05373 3.50612 2.60419
O 7.82604 4.04575 16.3138
Si 8.72675 4.05762 12.5264
Si 11.9103 17.4867 11.8813
Si 9.88531 6.33902 13.9858
Si 15.0897 0.867917 13.4454
Si 12.7937 2.48765 12.7359
Si 11.8607 6.09996 9.53228
O 9.44727 5.54616 15.1528
O 14.7587 1.4137 16.5084
O 14.6109 17.5231 14.5482
O 3.2308 3.97418 15.609
O 12.8742 16.4574 12.8353
O 12.2657 6.00959 8.29623
O 10.0834 5.06992 12.784
O 12.2164 7.62021 10.1781
O 13.5167 2.79282 11.3625
O 14.4181 2.50446 13.7908
O 11.1114 7.1136 14.4302
O 0.650719 0.833095 12.2619
Si 0.397176 13.7428 13.0758
Si 3.69347 9.97939 9.17587
Si 1.44629 15.7632 15.1073
Si 4.65306 11.9865 11.1402
Si 2.10015 11.4528 12.5529
Si 3.60726 1.01429 13.4705
O 0.869733 14.7231 16.0717
O 1.75268 10.9259 13.9742
O 6.1486 11.1479 11.7723
O 2.94737 17.8044 13.2311
O 1.64249 10.3918 11.3821
O 8.50344 3.23907 13.8084
O 1.20972 12.6204 12.2012
O 4.3495 15.8984 11.1206
O 0.892659 15.1762 13.6744
O 8.55268 13.5307 11.4533
O 3.25538 1.37005 14.9511
O 4.63553 13.4312 10.6223
Si 1.43642 14.0163 8.33396
Si 7.43307 10.2354 11.2387
Si 7.16108 15.4057 14.0702
Si 9.39009 11.0324 14.473
Si 8.29812 13.1107 10.0285
Si 10.0264 16.4068 14.1471
O 4.1486 13.695 1.11747
O 11.1681 15.3998 13.9735
O 7.74007 13.9053 13.7187
O 9.65588 11.8589 16.0066
O 7.71254 11.5067 10.1804
O 7.30213 14.1124 9.17139
O 3.99253 10.8598 10.4444
O 12.7164 0.85573 12.4678
O 8.53754 16.4535 13.8338
O 10.7157 10.3471 14.1064
O 8.54585 16.6194 1.60881
O 8.0982 10.0906 14.8792
Si 12.736 15.164 13.7618
Si 12.076 9.10886 10.5371
Si 10.8708 17.5091 17.0447
Si 14.4531 10.5791 0.0111124
Si 12.2284 10.1265 13.4515
Si 13.8157 12.4601 14.6651
O 10.181 17.0779 15.6485
O 13.2488 9.99309 0.833563
O 12.7182 8.9275 14.3565
O 1.15779 17.131 15.793
O 11.834 9.54238 12.0645
O 15.4581 12.9079 14.3188
O 13.1072 11.3144 13.9207
O 12.5694 14.072 12.6035
O 13.0541 13.8018 14.8719
O 15.3922 9.66309 16.0286
O 11.6349 17.3973 1.23128
O 14.1658 11.8834 16.2926
324
 Atoms. Timestep: 5000
Si 0.0692307 5.06985 0.54438
Si 4.81702 16.1946 15.8339
Si 5.2165 7.25997 4.51279
Si 3.83276 2.19786 6.38959
Si 1.87611 0.865632 4.07248
Si 4.48115 5.42211 2.31378
O 4.91197 6.27246 5.71732
O 4.82606 1.58243 9.32871
O 2.63392 1.46038 5.39718
O 6.08281 8.85411 15.5095
O 2.82182 1.60379 2.84734
O 2.92214 6.5652 2.78878
O 1.17167 5.82183 1.27537
O 2.46762 6.61942 16.4496
O 5.34282 6.63824 2.88002
O 5.17658 1.25406 6.23425
O 3.87009 8.12382 4.31661
O 4.32849 3.6185 5.78403
Si 2.46845 6.86865 1.23193
Si 8.00019 17.284 0.968383
Si 8.00144 5.52814 5.25255
Si 9.48366 3.18991 3.73254
Si 6.05986 0.605422 3.09564
Si 8.58715 5.52297 2.29426
O 6.66899 4.65825 5.8144
O 6.65582 1.63192 4.1339
O 8.71194 3.81732 2.53557
O 12.2044 5.26237 1.90926
O 6.94664 17.3593 16.9903
O 8.50759 5.36901 0.678123
O 4.98576 1.29453 2.0169
O 7.89979 9.63818 1.32306
O 7.60039 5.67543 3.63412
O 10.8369 3.74335 3.48861
O 5.95146 8.36659 5.17966
O 10.1739 5.837 2.81226
Si 7.83002 5.38906 16.2395
Si 15.3494 0.170073 15.9473
Si 13.4148 4.41935 5.40971
Si 14.6208 0.841894 2.80433
Si 13.8606 2.4473 0.430441
Si 12.8254 6.07514 0.613697
O 12.6583 5.37926 4.19978
O 13.5006 0.940602 4.14236
O 14.4205 2.13754 1.87566
O 12.685 7.62985 1.15621
O 12.2337 3.30647 16.7833
O 14.6914 3.65207 0.0840758
O 14.2918 5.83761 0.888276
O 12.939 6.58158 16.096
O 15.0858 3.92935 5.46344
O 0.354986 1.0683 3.95592
O 0.703775 6.97364 5.94508
O 13.2541 3.83323 6.95342
Si 1.05296 14.2099 0.692352
Si 1.70871 9.62655 15.8139
Si 1.74893 15.7448 3.63462
Si 4.4905 11.911 2.20865
Si 1.38778 11.385 1.38788
Si 4.25075 14.7861 1.39101
O 13.5153 13.9896 7.23308
O 3.05561 10.7449 5.38096
O 2.79649 11.3862 2.10139
O 5.5063 15.1611 2.42872
O 2.08639 10.3856 0.152373
O 3.13028 16.2771 15.4131
O 1.35561 12.7691 0.593363
O 4.57265 15.4037 0.082337
O 2.50886 14.8322 1.24241
O 6.02269 11.6864 2.15175
O 3.25305 1.52232 7.75179
O 4.36396 12.7306 3.60198
Si 8.6513 13.2237 13.6452
Si 7.18912 9.40882 16.3532
Si 6.41095 15.5975 3.76215
Si 9.41583 10.9662 5.20716
Si 7.07489 11.7245 0.949526
Si 9.02601 14.704 2.37552
O 5.35008 14.8167 4.66851
O 8.11795 10.1047 5.46419
O 8.31699 12.3204 0.449402
O 11.1851 13.7384 5.46214
O 6.29313 10.8568 16.782
O 9.98284 14.0792 0.92793
O 8.14738 11.7057 13.8589
O 7.39105 0.309169 2.21482
O 7.85215 15.1097 3.68633
O 9.46635 10.6891 3.64212
O 5.73629 17.1838 3.98359
O 8.74242 12.3998 5.2404
Si 9.87257 12.712 0.220473
Si 12.4154 7.80243 15.0647
Si 11.5465 16.3793 2.21778
Si 11.8777 9.0655 0.783209
Si 9.37285 10.3045 2.00245
Si 14.4706 15.7371 2.67476
O 11.8312 11.6716 7.70451
O 0.626051 9.8373 7.38706
O 10.4065 9.19754 1.49458
O 0.159887 15.4871 3.67594
O 11.5711 8.64318 16.3706
O 15.1923 14.6664 1.43815
O 10.2115 11.8522 1.56234
O 14.8173 17.3067 2.4596
O 10.4209 15.4124 2.96797
O 15.3595 11.0676 1.13722
O 11.5523 17.5517 3.31398
O 12.9927 15.6238 2.23228
Si 13.7438 2.9032 7.99874
Si 3.31179 0.8539 9.22871
Si 0.487565 6.2697 9.25918
Si 6.17132 1.54449 10.273
Si 14.2431 17.8385 7.03923
Si 3.73442 5.39902 9.17793
O 15.1918 5.55359 10.3788
O 5.46847 0.28729 11.2405
O 2.07327 1.65255 9.70957
O 6.4018 7.51105 8.90293
O 0.739094 15.2133 9.06741
O 4.74572 5.23961 7.87979
O 14.2755 1.4677 7.37512
O 2.11926 5.79447 9.46262
O 3.52343 3.92713 9.73777
O 7.33332 1.85114 9.24389
O 0.350955 7.92123 9.22231
O 5.69732 2.89963 10.8889
Si 5.22396 4.88689 6.41507
Si 6.77131 1.44118 5.86026
Si 6.03535 8.16956 10.201
Si 9.01432 5.07746 9.61098
Si 8.34075 2.34059 8.16379
Si 7.82033 7.46225 7.80403
O 5.17426 5.54091 10.4273
O 10.5067 17.233 12.2162
O 8.68386 3.89097 8.4617
O 9.42624 8.5378 8.18163
O 7.51886 2.51655 6.84134
O 8.35398 6.1676 8.69968
O 9.05939 4.22385 4.94712
O 8.18489 6.54829 6.44189
O 6.92749 9.04858 7.20434
O 10.5225 5.17116 9.34353
O 6.65609 9.57874 10.2865
O 9.05799 4.07887 10.8563
Si 11.5353 5.17232 3.26319
Si 12.2918 0.0916155 4.56469
Si 9.54466 9.72717 9.22538
Si 1.29331 1.94306 11.2692
Si 11.0333 1.68993 7.06121
Si 0.267852 5.44982 6.29743
O 11.1445 9.47253 9.76449
O 12.6896 17.0376 10.9479
O 12.1709 2.19419 8.00615
O 0.207101 5.52476 7.9412
O 11.0667 0.0783743 7.41026
O 13.8676 3.5353 9.46037
O 9.83497 1.77708 8.20735
O 13.9346 11.7607 8.4546
O 14.0635 5.86332 6.11549
O 13.6821 17.0118 8.2626
O 9.61014 11.1409 8.54274
O 0.182273 3.02976 10.9136
Si 14.3918 12.6709 7.15946
Si 2.86463 9.36552 4.59436
Si 14.0041 14.0683 11.0508
Si 3.99723 14.4887 10.2126
Si 0.99859 9.46302 9.10642
Si 1.39415 16.4785 8.00431
O 5.61321 15.5438 14.7515
O 2.42876 9.92146 9.14005
O 4.22256 10.7181 7.70636
O 2.18492 15.0402 7.28133
O 2.79277 8.58525 6.34446
O 2.83127 15.0313 4.48811
O 0.460033 13.036 7.4931
O 2.46963 17.3258 8.78443
O 15.378 14.2977 11.9257
O 2.63963 13.8223 9.60256
O 0.403215 17.3753 6.99217
O 3.71857 11.0504 12.6241
Si 4.1195 13.9145 4.63388
Si 6.56224 9.73761 5.86454
Si 6.6094 15.1035 8.93494
Si 10.6697 12.4341 8.62271
Si 4.13633 11.4258 6.33478
Si 7.67661 16.4303 6.61397
O 5.21517 14.1622 9.25386
O 8.88888 9.93561 10.7752
O 10.873 11.3245 5.60367
O 11.5006 1.39209 5.44148
O 5.70048 11.3471 5.71685
O 8.40388 15.1723 6.02705
O 4.05704 13.0028 6.13483
O 7.17305 17.877 6.43829
O 6.43052 15.9106 7.45923
O 9.91957 13.1797 9.79086
O 6.42976 16.3794 9.92202
O 9.76346 13.4323 7.29092
Si 9.79983 14.4243 5.81191
Si 0.887504 8.47014 6.30985
Si 10.4118 16.6962 7.84935
Si 14.1738 11.1739 9.9112
Si 12.1561 10.886 6.44123
Si 12.8964 16.4919 9.44605
O 8.7916 16.6322 8.09754
O 13.5254 9.82443 10.1509
O 1.16655 9.06972 4.81061
O 13.6985 15.0704 9.8815
O 13.5482 11.683 6.06686
O 2.26703 17.2716 4.06217
O 10.7512 15.7548 6.59304
O 13.1239 17.4847 5.89092
O 11.4374 16.0464 8.98418
O 0.215602 10.7844 9.78669
O 11.7387 0.9308 16.2977
O 14.0678 12.5151 10.9545
Si 14.4725 4.08483 10.8172
Si 6.22055 0.909635 16.308
Si 1.39004 6.64516 15.3393
Si 3.86069 2.25409 1.80323
Si 3.97035 2.78885 15.8766
Si 3.59283 5.10351 13.9663
O 0.289435 5.69438 15.9884
O 4.97863 17.8008 15.6684
O 3.39978 2.27832 0.29721
O 4.54678 6.54399 14.2255
O 2.43331 2.15988 12.2118
O 3.75755 4.6541 12.4169
O 0.747617 0.915567 14.5138
O 4.36598 8.53671 9.97146
O 2.24012 5.78822 14.1654
O 6.47896 15.578 12.3316
O 1.7163 8.24805 15.0492
O 4.2071 5.98335 0.835073
Si 4.88004 4.13841 11.2442
Si 5.75124 16.7175 11.3291
Si 5.66063 7.2951 15.1022
Si 11.5874 2.28425 15.5346
Si 8.40703 2.26945 14.9668
Si 7.3978 6.74801 12.739
O 6.59756 6.16076 15.8274
O 9.32602 17.8457 0.188883
O 7.16044 1.17919 14.8767
O 9.12225 7.16859 12.927
O 10.032 2.47133 14.9955
O 7.72376 5.21518 12.6683
O 5.40836 2.44919 16.0686
O 6.91203 7.47895 11.4009
O 6.99384 7.72136 13.9377
O 12.1437 2.78835 14.2236
O 3.96559 3.75705 2.35757
O 7.74478 3.50915 15.7591
Si 8.81056 3.99314 12.3831
Si 12.0958 17.7839 12.1981
Si 9.8875 6.3331 14.1286
Si 15.219 0.298089 13.1664
Si 12.8846 2.48304 12.8163
Si 11.9664 5.71186 10.1499
O 9.0233 5.59475 15.3007
O 14.3646 1.2367 16.4201
O 14.6932 17.3077 14.5005
O 3.83223 4.39306 15.342
O 12.6093 16.881 13.4585
O 12.9634 5.9166 9.17008
O 10.0602 4.79221 13.1207
O 11.6537 7.30413 10.6673
O 13.5459 3.64136 12.0385
O 14.3445 1.53067 13.2152
O 11.2291 7.01907 14.2999
O 0.764865 0.526611 12.0189
Si 0.721208 13.7269 13.1713
Si 3.98116 10.0878 9.15913
Si 1.5911 15.8317 15.2687
Si 4.88632 11.7343 11.6156
Si 2.23147 11.1805 13.0733
Si 3.52171 1.54536 13.199
O 1.12831 14.7704 16.3054
O 2.14528 10.6751 14.6431
O 6.23016 11.0851 12.0938
O 3.7285 0.260584 12.826
O 1.64563 9.93223 12.3825
O 8.36478 2.82126 13.4303
O 1.48926 12.4998 12.46
O 4.28058 15.8076 11.2158
O 0.935387 15.2186 13.9379
O 8.48748 13.2358 12.0455
O 3.49235 1.96897 14.6768
O 4.4207 13.3059 11.4017
Si 1.56196 13.7385 8.23291
Si 7.57783 10.5068 11.2462
Si 6.98571 15.5399 13.9227
Si 9.3626 10.8197 14.9018
Si 8.5486 13.3702 10.3862
Si 9.89539 16.3561 13.7118
O 4.36146 13.2463 1.20994
O 11.0517 15.1551 13.5222
O 7.29521 14.0122 14.054
O 10.3145 11.729 15.9917
O 7.63713 11.8767 10.0516
O 8.12348 14.7136 9.50057
O 4.4623 11.131 10.3327
O 11.8735 1.44828 11.6637
O 8.39948 16.0834 14.2294
O 10.3025 10.0303 13.7974
O 8.48538 15.9948 1.65632
O 8.28875 9.8642 15.3608
Si 12.5705 15.2704 13.6382
Si 12.3691 8.8556 10.5885
Si 10.7352 17.5701 16.359
Si 14.2309 10.8079 16.9646
Si 11.9516 10.2216 13.3029
Si 13.7366 12.4485 14.5454
O 10.3398 17.3635 14.8671
O 13.1226 9.84436 0.593702
O 12.5946 9.05355 14.2082
O 0.970714 17.0373 16.2254
O 12.0362 9.52559 11.972
O 15.1884 13.0112 14.04
O 12.5352 11.5252 13.9553
O 13.0984 14.7023 12.1658
O 13.0472 13.8436 14.5233
O 15.4698 9.8931 16.0046
O 11.59 16.9971 0.851719
O 14.0103 11.914 16.0057
324
 Atoms. Timestep: 5500
Si 0.345794 5.18736 0.738493
Si 4.48627 16.496 15.4058
Si 5.13505 7.57233 4.29836
Si 3.3749 2.11127 5.80716
Si 2.36773 0.702312 3.38522
Si 4.64255 4.90998 2.70245
O 4.49108 6.64585 5.5779
O 4.80569 1.03198 9.10459
O 3.22475 1.43442 4.38245
O 6.57219 8.1948 16.7498
O 2.93663 1.13643 1.99986
O 2.94584 5.85068 2.73537
O 1.98957 4.5859 0.68893
O 2.73584 6.55219 16.6347
O 5.20349 6.36034 3.26184
O 4.90179 1.65945 6.2894
O 4.08602 8.80751 4.41504
O 3.85131 3.72585 5.99974
Si 2.9224 6.25887 1.14073
Si 8.47322 -0.0155359 0.53612
Si 7.88194 5.5879 5.47079
Si 9.28853 3.37932 4.36943
Si 6.52851 0.693328 3.00623
Si 8.51287 5.60787 2.4415
O 6.39051 4.94671 5.59909
O 6.31201 1.59706 4.45007
O 8.71278 4.12105 3.1173
O 12.229 5.03461 2.06552
O 7.17065 0.542716 16.7072
O 7.92493 5.32535 0.936449
O 5.57596 1.61567 2.06142
O 7.50652 9.79219 1.96083
O 8.09769 6.34695 3.90723
O 10.8046 3.82491 3.92998
O 6.34102 8.54274 4.37026
O 10.0658 5.83949 2.48303
Si 8.08498 5.19614 16.3679
Si 0.117046 0.612289 15.4226
Si 13.7962 4.64416 5.4615
Si 14.7844 0.923668 2.66169
Si 14.2303 2.62155 0.244092
Si 12.8202 6.20886 0.930604
O 12.6192 5.38041 4.71395
O 13.6434 1.37882 3.80063
O 14.0496 1.19512 1.15014
O 12.4139 7.70509 1.34695
O 12.7496 3.15263 16.8947
O 15.2841 3.76673 0.563926
O 14.5318 6.04742 0.943782
O 12.6263 6.3405 16.3681
O 0.0719199 4.37729 5.2466
O 0.769926 0.931535 3.36443
O 0.797188 6.73022 5.78344
O 13.4754 3.1682 6.24979
Si 1.17432 14.2573 0.734697
Si 1.2984 9.53768 15.9809
Si 2.22534 15.4887 3.80872
Si 4.07524 12.2216 2.18566
Si 1.38277 11.1564 1.53943
Si 4.0432 14.8392 0.900004
O 13.4774 14.0988 7.49151
O 3.39511 10.7441 5.62376
O 2.90949 10.7001 2.37026
O 5.12441 14.9085 2.00858
O 1.92808 10.2058 0.156165
O 2.94821 15.901 15.3353
O 1.29613 12.6964 1.24568
O 4.8278 15.7184 16.8284
O 2.45909 15.3331 1.12973
O 5.54134 11.4057 2.43222
O 2.72165 1.64913 7.2587
O 4.13616 12.8313 3.60116
Si 8.6369 13.3325 13.7003
Si 7.51847 9.3468 16.7701
Si 6.1384 15.3756 3.23005
Si 9.60332 11.0993 4.86016
Si 6.85718 11.545 1.53442
Si 9.07412 15.3558 1.92447
O 5.32381 15.0177 4.48652
O 8.6725 10.2043 5.60861
O 7.89498 12.4421 0.664729
O 11.1152 13.2313 5.59213
O 6.3179 10.5409 0.0939568
O 9.42898 13.9771 1.06031
O 8.26222 11.7106 13.672
O 7.98582 0.771799 2.10173
O 7.63129 15.3457 2.63149
O 9.42189 10.4346 3.44397
O 6.25933 16.9827 3.05171
O 9.01261 12.6553 4.66524
Si 9.45922 12.641 0.202226
Si 12.3599 7.60422 15.2215
Si 11.9581 16.296 2.44852
Si 12.1388 9.15257 0.888762
Si 9.474 10.0534 1.89322
Si 14.7998 15.7313 2.97903
O 11.6371 11.8938 7.74628
O 0.637397 9.08519 7.99403
O 10.8314 9.30791 1.66467
O 0.668775 15.4442 3.92128
O 11.612 8.59064 16.1235
O 0.0820059 15.0251 1.71835
O 9.97644 11.3971 1.18053
O 14.6337 17.2627 2.81855
O 10.5697 15.6849 2.44869
O 15.2445 10.8391 1.94301
O 12.0271 17.3263 3.73632
O 13.2687 15.4964 2.31532
Si 13.4288 2.52137 7.81371
Si 3.35065 1.00473 8.52129
Si 0.777881 6.11391 9.64129
Si 6.09671 1.74023 9.7402
Si 14.0651 17.4115 7.38512
Si 3.629 5.23086 8.91813
O 0.0988264 5.03432 10.6161
O 6.52318 0.393456 10.5952
O 2.2209 1.42078 9.87049
O 6.45503 7.77069 8.67179
O 0.561687 15.5933 9.53573
O 4.77198 5.03144 7.59127
O 14.2606 1.10936 7.48814
O 2.37327 5.91054 9.89176
O 3.7535 3.85051 9.93048
O 7.423 2.12156 8.8846
O 0.522646 7.59364 10.2927
O 5.51543 2.87499 10.9426
Si 4.85743 5.09288 6.09774
Si 6.27015 1.00888 5.92237
Si 5.99306 8.31092 10.167
Si 9.51105 5.16929 9.41195
Si 8.0079 2.91921 7.68733
Si 7.5406 7.61892 7.63642
O 4.89745 5.79268 10.0494
O 10.1763 17.2031 13.0052
O 9.10574 4.01723 8.38456
O 8.66565 8.85175 8.47203
O 7.27079 2.24372 6.61308
O 8.40401 6.31839 9.2004
O 8.86369 4.35699 5.46132
O 8.47069 6.56799 6.75903
O 7.30546 8.7339 6.39313
O 10.8137 6.03675 9.32935
O 6.83022 9.74749 9.98514
O 8.90571 4.51497 10.8683
Si 11.3354 5.31159 3.42974
Si 12.5879 0.488067 4.70287
Si 9.55589 9.76085 9.49925
Si 1.48604 1.71354 11.1244
Si 10.779 1.18163 7.05535
Si 0.725007 5.34517 6.6015
O 10.9116 9.20649 9.88607
O 11.5733 16.9423 10.7737
O 11.7791 1.969 7.90791
O 0.618279 5.55155 8.24896
O 10.868 17.6609 7.56061
O 13.9362 3.04755 9.25855
O 9.30537 1.81292 7.4217
O 14.16 12.2198 8.54159
O 14.2523 5.6557 6.74341
O 13.3019 17.3508 8.91998
O 9.73911 11.103 8.78047
O 0.198672 2.73989 11.1319
Si 14.3621 12.8409 7.14844
Si 2.73146 9.52447 4.87005
Si 14.0093 13.961 11.1702
Si 3.72114 14.4643 10.3644
Si 0.811105 9.12378 9.87135
Si 1.23021 16.7959 8.59899
O 5.15877 15.3424 14.4556
O 2.39524 9.35969 9.67085
O 4.07945 10.9479 8.06859
O 1.98271 15.0981 7.65096
O 2.48237 8.10139 6.37519
O 2.95124 14.649 4.7431
O 0.392499 13.366 7.61077
O 2.98927 17.1899 8.48951
O 15.2215 14.2933 12.1451
O 2.67957 13.7404 9.50734
O 0.0957528 17.0313 7.30789
O 3.65386 10.9148 12.7103
Si 4.25384 13.7926 4.92653
Si 7.0517 9.68387 5.23344
Si 6.42621 14.6347 9.14128
Si 10.3993 12.4643 8.33846
Si 4.59646 11.1432 6.55141
Si 7.46531 16.0718 6.62079
O 5.03259 14.0047 9.52645
O 8.85878 9.86549 11.2663
O 11.1531 11.1908 5.49395
O 11.25 1.17884 5.58453
O 5.87595 10.6558 5.66738
O 8.07985 14.7009 5.92246
O 4.74124 12.7866 6.23701
O 6.73291 17.4351 6.58371
O 6.47619 15.2015 7.64685
O 10.1568 13.2485 9.78247
O 6.40491 16.0812 9.70058
O 9.52441 13.1446 7.10667
Si 9.72778 13.9961 5.66765
Si 0.911037 8.26378 6.59449
Si 10.2433 16.1786 7.73509
Si 14.3196 11.2976 9.73886
Si 12.1992 10.8873 6.75788
Si 12.5496 16.1982 9.77745
O 8.73722 16.413 7.34224
O 13.188 10.2333 10.0858
O 1.1702 9.40674 5.27357
O 13.8398 15.1815 10.1819
O 13.445 11.8418 6.29583
O 2.58022 17.0403 4.04939
O 10.6309 15.5694 6.40465
O 13.3726 17.4919 5.86888
O 11.672 15.3885 8.55364
O 0.192378 10.4163 10.1786
O 11.6307 0.948468 15.5984
O 13.9911 12.4766 10.8404
Si 14.644 3.78682 10.5158
Si 6.167 1.13233 15.5151
Si 1.67598 6.59228 15.3933
Si 4.17561 2.27294 1.61245
Si 4.1425 3.24831 15.6594
Si 3.99736 5.67429 13.8363
O 0.565649 5.71543 16.0337
O 5.05304 0.0483656 15.4255
O 3.69742 2.88624 0.277086
O 4.55743 6.91512 14.8614
O 2.50879 2.27858 12.2275
O 4.11598 4.98342 12.465
O 0.695341 1.26871 13.8616
O 4.70718 9.03165 9.95229
O 2.51198 5.54095 14.4485
O 6.4767 16.5586 12.3036
O 0.827902 8.06168 15.841
O 4.60554 5.17488 1.06078
Si 5.10557 4.54455 11.0587
Si 5.57743 16.8156 11.015
Si 6.15077 7.19395 15.2514
Si 11.7959 2.47634 15.404
Si 8.73427 2.53726 14.8713
Si 7.60157 7.2058 12.4521
O 6.80131 5.78066 15.8307
O 9.91989 0.547802 0.301126
O 7.5491 1.61484 14.8664
O 8.9926 7.2716 13.0005
O 10.366 2.84309 15.177
O 7.48188 5.39562 12.4258
O 5.56289 2.71947 15.7818
O 7.34144 7.6864 11.0563
O 6.76644 7.06012 13.8454
O 12.5768 3.27807 14.0525
O 3.89199 3.57728 2.44327
O 8.1055 3.86101 15.4529
Si 8.39785 4.26479 12.3324
Si 11.3757 17.7408 12.102
Si 10.0048 6.22219 14.0142
Si 14.7777 0.420599 12.8325
Si 12.7884 2.79098 12.5588
Si 12.084 6.12898 10.2825
O 9.24887 6.01717 15.5523
O 14.7457 2.07047 15.8054
O 14.3766 17.7132 14.4697
O 4.51927 4.52004 14.824
O 12.4691 16.7048 12.9838
O 13.1445 6.32634 9.20354
O 9.68171 4.9581 13.152
O 12.1322 7.54601 10.7633
O 13.3848 3.88744 11.5068
O 14.1809 1.93257 12.74
O 11.2827 6.91167 14.4793
O 0.650086 0.512017 11.7355
Si 0.532437 13.3923 13.2966
Si 3.69364 10.2073 9.34785
Si 1.38396 15.7432 15.0246
Si 4.47414 11.8234 11.672
Si 2.14711 10.8905 13.5998
Si 3.42995 1.40258 13.4156
O 1.05341 14.7912 16.3392
O 2.43121 9.81311 14.6596
O 5.94496 11.3177 11.7082
O 2.6294 0.286574 13.3489
O 0.871657 10.2941 12.7229
O 8.54904 3.10851 13.2126
O 1.71052 12.3946 13.8032
O 4.45969 15.7439 11.0931
O 1.19388 14.7038 13.9631
O 9.1838 13.4114 12.1438
O 3.49086 2.16312 14.7543
O 3.77989 13.3496 11.706
Si 1.45575 13.9903 8.62312
Si 7.42191 10.6564 11.245
Si 6.65552 15.5574 13.6243
Si 9.08712 10.6753 14.6144
Si 8.73347 13.3715 10.7302
Si 9.5873 16.1272 14.1042
O 3.93305 13.2273 0.905743
O 10.6263 14.9843 13.5161
O 7.32924 14.1345 13.5757
O 9.6656 12.0154 15.6817
O 8.01694 12.0467 10.5364
O 7.87896 14.1186 9.64481
O 3.734 11.3383 10.409
O 12.1026 1.40719 12.0835
O 8.02824 16.1629 14.0521
O 10.2889 9.78895 14.3558
O 8.5801 16.3854 0.757166
O 7.81454 10.1424 15.3701
Si 12.2648 15.1494 13.2666
Si 12.2018 9.05847 10.7267
Si 11.1438 17.64 16.3819
Si 14.3108 11.1291 0.166934
Si 11.8409 10.0262 13.5676
Si 13.3186 12.3711 14.7357
O 10.3228 16.7889 15.3149
O 13.4616 9.80249 0.333554
O 12.5669 8.74905 14.0382
O 0.788193 17.0731 15.7207
O 11.4119 9.71007 12.1562
O 14.7348 12.8262 14.1912
O 12.7681 11.2604 13.7075
O 12.802 14.2323 11.9637
O 12.5565 13.8687 14.3627
O 0.00375961 10.6774 15.99
O 11.8783 16.9432 0.922427
O 13.4354 12.0359 16.24
324
 Atoms. Timestep: 6000
Si 0.474509 4.60768 0.412217
Si 4.532 16.0693 15.5223
Si 4.95358 7.29199 4.46929
Si 3.81938 2.68518 5.57548
Si 2.30434 0.755185 3.85569
Si 5.08093 4.95654 2.55908
O 4.62468 6.49325 5.83261
O 4.37918 1.74735 8.98564
O 2.88401 1.81326 4.81285
O 6.21497 8.46093 16.2868
O 3.51247 1.05421 2.53607
O 3.35259 5.30387 3.1184
O 1.97516 4.73915 1.15167
O 2.59017 6.93462 0.232
O 5.42421 6.23872 3.33833
O 5.26565 1.53891 5.43658
O 3.78045 8.39102 4.43542
O 4.43472 4.05039 5.67287
Si 2.66043 6.03996 1.64965
Si 8.59418 0.611371 0.715485
Si 8.03969 5.49654 5.33394
Si 9.49081 3.10157 3.8564
Si 6.93842 0.791905 3.09878
Si 8.55623 5.53756 2.35347
O 6.75713 4.83614 5.88519
O 7.78179 0.900914 4.72352
O 8.70294 3.93737 2.7327
O 12.1957 5.52639 2.16484
O 7.32685 0.756516 16.5386
O 8.44329 5.60845 0.743656
O 5.83943 1.20867 2.07683
O 7.88603 9.55252 1.8741
O 7.68736 5.79995 3.89436
O 10.8513 3.99437 3.59932
O 5.98066 8.75227 4.91977
O 9.93297 6.08919 2.85871
Si 8.39632 5.12828 16.1735
Si 15.2497 0.105995 15.6257
Si 13.696 4.62393 5.15112
Si 14.8658 0.625929 2.64171
Si 13.9463 2.50947 0.198583
Si 13.3239 5.96488 0.994789
O 12.5 5.53599 4.65936
O 14.0751 0.659603 4.01427
O 14.2954 1.77022 1.74559
O 13.1554 7.48498 1.41444
O 12.5785 2.88297 16.1916
O 14.9597 3.5067 16.6012
O 14.809 5.43968 1.18918
O 13.2541 6.46078 16.3816
O 15.521 4.62061 5.14075
O 0.918243 1.41463 3.09846
O 0.151654 7.06114 6.15962
O 13.471 3.11541 5.79582
Si 1.34306 14.6107 0.873292
Si 1.05909 9.97159 16.0928
Si 2.18469 15.6089 3.65899
Si 4.21983 12.2178 2.86993
Si 1.14693 11.5145 1.58111
Si 4.47825 14.5037 1.02235
O 13.8069 13.9511 7.8767
O 3.17248 10.7849 6.37459
O 2.82031 11.7137 2.22774
O 5.11977 15.5525 2.17318
O 1.59924 10.4342 0.466546
O 3.1349 15.3474 14.9892
O 1.44057 12.9473 0.742416
O 5.04933 14.9785 16.4855
O 2.84806 14.9078 1.24887
O 5.31246 11.0354 2.31638
O 3.09501 2.28294 7.10781
O 3.8504 12.9354 4.16351
Si 8.80474 13.5273 13.4228
Si 7.43142 9.1981 16.8155
Si 6.39854 15.4121 3.17241
Si 9.77577 11.121 4.86906
Si 6.6805 11.1751 1.72174
Si 8.89556 15.4647 1.41605
O 5.50659 14.7638 4.40409
O 8.21703 10.2614 5.25177
O 7.35782 12.5587 1.0857
O 11.2311 13.997 4.54496
O 6.52709 10.6504 16.9954
O 9.13065 14.4317 0.345022
O 8.74467 11.8494 13.613
O 8.17536 1.14208 2.17087
O 7.44502 14.877 2.01563
O 9.88532 10.5021 3.46766
O 6.65279 17.0849 3.14817
O 9.44381 12.6292 4.35178
Si 8.63414 12.7797 0.188116
Si 12.5933 7.73008 15.5482
Si 11.9272 16.37 2.26014
Si 11.7627 8.61343 1.19479
Si 9.5693 10.5552 1.95069
Si 14.8193 15.4667 3.10149
O 11.669 11.5342 7.67803
O 0.366447 8.70324 7.90761
O 10.4385 9.43791 1.38526
O 0.546611 15.4985 4.08218
O 11.5302 8.01926 16.81
O 0.0835906 14.5375 1.94731
O 9.67726 12.1057 1.30051
O 15.0569 16.9992 2.34323
O 10.4411 15.6399 1.97779
O 15.1025 11.4468 1.51296
O 11.9849 17.1169 3.6188
O 13.2031 15.4343 2.54743
Si 13.6533 2.42825 7.39713
Si 3.02802 1.26607 8.30705
Si 0.759507 5.9745 9.86292
Si 5.84087 1.7693 9.5966
Si 13.9642 17.277 7.24887
Si 3.62919 5.58314 9.05929
O 14.863 5.33332 10.3207
O 5.41699 0.832584 10.9612
O 1.85735 1.66357 9.32425
O 6.75849 7.67096 9.29577
O 0.643052 15.3763 9.35521
O 4.78932 4.99539 8.09543
O 14.3608 0.935847 7.24961
O 2.33558 6.45053 9.66693
O 3.35606 4.00531 10.1951
O 7.49299 1.91561 9.48978
O 0.193885 7.63143 10.0418
O 5.61876 3.10446 10.6216
Si 5.37012 5.13737 6.63483
Si 6.59635 0.787259 6.01867
Si 5.77032 8.59794 10.2932
Si 9.63612 4.94202 9.49476
Si 8.28869 2.3641 8.16564
Si 7.92061 7.04621 8.29162
O 4.86497 5.84746 10.3244
O 10.1244 17.4683 13.7541
O 8.87659 3.87411 8.50388
O 9.18422 8.28974 8.19004
O 7.37129 1.69882 6.99445
O 8.63147 6.20849 9.44484
O 8.63656 4.00298 5.05139
O 8.31328 6.28262 6.83491
O 6.92793 8.75519 6.99276
O 10.886 6.16998 10.2384
O 6.35905 10.0879 10.0799
O 9.21348 4.45514 10.8736
Si 11.394 5.53645 3.38905
Si 12.7696 0.268022 4.77649
Si 9.12318 9.57567 9.39045
Si 1.36445 1.86562 10.9402
Si 10.9821 1.09662 6.96724
Si 0.202864 5.61494 6.65457
O 10.5643 9.49223 9.96716
O 11.333 17.271 10.6248
O 12.1731 2.04534 7.62243
O 0.467891 6.01545 8.21346
O 10.8996 17.4301 7.20376
O 14.3148 3.35882 8.50754
O 9.71947 1.77565 7.81212
O 14.2938 11.8333 8.44227
O 13.9261 5.5381 6.49074
O 13.4056 16.6561 8.71717
O 9.27745 10.605 8.09292
O 0.202015 3.00133 10.9036
Si 14.5396 12.6857 7.24882
Si 2.97856 9.38793 5.43751
Si 13.0702 13.7843 11.5491
Si 3.55676 14.6194 10.4761
Si 0.681977 8.90105 9.48544
Si 1.22708 16.8202 8.13492
O 5.397 15.5375 13.9784
O 2.25499 9.55888 9.65815
O 4.45633 11.105 8.35363
O 2.35726 15.4526 7.58466
O 2.13812 8.43607 6.70251
O 3.27342 15.2218 4.80001
O 0.553225 13.23 7.5674
O 2.27141 0.0842453 7.53221
O 14.7995 13.9837 11.9646
O 2.48253 13.821 9.67954
O 0.144571 16.4337 6.98994
O 3.55911 10.877 13.2947
Si 4.38798 14.1661 5.16207
Si 6.89297 9.58007 5.81621
Si 6.40614 14.8224 9.01365
Si 10.117 12.0305 8.11944
Si 4.66226 11.5359 6.88011
Si 7.35407 15.8294 6.3161
O 4.75079 14.5562 9.24588
O 8.44663 10.2749 10.6128
O 11.3032 11.2059 5.28003
O 11.7407 1.13252 5.5362
O 5.97238 10.8364 6.32706
O 8.25283 14.6468 5.57352
O 5.09431 13.1418 6.48244
O 6.38765 17.0056 5.92927
O 6.60123 15.1274 7.45059
O 10.0919 13.0968 9.41486
O 6.30269 16.4866 9.52061
O 9.95494 13.0219 6.935
Si 9.90431 14.1904 5.40375
Si 0.513918 8.63423 6.20585
Si 10.0053 16.1971 7.61724
Si 13.9968 11.3733 9.96561
Si 12.2992 10.736 6.46655
Si 12.2734 16.2869 9.64054
O 8.62944 16.5908 6.77814
O 12.7388 10.3127 9.83703
O 1.45601 9.80861 4.87072
O 12.5571 15.0612 10.5986
O 13.5968 11.7042 6.22923
O 2.22254 17.1352 3.82114
O 10.4376 15.2893 6.3485
O 12.9173 17.0152 5.96441
O 11.0902 15.6716 8.70172
O 15.1798 10.1354 10.041
O 12.1397 1.06054 15.4319
O 13.3658 12.6158 10.5271
Si 14.3224 3.77821 10.1541
Si 6.64613 0.675167 15.0965
Si 1.92532 6.75468 15.7327
Si 4.5914 2.03444 1.72046
Si 4.4331 2.74969 15.7482
Si 3.86912 5.43104 13.909
O 0.72881 5.79867 16.2309
O 5.58588 17.3481 15.3982
O 3.88136 2.03927 0.140509
O 4.94054 6.59095 14.307
O 2.62216 1.90869 11.8799
O 3.79098 4.82147 12.3873
O 0.639804 1.25187 14.2205
O 4.64955 8.80515 9.24607
O 2.29638 6.196 14.3575
O 6.37022 16.4019 11.8624
O 1.10909 8.3525 15.9806
O 4.47515 5.4679 1.17542
Si 4.64352 4.18727 11.1164
Si 5.3895 16.9307 10.8717
Si 5.98235 7.22825 15.2873
Si 11.6502 2.60189 15.0185
Si 8.71046 2.63046 14.351
Si 7.70109 7.7112 12.6115
O 7.16367 6.24163 15.7596
O 10.1759 0.944232 0.740332
O 7.64538 1.3567 14.0061
O 9.3134 7.73079 13.0164
O 10.191 2.40747 15.3936
O 7.68353 6.24788 12.1458
O 5.83028 2.07982 15.3135
O 6.41122 8.29689 11.7377
O 7.16173 7.62094 14.0804
O 12.6463 2.63808 13.763
O 4.75153 3.40169 2.39744
O 8.18044 3.6816 15.4751
Si 8.71199 5.05798 12.2717
Si 11.1082 17.3763 12.2768
Si 10.0265 6.83108 14.31
Si 15.4522 0.23535 12.8896
Si 12.7192 2.08085 12.208
Si 12.247 6.55057 9.91345
O 9.7106 5.60756 15.325
O 14.407 1.16229 16.3922
O 14.452 17.4556 14.2989
O 3.91495 4.19484 15.061
O 12.1456 16.3213 12.7048
O 12.3807 6.36649 8.36306
O 10.2634 5.67671 12.7468
O 12.4584 8.05659 10.1363
O 13.3219 2.97397 11.0073
O 14.0632 1.1441 12.4655
O 11.6066 6.79956 14.7632
O 0.698855 0.262826 11.585
Si 0.0824905 13.4451 13.359
Si 3.55154 10.3225 9.27924
Si 1.53309 15.5852 15.1629
Si 4.3965 11.7986 11.908
Si 2.03034 11.0311 13.2974
Si 3.45334 1.19029 13.0767
O 0.626631 14.9443 16.3531
O 1.84305 10.3389 14.6962
O 5.98735 11.3623 12.0154
O 3.57922 17.6945 12.8861
O 1.77923 9.9897 12.1621
O 8.55846 3.57941 13.2209
O 1.1213 12.2655 12.8011
O 4.12986 16.0406 11.1281
O 0.714257 14.7518 13.9774
O 8.94233 13.8527 11.886
O 3.64267 1.86406 14.7447
O 4.21224 13.4073 11.328
Si 1.61853 14.0358 8.38825
Si 7.21313 11.1186 11.2281
Si 6.7706 15.4147 13.1848
Si 9.07666 10.77 14.7566
Si 8.81529 13.4838 10.4078
Si 9.6651 16.4501 14.8419
O 4.53335 13.0718 1.54237
O 10.5568 15.1614 14.4536
O 7.28153 13.8338 13.4717
O 9.45014 12.0057 15.9152
O 7.55515 12.4356 10.3117
O 7.8198 14.587 9.68151
O 3.93505 11.0668 10.6985
O 11.538 0.968792 12.3087
O 7.99526 16.2692 14.046
O 10.5292 10.3843 14.346
O 8.64016 16.8874 0.96853
O 8.56434 9.66799 15.7397
Si 12.2141 15.1775 14.1194
Si 11.8563 9.54708 10.8557
Si 11.4134 0.0879458 16.8788
Si 13.9184 10.7055 0.574104
Si 12.026 10.0793 13.7702
Si 13.1372 12.5645 15.0682
O 10.6655 16.7574 16.1318
O 12.802 9.70661 0.794994
O 12.465 9.07177 14.9628
O 1.09538 17.0975 15.4228
O 11.7468 9.21137 12.4656
O 14.7266 12.7947 14.5332
O 12.8356 11.3371 13.9712
O 12.2687 13.8127 12.761
O 12.8552 14.1207 15.182
O 14.98 9.96539 16.6808
O 12.4116 17.1667 1.04458
O 13.4238 11.7545 16.5291
324
 Atoms. Timestep: 6500
Si 0.571097 4.51312 0.50469
Si 5.04658 16.174 15.3085
Si 5.20511 7.43376 4.87749
Si 3.68513 2.48141 6.20529
Si 2.32801 1.1217 3.65545
Si 4.5428 5.17175 2.95885
O 5.34328 6.76461 6.35772
O 4.64059 1.56389 9.31084
O 2.88025 1.99387 4.90182
O 6.27467 7.90827 16.1584
O 3.00284 1.60508 2.38233
O 2.98116 5.63983 3.60758
O 1.58052 5.09788 1.39067
O 2.02805 7.29472 0.602301
O 5.48227 6.24899 3.62178
O 5.02911 1.75435 6.20583
O 3.51946 7.97646 4.97742
O 4.33965 3.94657 6.08238
Si 2.25608 6.43731 1.86897
Si 8.49954 0.377812 1.00663
Si 8.01324 5.26544 5.60665
Si 9.67717 3.24372 4.26004
Si 6.52034 0.715574 3.16693
Si 9.0314 5.55933 2.74044
O 6.87694 4.76991 6.53678
O 6.78859 1.92672 4.27546
O 9.06275 3.99628 2.95782
O 12.8274 4.79935 1.67978
O 7.26709 1.11626 17.0557
O 8.76668 5.94289 1.11189
O 5.44039 1.19034 2.09131
O 7.46526 9.14444 1.87857
O 8.32221 5.82299 4.11108
O 11.2099 3.62438 3.9954
O 6.01801 8.92475 4.77526
O 10.6782 5.76769 3.09822
Si 8.50679 5.099 16.6299
Si 0.333861 0.241527 15.0289
Si 13.7129 4.23794 5.59024
Si 14.6605 0.983877 2.41696
Si 14.1367 2.1846 16.8141
Si 13.3303 5.75231 0.375905
O 13.0846 4.95212 4.29917
O 13.324 0.761307 3.36077
O 14.6679 1.56332 1.07395
O 12.6607 7.02933 1.04146
O 12.7164 2.64258 16.3465
O 15.1171 3.48455 16.9581
O 14.8232 5.582 0.961396
O 13.8018 6.72886 16.1203
O 0.0872627 4.82203 5.34888
O 0.801033 1.2831 3.12053
O 0.384969 7.76735 5.42837
O 14.2241 3.57138 6.94807
Si 1.66182 14.5321 0.99615
Si 0.502675 9.6821 15.8818
Si 2.33698 15.8793 3.74174
Si 4.06161 11.9965 2.34606
Si 1.32141 11.4618 1.20739
Si 4.64587 14.9502 1.21877
O 13.2589 14.0614 7.85714
O 3.703 10.6594 5.40258
O 2.74074 11.1045 2.04579
O 5.68507 15.2663 2.23922
O 1.52606 10.5293 17.0108
O 3.61696 15.9799 14.8248
O 1.15851 12.9727 0.71638
O 4.9557 15.339 16.6958
O 3.13937 15.3829 1.57223
O 5.38171 11.1403 2.00433
O 2.79907 1.95102 7.40455
O 3.91117 12.7926 3.71576
Si 9.1527 13.1416 12.9891
Si 7.47717 8.87254 16.5569
Si 6.48083 15.6763 3.57174
Si 9.61301 10.8948 4.79824
Si 6.8468 10.6953 1.79741
Si 9.00027 15.3746 1.82912
O 5.42529 15.0322 4.59034
O 8.38321 10.4895 5.87668
O 7.47366 11.9824 1.11224
O 10.5356 13.4741 4.50269
O 6.50734 10.1644 -0.000326225
O 8.90019 14.1318 0.732787
O 8.77186 11.5625 13.5691
O 8.29709 0.776172 2.61737
O 7.92833 15.4466 2.90086
O 9.72933 9.83647 3.52821
O 6.28743 17.2239 3.57449
O 8.70999 12.065 4.21196
Si 9.11323 12.4619 0.862471
Si 12.744 7.78161 15.1807
Si 11.9645 15.9173 2.18822
Si 12.173 8.56134 0.955848
Si 9.5075 9.61507 2.03342
Si 15.0099 15.6365 2.64831
O 11.3195 10.8977 7.32719
O 15.4923 9.19317 7.65066
O 10.6395 8.59077 1.52869
O 0.895659 15.5852 3.60105
O 12.2374 8.65519 16.3309
O 0.417121 15.4328 1.31469
O 9.64985 10.9874 1.22743
O 14.9951 17.2102 2.32215
O 10.4743 15.2065 2.39023
O 15.232 10.8553 1.57087
O 11.598 16.9643 3.28642
O 13.4358 15.5276 2.52234
Si 13.4594 2.31782 7.85931
Si 3.44284 0.852532 8.5243
Si 0.522671 6.31838 9.37159
Si 5.74282 1.78915 10.3167
Si 14.1829 17.3979 7.12239
Si 3.35567 5.58204 9.22291
O 15.1407 5.1997 10.1458
O 5.67873 0.505464 11.0816
O 2.42924 1.50185 9.7007
O 6.27047 7.59184 9.04472
O 0.549151 14.9034 9.12817
O 4.33418 5.13728 8.15626
O 14.3736 1.09947 7.50861
O 1.97526 6.02195 9.8938
O 3.27658 4.13459 10.0646
O 6.90223 2.15734 9.27478
O 0.485038 7.95486 9.73549
O 5.28845 3.04767 11.4041
Si 5.16875 5.08889 6.65655
Si 6.74175 1.71037 5.93191
Si 5.67114 8.61718 10.1478
Si 9.07833 4.85406 9.58535
Si 8.12904 2.24771 8.452
Si 7.8104 7.37645 8.32032
O 4.39273 5.94603 10.8616
O 9.89777 17.1384 13.2342
O 8.73522 3.6329 8.79241
O 8.84956 8.26159 9.16329
O 7.45372 2.62987 7.04184
O 7.97464 5.92542 9.29458
O 9.26545 4.29207 5.29427
O 8.80011 6.31017 6.66016
O 7.18948 8.70015 6.96412
O 10.5381 5.48862 9.31906
O 6.46289 9.97523 9.55418
O 8.91751 4.37618 11.145
Si 11.9808 4.97381 3.26756
Si 12.6004 17.8268 4.44094
Si 9.61444 9.78184 9.50268
Si 1.13197 1.73038 10.7092
Si 10.8829 1.31177 6.60271
Si 15.4712 6.18777 6.24878
O 10.7984 9.61635 10.392
O 11.5775 16.6332 10.9927
O 11.9676 2.27118 7.36836
O 0.567876 5.74967 7.7459
O 11.3247 17.7828 7.16904
O 13.6809 3.0895 9.12518
O 9.56407 1.55207 7.69873
O 13.8497 11.7817 8.74757
O 13.8988 5.79445 6.59329
O 13.3294 16.5429 8.24573
O 9.25264 10.8669 8.29288
O 0.236693 2.90329 10.4286
Si 14.0669 12.8319 7.54325
Si 2.95334 9.42896 4.93124
Si 13.2575 13.9015 11.2217
Si 4.00786 14.3272 10.2839
Si 0.597789 9.41991 9.09597
Si 1.19918 16.419 8.13211
O 5.7111 14.9478 14.3524
O 2.00264 9.97392 9.14502
O 4.17463 10.8516 8.00096
O 1.72771 15.0476 7.23777
O 2.03232 8.7479 6.50336
O 2.86509 14.9161 4.99066
O 0.163964 13.0738 7.45446
O 2.56575 17.3856 8.2436
O 14.5451 14.418 11.9567
O 3.06855 14.4037 9.08723
O 0.068185 16.6509 7.13767
O 3.02179 11.8214 13.4849
Si 4.13061 14.0272 4.73879
Si 6.96792 9.73233 5.70777
Si 6.51219 15.373 8.60877
Si 10.7426 12.1639 8.16632
Si 4.57706 11.358 6.57315
Si 7.87271 16.6085 6.33504
O 5.4657 14.3798 9.48919
O 8.4825 10.1737 10.747
O 11.2736 11.2841 4.99963
O 11.5904 0.950901 5.07217
O 6.03894 10.7029 6.52408
O 8.68081 15.3156 5.46531
O 4.29631 12.984 6.15553
O 7.49883 0.382314 6.12895
O 6.80177 15.7943 7.04049
O 9.95215 12.8286 9.24856
O 6.38391 16.57 9.67622
O 9.80531 12.7885 7.05214
Si 9.69391 13.8973 5.84096
Si 0.469897 9.17735 6.09549
Si 10.6851 16.2104 7.3078
Si 14.0618 11.1308 10.1251
Si 12.3209 10.7575 6.05325
Si 12.4298 16.3344 9.6483
O 9.04402 16.2391 7.46025
O 13.3448 9.35577 10.1108
O 1.3184 10.077 4.78465
O 13.066 15.0165 10.0372
O 13.3527 11.9118 6.45563
O 2.56515 17.4949 4.07923
O 10.8774 14.7953 6.38229
O 13.5928 17.4677 5.51759
O 11.1013 15.6744 8.78565
O 0.169271 11.0463 10.2998
O 11.3794 1.07482 15.4477
O 13.2893 12.304 10.9742
Si 14.3743 3.68672 10.4366
Si 6.71283 0.804846 15.6518
Si 1.82961 6.88673 15.9728
Si 4.27777 2.27439 1.70925
Si 4.11702 2.56287 15.559
Si 3.69594 5.13347 14.2448
O 0.600185 5.71959 16.2307
O 6.35111 17.1121 15.809
O 4.44819 2.18863 0.185595
O 4.84851 6.07341 14.5702
O 2.02767 2.06931 11.9355
O 3.63873 4.53632 12.7993
O 0.590063 0.858057 13.4347
O 4.15833 9.04929 9.60391
O 2.93438 5.70806 15.4943
O 6.5366 16.178 12.1255
O 1.17814 8.3035 15.6301
O 4.09487 5.90988 1.49579
Si 4.22954 4.18925 11.4668
Si 5.57495 16.7496 11.0686
Si 6.43529 6.71675 15.1109
Si 11.6205 2.70509 15.1867
Si 8.78438 2.66593 14.5059
Si 7.84157 7.94147 12.6621
O 7.43056 5.77183 15.7521
O 10.0833 0.760633 0.740792
O 8.32174 1.32162 14.8524
O 9.21954 8.01396 13.5486
O 10.3462 2.73717 14.2061
O 7.86092 6.46357 11.9671
O 5.47674 1.80987 14.917
O 6.74786 8.35158 11.5123
O 6.89576 7.33138 13.7688
O 12.6487 2.57862 13.8746
O 4.39732 3.61651 2.67572
O 8.85846 3.92354 15.7813
Si 8.36627 5.02196 12.688
Si 11.1699 17.2006 12.4018
Si 9.9607 6.81251 14.4294
Si 14.979 17.7594 12.4156
Si 12.673 2.02648 12.2629
Si 11.8595 6.5569 9.30707
O 9.57866 6.02164 15.7857
O 14.7574 1.10885 15.611
O 14.535 17.216 14.3624
O 4.70014 3.98479 15.2857
O 12.3233 16.7329 13.3952
O 11.7048 7.39168 8.34677
O 9.80107 5.64019 13.3723
O 11.8908 7.43592 10.6592
O 13.3674 3.23653 11.5103
O 13.9094 0.951222 12.471
O 11.534 6.9231 14.6388
O 0.240833 0.498223 11.1441
Si 0.122653 13.9557 13.1094
Si 3.50819 10.5656 9.3979
Si 2.08633 15.5195 14.8493
Si 4.09793 11.9222 11.9868
Si 1.53477 11.4399 13.3483
Si 3.41041 1.49737 12.7711
O 1.98261 14.8907 16.3776
O 0.853624 10.9206 14.7369
O 5.67693 11.4742 11.3332
O 2.99448 0.200295 12.9841
O 1.20567 10.1952 12.3657
O 8.30675 3.70138 13.376
O 0.726104 12.6358 12.7396
O 4.43941 15.7812 10.7909
O 1.49133 14.8053 13.467
O 8.9203 13.1896 11.3623
O 3.2909 2.27462 14.2586
O 3.72739 13.1221 11.094
Si 1.56713 13.7226 8.35019
Si 7.16107 11.0391 10.6949
Si 7.0463 15.115 13.4492
Si 9.15565 10.882 15.0026
Si 8.60297 13.499 9.76601
Si 9.36082 16.5814 14.6623
O 4.43205 13.137 1.33062
O 10.3696 15.1154 14.3176
O 7.87605 13.7728 13.4759
O 9.13733 12.1647 16.199
O 7.42623 12.5771 9.79351
O 8.00323 14.7173 8.92118
O 3.26478 10.7631 11.1075
O 11.3787 1.07496 12.3536
O 8.04031 16.0469 14.1378
O 10.5868 10.5153 15.1037
O 8.49344 16.6625 0.984773
O 8.2401 9.69448 15.52
Si 11.739 14.732 13.6854
Si 12.1851 9.0024 11.0751
Si 11.1733 0.150684 16.7957
Si 13.9072 10.962 0.631069
Si 11.9193 10.3268 14.0301
Si 13.5028 12.781 15.0599
O 10.349 16.9024 16.0189
O 13.1358 9.79358 1.49651
O 12.6626 8.64394 13.9056
O 1.19626 16.8333 15.1175
O 11.8618 10.0162 12.4655
O 14.843 13.3762 14.4575
O 12.937 11.472 14.2486
O 12.1196 14.1052 12.3843
O 12.4544 13.8258 14.7507
O 14.5792 9.97344 16.4824
O 11.887 17.067 0.768686
O 13.6055 12.2048 16.6475
324
 Atoms. Timestep: 7000
Si 0.589192 5.01305 0.557255
Si 5.13685 15.9864 15.293
Si 5.05501 7.34792 5.06792
Si 3.99818 2.18112 6.17099
Si 2.31552 1.02771 3.67736
Si 4.39079 5.08147 3.10255
O 4.7823 6.12853 6.21469
O 4.59444 1.16049 9.50354
O 3.09072 1.78748 4.82043
O 6.03226 8.38839 15.9568
O 2.91962 1.27123 2.12365
O 2.90967 6.33057 3.69247
O 1.63724 5.45716 1.53998
O 2.50696 7.34908 0.546417
O 5.21057 6.42013 3.76134
O 5.25496 1.14658 6.27268
O 3.99022 8.39171 4.29297
O 4.63691 3.6532 5.89553
Si 2.50352 6.77071 2.05445
Si 7.98117 -0.0827656 1.08302
Si 8.19586 5.76586 5.81783
Si 9.28002 3.20802 4.85558
Si 6.0714 0.56533 3.33925
Si 8.85423 5.49227 2.81842
O 6.85877 5.00783 5.98371
O 6.55625 1.47136 4.46217
O 8.75613 3.7524 3.49964
O 12.0399 4.41249 1.8901
O 7.19699 -0.0560096 16.7149
O 9.05786 5.67824 1.30075
O 5.15622 1.5737 2.49073
O 7.70227 8.945 1.90223
O 8.36942 6.2044 4.19604
O 10.9812 3.42499 4.44378
O 6.70584 8.08562 5.1026
O 10.3376 5.4899 3.13947
Si 8.50021 5.62223 16.6779
Si 15.2235 17.5884 15.2612
Si 13.8031 4.85141 5.49678
Si 14.963 1.06629 2.54121
Si 14.9796 2.41182 16.9477
Si 12.6856 5.33299 0.802242
O 12.9302 4.96952 4.17965
O 13.8091 1.17132 3.82563
O 14.5186 2.14452 1.43979
O 12.8271 6.93244 1.29977
O 13.4915 2.93418 16.3664
O 0.800486 3.5837 17.026
O 14.3156 5.04749 0.373974
O 12.1541 5.76948 16.429
O 15.6073 5.52156 5.14112
O 0.815556 1.30728 3.43911
O 15.4938 7.9152 5.1072
O 13.881 4.19919 6.95769
Si 1.62129 14.5741 0.681787
Si 0.825666 10.1162 15.7227
Si 2.39883 15.651 3.32841
Si 4.16246 12.1713 1.86714
Si 1.33087 11.5983 1.20519
Si 4.58583 15.2141 1.20771
O 13.1875 14.1442 7.14262
O 3.35425 10.7589 5.24078
O 2.64137 11.587 1.95169
O 5.81987 15.7612 2.03911
O 1.74437 10.7696 16.9158
O 3.46967 16.403 14.964
O 1.28923 13.1262 0.69035
O 4.90866 15.5053 16.7818
O 3.24418 15.9386 1.81052
O 5.31675 11.2343 2.22471
O 3.29856 1.51435 7.2825
O 4.07013 12.7004 3.55837
Si 9.24492 12.9129 13.0785
Si 7.50225 9.09372 16.8059
Si 6.58625 15.6109 3.43548
Si 9.61547 10.4515 4.92932
Si 6.69187 10.5333 2.05015
Si 9.10109 15.1554 2.00478
O 5.8711 14.3393 4.26187
O 8.27466 10.0535 5.52283
O 7.65976 11.7973 1.68827
O 10.062 13.7452 4.27607
O 6.5694 10.2566 0.132527
O 9.14262 13.8296 1.10429
O 9.29547 11.349 13.7724
O 7.28591 0.646192 2.26706
O 8.13849 15.0423 3.41233
O 9.71834 9.72847 3.48345
O 5.96506 16.9294 3.99776
O 9.01939 11.6916 3.94031
Si 8.77455 12.1956 0.694301
Si 12.547 7.33049 15.3461
Si 12.0417 16.384 2.19059
Si 12.2055 8.55848 1.01946
Si 9.55999 9.55806 1.7685
Si 15.0368 15.86 2.15023
O 11.2334 10.8447 7.25119
O 15.5047 9.61111 7.21152
O 10.8187 8.63767 1.74816
O 0.849051 15.5779 3.07886
O 11.6937 8.11068 16.4609
O -0.0106822 15.5468 0.44661
O 9.76909 11.2778 1.36928
O 15.1518 17.4629 1.88368
O 10.5798 15.5666 2.29621
O 15.1972 11.0978 1.21346
O 12.4538 16.9975 3.50817
O 13.4438 15.5701 1.69928
Si 13.2276 3.04689 7.72722
Si 3.19517 0.823831 8.75142
Si 0.648137 6.11574 9.28441
Si 5.94079 1.56911 10.1596
Si 14.1906 0.26232 7.49885
Si 3.48458 4.82736 9.45084
O 15.1474 5.14057 10.1388
O 6.32698 0.294443 11.2496
O 2.07098 1.59431 9.6356
O 6.73798 7.65262 9.63103
O 0.990733 15.5925 9.52061
O 4.56283 4.99569 8.23274
O 14.0869 1.80358 7.4625
O 2.0288 5.45235 9.3775
O 3.2355 3.79842 10.6119
O 7.4767 1.76254 9.70388
O 0.248011 7.69278 9.44132
O 5.58749 3.14794 10.8366
Si 5.47714 4.77331 6.82736
Si 6.9563 1.57845 6.04454
Si 5.67395 8.61337 10.5777
Si 9.38096 4.8209 9.593
Si 8.49417 2.0475 8.67002
Si 7.71973 7.29125 8.36441
O 4.79322 5.65612 10.6975
O 10.1575 16.9967 13.1698
O 9.00921 3.65256 8.57485
O 8.98563 8.19293 9.12254
O 7.29482 2.56391 7.32165
O 8.26891 5.92076 9.09354
O 9.13273 4.37172 5.7536
O 9.00679 6.70712 6.71128
O 7.41416 8.59705 7.28529
O 10.666 5.74341 9.39194
O 6.47331 9.99129 9.96497
O 8.74162 4.47838 11.0267
Si 11.5989 4.30198 3.34876
Si 13.0305 0.275045 4.71435
Si 9.29587 9.73764 9.71542
Si 1.14507 1.66488 10.9835
Si 10.7783 1.42191 6.39682
Si 15.449 6.85235 6.4032
O 10.6835 9.77358 10.4139
O 12.3195 17.252 10.7948
O 11.8436 2.54013 6.98284
O 0.22497 5.9775 7.69207
O 11.3751 17.9012 7.13987
O 13.4254 3.31777 9.24378
O 9.61916 1.59425 7.62642
O 13.7984 11.7929 8.24928
O 13.4525 6.43105 6.15123
O 13.5423 17.0393 8.3248
O 9.17265 10.7375 8.42152
O 0.137632 2.85026 10.4894
Si 14.107 12.842 7.19396
Si 2.67629 9.57342 4.46245
Si 13.8683 13.8295 11.2303
Si 3.72853 14.3476 9.61145
Si 0.367625 9.069 8.70799
Si 1.30858 16.5171 7.92055
O 6.11709 14.8321 14.5255
O 1.86571 9.5007 9.2459
O 3.957 10.5225 7.61244
O 1.6173 15.0152 7.17533
O 2.07997 8.93198 5.97179
O 3.30256 14.9651 4.50706
O 15.2385 13.5894 8.02567
O 2.61251 17.2969 8.7311
O 15.1629 14.0527 12.0312
O 2.61984 13.5826 8.77226
O 0.246329 17.6516 7.45518
O 3.03482 11.5777 12.3066
Si 4.44915 13.8532 4.60428
Si 6.84477 9.42463 6.06118
Si 6.49444 14.924 8.61517
Si 10.1488 11.9366 7.95373
Si 4.35234 11.2821 6.26887
Si 7.84253 16.6188 6.51953
O 5.50836 14.1023 9.33325
O 8.31244 10.254 11.2272
O 11.299 11.0841 4.83737
O 11.7826 1.20409 5.02055
O 5.72403 10.5162 5.99939
O 8.385 15.2008 5.91195
O 4.79021 12.9721 5.98265
O 7.41379 0.231459 6.46599
O 6.56553 15.9839 7.43192
O 10.0504 12.8622 9.21309
O 6.3679 16.0002 9.85625
O 9.26106 12.6016 6.61115
Si 9.32027 13.9871 5.81994
Si 0.243891 9.58091 5.69726
Si 10.7555 16.3725 7.34107
Si 13.838 11.1864 9.72087
Si 12.2578 10.726 6.06199
Si 12.7357 16.3457 9.58633
O 9.23151 16.6089 7.46766
O 12.959 10.289 10.7226
O 0.98329 10.1909 4.40765
O 13.3162 14.9194 10.2255
O 13.0652 12.1449 6.14861
O 2.43171 17.2493 3.66575
O 10.5188 14.6423 6.75571
O 13.7146 17.6348 6.01321
O 11.4974 15.9846 8.82992
O 15.1236 10.1913 9.59498
O 11.6034 1.06298 15.9609
O 13.903 12.4231 10.694
Si 14.452 3.76295 10.4923
Si 6.57839 0.884279 15.4402
Si 1.83916 7.16982 16.0402
Si 4.03264 2.41989 1.71194
Si 4.08923 2.74013 15.6622
Si 3.61619 5.30403 14.249
O 0.535703 6.34782 16.6087
O 5.47989 17.6184 15.2971
O 3.61079 2.57208 0.305047
O 5.34341 6.10737 14.3854
O 2.29163 2.12093 12.1185
O 3.82106 4.69048 12.8003
O 0.627868 0.239424 13.6049
O 4.42601 8.86586 9.55249
O 2.93479 6.30497 15.1506
O 5.95979 15.7563 12.1848
O 0.938967 8.56385 16.0375
O 4.10182 5.91448 1.73394
Si 4.83579 4.16895 11.6881
Si 5.26118 16.7754 10.942
Si 6.32004 6.98256 15.1072
Si 11.9583 2.56088 15.4618
Si 8.79104 2.68611 15.247
Si 7.70641 7.58347 12.5313
O 7.05903 6.02501 16.1677
O 9.37212 0.579557 0.619906
O 7.97018 1.55907 14.8325
O 9.41474 7.70483 13.0801
O 10.3919 2.91414 15.1564
O 7.63129 5.95711 12.627
O 5.67892 2.17435 16.0142
O 6.58126 8.43972 11.7528
O 7.04923 7.87158 14.0362
O 12.768 2.62057 14.1452
O 3.63938 3.78596 2.53692
O 8.27356 3.90336 16.1942
Si 8.7149 4.57325 12.5755
Si 11.3509 17.2301 12.1477
Si 10.0047 6.55563 14.1871
Si 14.8257 17.8299 12.4567
Si 12.8459 2.14314 12.6501
Si 11.8575 6.76613 9.37263
O 9.43147 6.04347 15.5854
O 15.1573 1.2231 15.9804
O 14.0827 17.1215 13.9563
O 4.09442 4.20161 15.466
O 12.2245 16.1017 12.8344
O 11.4975 7.8851 8.55526
O 10.1369 5.25395 12.8413
O 12.067 7.8425 10.7305
O 13.374 3.36187 11.6084
O 14.2579 1.41794 12.5998
O 11.5821 6.95764 14.2689
O 0.326029 0.305379 11.0116
Si 0.47822 13.7576 13.3523
Si 3.36918 9.92765 8.87059
Si 2.03835 15.8607 15.1089
Si 4.16295 11.8735 11.212
Si 1.64359 11.0022 12.9556
Si 3.48023 1.6115 13.0137
O 2.20935 14.8091 16.269
O 0.991311 10.0885 14.1694
O 5.71679 11.7637 11.9562
O 3.93887 0.34013 12.7324
O 1.13139 10.2317 11.7801
O 8.47057 3.66514 13.9028
O 0.802941 12.2616 13.1049
O 4.00884 15.8802 10.4536
O 1.35973 14.9576 13.8219
O 9.58424 13.0446 11.4693
O 3.51425 1.95595 14.4875
O 3.83457 13.2479 10.6789
Si 1.05136 13.9845 8.87966
Si 7.01252 11.1732 11.0886
Si 6.9563 14.895 13.1479
Si 9.55669 10.701 15.1511
Si 8.88075 13.4572 10.0746
Si 9.42338 16.3369 14.3086
O 4.63954 13.4623 1.2352
O 9.78408 14.8082 14.1958
O 7.73227 13.2956 13.0512
O 9.11749 12.0611 16.1472
O 7.58594 12.3684 10.2003
O 8.1437 14.5579 8.97539
O 3.81284 11.0381 9.90136
O 11.9439 0.746162 12.7723
O 7.98669 15.9508 13.3417
O 11.16 10.5728 15.3265
O 8.492 16.4268 1.44336
O 8.4877 9.62857 15.595
Si 11.6465 14.5363 13.2181
Si 11.7623 9.29735 11.3527
Si 10.7302 17.7885 16.8846
Si 13.8705 11.1089 0.258181
Si 12.437 10.0677 14.2387
Si 13.4962 13.0738 15.0086
O 10.1903 16.7777 15.7221
O 12.79 9.94485 0.5152
O 13.1937 8.68405 14.4917
O 1.02278 16.9484 15.5064
O 11.435 9.62862 12.8805
O 14.7365 13.7378 14.2857
O 13.0944 11.6567 14.3662
O 12.438 13.7419 12.2109
O 12.4267 14.3934 14.8224
O 14.6752 10.473 15.9585
O 11.8722 17.3116 0.929071
O 13.6054 12.5716 16.4932
324
 Atoms. Timestep: 7500
Si 0.125909 5.15941 0.243601
Si 4.70639 16.4427 15.2607
Si 4.98799 7.16743 4.70256
Si 4.09771 2.25836 6.14153
Si 2.49737 0.876294 3.89188
Si 4.73049 4.75513 2.847
O 4.0237 6.15365 6.07136
O 4.88606 1.86159 9.22533
O 3.11393 1.86233 4.98719
O 6.24127 8.47051 16.7073
O 3.09821 1.12288 2.30809
O 2.82403 5.53747 3.04052
O 1.44885 5.29348 1.30135
O 2.77302 7.01112 17.0433
O 5.12222 5.95798 3.71793
O 5.5575 1.79525 5.85895
O 3.92497 8.15461 3.9975
O 4.21781 3.77483 5.94613
Si 2.74981 6.26096 1.51382
Si 8.33454 17.8863 0.53712
Si 7.76255 5.49081 5.57894
Si 8.98734 3.1655 4.25418
Si 6.56248 0.522567 2.83872
Si 8.13929 5.59162 2.65574
O 6.34973 4.84658 5.9141
O 6.88785 1.15432 4.22869
O 7.97726 4.02626 2.95711
O 12.3109 4.75117 2.10577
O 7.09398 0.241633 16.6753
O 8.14988 5.99154 1.13398
O 5.64595 1.5734 1.88922
O 7.62091 9.25458 1.61439
O 7.6666 6.07307 4.08709
O 10.399 3.5322 3.52423
O 6.16548 8.02906 5.65159
O 9.74156 5.796 2.93418
Si 8.53209 5.84675 16.5027
Si 0.0167172 17.7258 15.7498
Si 13.1766 4.77689 5.32772
Si 15.1133 0.888706 2.86336
Si 14.9158 2.28493 0.198488
Si 12.9256 5.55983 0.858519
O 11.9072 5.16993 4.53053
O 13.8309 1.04276 3.92363
O 14.3686 2.01722 1.82205
O 12.032 6.92838 1.27546
O 13.5586 2.41627 16.301
O 15.4511 3.68792 16.9942
O 14.6349 6.03709 1.38815
O 13.0793 6.25082 16.4223
O 15.1693 4.94793 4.88344
O 0.770786 0.853463 3.97913
O 15.3917 7.61851 5.69549
O 13.3483 3.91017 6.49411
Si 1.39592 14.6936 0.947994
Si 0.935091 10.1843 15.6059
Si 2.60314 15.9461 3.47002
Si 4.19579 12.3366 1.72081
Si 1.29718 11.7349 1.17513
Si 4.38385 15.1802 0.819089
O 12.9666 13.8298 7.32354
O 3.66079 10.411 5.19547
O 2.7903 11.4705 1.76597
O 5.68087 15.1148 1.63005
O 1.97352 10.8609 16.8249
O 3.24333 15.7767 14.9435
O 1.1803 13.2058 1.30493
O 4.45942 16.5879 16.9976
O 3.31263 15.8563 2.03298
O 5.25307 11.181 2.1264
O 3.34213 2.20584 7.43971
O 3.92419 13.0779 3.08087
Si 9.01688 13.4259 13.3913
Si 7.34572 9.43228 16.8618
Si 6.51703 15.2291 2.91691
Si 9.3785 10.4432 4.98979
Si 6.91934 11.1492 2.01183
Si 9.42162 15.218 2.23768
O 5.57779 14.6177 4.15055
O 7.89072 9.68932 5.2013
O 8.00886 12.2926 1.65306
O 9.8521 13.4557 4.51928
O 6.71217 11.0865 0.286809
O 9.56787 13.9436 1.0392
O 8.96813 11.7935 13.8266
O 7.90126 0.415256 1.96996
O 8.04507 15.1207 2.82635
O 9.65999 9.80594 3.6033
O 6.2721 16.9185 3.36036
O 8.67279 11.7806 4.40889
Si 9.34945 12.4348 0.865933
Si 12.7399 7.52631 15.264
Si 11.9166 16.9795 2.12716
Si 12.0248 8.52077 0.906334
Si 9.49479 9.65452 2.09758
Si 14.8521 15.9062 2.41844
O 11.266 11.0528 7.76897
O 15.4198 9.26658 7.2716
O 10.6552 8.76547 1.48937
O 0.939374 15.7606 3.19158
O 11.6663 8.23556 16.4587
O 15.3221 15.1317 0.90929
O 9.99918 11.2896 1.72441
O 14.9591 17.4666 1.95614
O 10.7485 15.9118 2.36728
O 15.3509 11.2868 1.14027
O 12.0426 17.5556 3.54016
O 13.2769 15.8984 2.20058
Si 13.3875 3.14772 7.85543
Si 3.3367 1.49033 8.94674
Si 0.626932 6.1124 9.22885
Si 6.17063 1.66153 10.1932
Si 14.4273 0.271594 7.26057
Si 3.51857 5.23921 9.55307
O 15.0507 5.46083 10.2691
O 5.60782 0.268434 10.9274
O 2.21396 1.66294 9.91412
O 6.36569 7.49539 9.17733
O 0.953628 16.1837 8.87674
O 4.19287 4.90046 8.20972
O 14.38 1.84882 7.48623
O 1.93645 5.47288 9.58677
O 3.45199 3.87505 10.5732
O 7.42498 2.16247 9.39484
O 0.381749 7.70836 9.53096
O 5.73052 3.04714 11.2621
Si 4.98715 4.89928 6.75359
Si 7.21496 1.28686 5.7051
Si 5.67704 8.18364 10.4064
Si 9.49572 4.83296 9.47277
Si 8.56312 2.21925 8.33029
Si 7.88495 7.33368 8.61003
O 5.04904 5.48511 10.2829
O 10.0527 16.8707 12.7214
O 8.9517 3.6784 8.34182
O 8.7325 8.21507 9.67742
O 7.83932 1.9433 6.95386
O 8.25381 5.85368 9.09354
O 8.80845 4.27601 5.23094
O 8.25558 6.41837 6.66382
O 7.50238 9.00714 7.64963
O 11.0575 5.35715 10.0113
O 6.66167 9.4203 10.463
O 9.10729 4.073 10.8593
Si 11.1694 4.73771 3.08418
Si 12.8196 0.284023 4.75357
Si 9.46734 9.461 10.1594
Si 1.30307 1.77752 11.2241
Si 11.1887 1.14499 7.12724
Si 15.4173 6.14678 6.07411
O 10.7702 9.9367 10.6936
O 11.9562 17.2192 10.4973
O 12.0573 2.21604 8.05515
O 0.0668525 5.91159 7.68928
O 11.462 17.6248 7.24143
O 13.7558 3.56152 9.31489
O 9.88512 1.48347 8.12268
O 13.8485 11.8836 8.66506
O 13.5182 6.16004 6.13231
O 13.8305 17.3872 8.42804
O 8.93975 10.6281 8.86119
O 0.220389 2.7273 10.766
Si 14.0769 12.7002 7.28661
Si 2.78083 9.14261 4.53215
Si 13.8575 14.1076 10.9512
Si 3.47947 14.6644 9.50321
Si 0.628828 8.99581 8.59964
Si 1.73039 17.3605 7.70881
O 5.75761 15.1279 14.8196
O 2.0203 9.65754 8.38083
O 4.25516 10.38 7.53902
O 1.47477 15.4949 6.61865
O 1.94572 9.04806 6.09305
O 3.16478 14.8335 4.35229
O 15.4185 13.5627 7.55947
O 3.2076 17.83 8.34349
O 14.8743 14.3124 12.28
O 2.34913 14.0617 8.29849
O 0.419042 17.8715 7.13542
O 3.26013 10.9253 11.9508
Si 4.33108 13.7979 4.49707
Si 6.84678 9.29997 6.27698
Si 6.33833 14.8625 8.95494
Si 9.95765 11.7472 8.3693
Si 4.65814 11.2193 6.17635
Si 7.91236 16.2376 6.59533
O 4.84401 14.2582 8.64336
O 8.54447 9.97529 11.652
O 11.0126 11.0592 5.16339
O 12.0197 1.43885 5.72616
O 5.95354 10.4214 5.82741
O 8.3461 14.9248 5.7573
O 4.63863 12.6153 5.5634
O 7.22744 17.6668 6.1987
O 6.96345 15.3329 7.54891
O 10.0231 12.7533 9.91269
O 6.09513 16.1003 9.76486
O 9.38152 12.8883 7.41766
Si 9.47741 13.7231 6.03454
Si 0.258303 9.10727 5.73023
Si 10.762 16.0854 7.34827
Si 14.3442 11.3283 10.0566
Si 12.011 10.7274 6.49122
Si 12.9362 16.4684 9.39938
O 9.21785 16.4086 7.37686
O 13.1948 10.2882 10.5438
O 1.09844 9.43913 3.86486
O 14.208 15.8455 10.5419
O 13.2244 11.7468 6.24364
O 3.01969 17.2272 4.31414
O 10.8662 14.5709 6.60917
O 13.7526 17.4575 5.89966
O 12.0899 15.51 8.44624
O 15.324 10.2514 9.47366
O 11.8509 0.9214 15.5611
O 14.1426 12.6348 10.8276
Si 14.5812 4.00777 10.6059
Si 6.64732 0.914079 15.4026
Si 1.92477 7.26212 15.7233
Si 4.17229 1.92086 1.57404
Si 4.39832 2.89532 15.9063
Si 3.54438 5.21549 14.2647
O 0.611138 6.26839 16.4034
O 5.42033 17.9187 14.7155
O 3.50505 2.28405 0.112399
O 4.8904 6.14484 14.5682
O 2.0901 2.12952 12.5018
O 3.93643 4.65245 12.882
O 0.835992 0.514094 14.3746
O 4.18037 8.54927 9.70003
O 2.33021 6.29141 14.3739
O 6.07455 16.2767 12.3072
O 1.48564 8.72906 15.7697
O 4.51793 5.71411 1.36532
Si 4.8667 4.23863 11.7716
Si 5.13648 16.651 11.0003
Si 5.92464 7.1194 15.545
Si 12.1097 2.49093 15.5466
Si 9.14073 3.14747 15.4739
Si 7.145 6.6002 12.9487
O 6.87885 6.04141 16.0567
O 9.84361 0.497279 0.145323
O 7.94646 2.00167 15.4162
O 8.80014 7.59791 13.1325
O 10.7033 2.92388 15.3569
O 7.87059 5.3533 12.5064
O 5.64749 2.11828 16.0259
O 6.29754 7.56812 11.8189
O 6.61074 7.52382 14.1876
O 12.6987 2.94649 14.0577
O 4.19204 3.41763 2.38396
O 8.85078 4.39624 16.3836
Si 8.99364 4.22382 12.4889
Si 11.4318 17.4445 12.0391
Si 9.83456 6.7468 13.9391
Si 15.0472 0.0396627 13.0851
Si 13.0249 2.21767 12.6813
Si 12.1508 6.68813 9.67884
O 9.21362 6.49174 15.2985
O 15.337 0.959623 16.6428
O 14.1829 17.6961 14.6851
O 3.48391 4.25892 15.5891
O 12.2566 16.2218 12.9681
O 11.8075 7.18403 8.50252
O 10.1384 5.41896 13.1164
O 12.4466 7.85729 11.0457
O 13.4688 3.43047 11.6606
O 14.3448 1.49282 13.197
O 11.4547 6.99669 14.3783
O 0.501198 0.615326 11.8641
Si 0.338145 13.3262 13.2822
Si 3.60467 9.81991 8.82985
Si 1.80474 15.103 15.0457
Si 3.97305 12.0404 10.9522
Si 1.9865 10.9099 12.8352
Si 3.52961 1.63209 13.2602
O 1.79791 14.6543 16.5988
O 1.45385 10.5619 14.1937
O 5.44135 11.4932 11.436
O 3.13125 0.284863 13.3291
O 1.03742 9.91415 12.0226
O 8.83905 3.56407 13.8849
O 1.08964 12.287 12.3814
O 3.73516 15.8475 10.6994
O 1.65676 14.2871 13.784
O 8.9176 13.7048 11.7991
O 3.55777 1.74558 14.9102
O 3.37939 13.495 10.4978
Si 0.947234 14.7017 7.9544
Si 7.06439 10.758 11.3058
Si 6.69627 15.2444 13.4748
Si 9.2592 11.0317 15.2164
Si 8.37965 13.3411 10.4604
Si 9.53591 16.2957 14.096
O 4.20311 13.5843 0.737196
O 10.4643 14.4537 14.4567
O 7.52582 13.7871 13.9285
O 9.70106 11.9956 16.4511
O 7.61529 11.8137 10.2821
O 7.74807 14.3522 9.47464
O 3.82293 11.0758 9.74672
O 12.0471 0.948509 12.4576
O 7.9439 16.3498 14.3328
O 10.5223 10.2157 14.8312
O 8.91339 16.3488 1.21175
O 8.09525 9.99398 15.6265
Si 11.7386 14.5601 13.0549
Si 12.2063 9.41291 11.2677
Si 11.0902 17.7458 16.4027
Si 14.1084 10.9406 0.241181
Si 12.2449 10.2193 14.1992
Si 13.4604 12.8733 14.9113
O 10.346 17.1461 15.0238
O 13.0438 9.7627 0.694684
O 13.0839 8.93053 14.7108
O 0.566826 16.1727 15.0902
O 11.8659 9.54168 12.8632
O 14.8586 12.5226 14.2644
O 12.5705 11.7999 14.2337
O 12.3464 14.1707 11.3966
O 13.1275 14.0806 13.7397
O 14.9565 10.1555 16.0417
O 11.9464 17.1923 0.631595
O 13.7362 12.2547 16.4301
324
 Atoms. Timestep: 8000
Si 0.265603 4.9203 0.347497
Si 4.37455 16.5041 15.6408
Si 4.74772 7.06481 4.729
Si 3.99133 2.28422 6.11812
Si 2.27089 1.08043 3.63835
Si 4.81784 4.79429 2.68706
O 4.81131 6.44806 6.14816
O 4.65468 0.911002 9.11373
O 3.20562 1.59853 4.93384
O 6.51641 8.29966 16.4377
O 2.96662 1.26303 2.27699
O 3.15267 5.18586 2.87323
O 1.81469 4.7646 0.930231
O 2.458 7.14778 0.0794263
O 5.36576 6.04646 3.48278
O 5.24505 1.23296 6.2813
O 3.51038 7.90707 4.11063
O 4.33744 3.91978 6.00437
Si 2.89191 6.0774 1.25211
Si 8.51866 0.111731 0.74474
Si 8.12023 5.27985 5.74906
Si 8.65601 3.32149 3.58819
Si 6.75162 0.27422 3.14536
Si 8.25246 6.18684 2.82908
O 6.50741 5.04835 6.3795
O 7.07033 0.93879 4.50572
O 8.01052 4.58146 2.60145
O 11.7509 5.47174 1.70648
O 7.63733 0.630248 16.8272
O 8.42091 6.38368 1.01133
O 5.42541 0.917149 2.49336
O 7.79621 9.6956 1.78496
O 7.87759 6.13144 4.37539
O 10.1676 3.88173 3.77051
O 6.13708 8.16967 4.89078
O 9.92979 6.2095 3.16092
Si 8.35064 5.42143 16.7108
Si 15.5795 0.0115011 15.734
Si 12.6288 4.50617 5.62456
Si 15.1785 1.35355 2.91368
Si 14.5529 2.32403 0.16381
Si 12.9248 5.69024 0.643231
O 12.3457 5.26101 4.07222
O 13.6912 1.59708 3.7232
O 14.9042 1.47534 1.41914
O 13.1317 7.33066 1.03381
O 13.1037 3.04462 16.7508
O -0.0731083 3.65264 16.6285
O 14.3023 5.05282 0.942877
O 12.7688 6.17338 16.2111
O 14.3795 4.09397 5.09833
O 0.780137 2.12926 3.37951
O 0.266797 6.75459 5.53419
O 12.5744 3.50787 6.94398
Si 1.38163 14.743 1.00264
Si 1.3072 10.2574 15.7974
Si 2.17909 15.9613 3.74151
Si 3.8913 12.1541 1.8879
Si 0.899299 11.8746 1.32015
Si 4.41926 14.7675 0.830071
O 13.3346 13.6485 7.48377
O 4.11005 9.95449 4.8562
O 2.36183 11.4716 1.89167
O 5.60568 14.8687 1.75355
O 1.27686 11.7271 16.8898
O 3.15978 15.6823 15.1077
O 0.832972 13.3832 1.59725
O 4.25077 16.0813 0.0249843
O 2.84919 15.3758 2.18413
O 5.35964 11.8623 1.57025
O 3.06605 1.98217 7.2955
O 3.85787 13.1312 3.28569
Si 8.96266 13.7944 13.4422
Si 7.59346 9.39046 16.8298
Si 6.53385 15.0729 3.15759
Si 9.97657 10.3781 5.00488
Si 6.89477 11.1672 1.69685
Si 9.41112 15.2753 1.89061
O 5.67827 14.2772 4.18737
O 8.42225 9.64014 5.7118
O 7.82763 12.4247 1.03137
O 10.1018 13.145 4.6608
O 6.59913 10.6895 16.9534
O 9.7544 13.9664 0.878401
O 9.63898 12.406 14.0231
O 7.85965 0.431956 2.08759
O 8.06319 14.865 2.41444
O 9.53143 9.94956 3.63844
O 6.46567 16.6256 3.56274
O 9.17365 11.8592 5.03356
Si 9.35688 12.5352 0.410035
Si 12.7911 7.52937 15.3268
Si 12.1223 16.863 2.0536
Si 12.161 8.67636 0.922583
Si 9.73582 10.1329 2.02704
Si 15.0472 16.0654 2.77904
O 11.7113 11.6875 8.36537
O 0.162322 9.45684 7.17433
O 10.8792 9.25402 1.62877
O 0.624568 15.6446 3.85995
O 11.705 8.33304 16.4532
O 0.205182 15.8793 1.46701
O 9.92717 11.6767 1.80874
O 15.2836 17.6347 3.09151
O 10.8602 16.0667 2.2391
O 15.0239 11.3385 1.4039
O 12.09 17.9004 3.416
O 13.509 16.1527 2.41902
Si 13.2222 2.36279 7.94634
Si 3.06312 1.16689 8.69675
Si 0.436786 6.11238 9.00007
Si 5.64408 1.39075 10.2764
Si 14.6421 18.0669 6.98652
Si 3.54543 5.44855 9.78078
O 15.1671 5.03893 9.88851
O 6.06237 0.324458 11.2132
O 2.01382 1.07017 9.89775
O 6.35365 7.45637 9.07426
O 0.749815 16.1055 8.337
O 4.34006 4.95519 8.44632
O 14.5583 1.42635 7.61065
O 2.02457 6.05828 9.33858
O 2.96891 4.2557 10.6428
O 7.05597 1.54772 9.25422
O -0.0450515 7.55977 9.38373
O 5.28842 3.13651 10.768
Si 4.97046 5.12922 6.83478
Si 6.71448 0.815521 6.01816
Si 5.99627 8.45425 10.3188
Si 9.47027 4.83669 9.60711
Si 8.17796 2.19568 8.1945
Si 7.63391 6.9813 8.24355
O 4.97599 5.59903 10.626
O 10.5307 17.5817 12.7072
O 8.96723 3.52609 8.62425
O 8.79932 8.26777 9.08233
O 7.48218 2.13997 6.88394
O 8.32992 5.95647 9.45832
O 8.1141 3.76569 4.92726
O 8.47312 6.31226 6.9207
O 7.2765 8.23865 7.03139
O 10.6128 5.86055 9.40559
O 6.32139 10.2018 9.81575
O 9.28305 4.40306 10.9864
Si 11.0875 5.06998 3.18913
Si 12.6193 0.75427 4.48571
Si 9.3563 9.55619 9.73982
Si 1.41919 1.78907 11.11
Si 10.6985 1.25308 6.85564
Si 15.193 5.25732 6.12234
O 10.8558 9.25908 10.1231
O 12.829 17.2208 10.7103
O 11.9408 1.30334 8.01993
O 0.305438 5.28307 7.51968
O 10.9154 17.4753 6.72986
O 13.8893 3.09606 9.24629
O 9.3969 1.10536 7.87991
O 14.7278 11.814 8.26232
O 13.6422 5.67349 6.56307
O 14.3056 17.1882 8.36341
O 9.10529 10.9841 8.89624
O 0.38446 2.92495 10.6766
Si 14.3649 12.5494 6.84909
Si 2.88937 9.2808 4.37189
Si 13.6834 14.0003 11.0786
Si 3.46602 14.6899 10.1564
Si 0.623381 8.99723 8.84637
Si 1.75942 16.8252 6.99923
O 5.55733 15.3917 15.2739
O 2.3661 9.31343 8.71944
O 4.04577 10.5527 7.41221
O 1.71051 15.0358 6.56154
O 2.42313 8.42287 6.1117
O 3.28212 15.0953 4.54257
O 15.6412 13.5317 7.0174
O 2.82888 17.7406 7.94874
O 15.2507 14.4018 11.866
O 2.21478 14.153 9.42859
O 0.561875 17.8459 6.6618
O 3.03687 11.363 12.5895
Si 4.08599 13.8038 4.73007
Si 7.00052 9.13484 5.60461
Si 6.08181 15.1921 8.79474
Si 10.3283 12.2173 8.59634
Si 4.63071 10.9876 5.91956
Si 7.90693 16.1577 6.57265
O 4.61052 14.6005 9.12754
O 8.29987 9.92634 10.8324
O 10.8979 10.6692 6.18623
O 11.7962 1.60443 5.47403
O 6.1006 10.3789 5.92422
O 8.47558 14.6676 5.96441
O 4.6841 12.4898 5.37868
O 7.66489 17.7466 6.42698
O 6.48553 15.811 7.21004
O 9.51966 13.2963 9.55715
O 5.98966 16.2691 9.88541
O 9.8231 13.1564 7.34267
Si 10.0903 14.1372 5.99474
Si 0.758839 8.30997 5.85688
Si 10.5281 16.4665 7.90964
Si 14.65 11.21 9.91715
Si 12.2225 10.6398 7.07064
Si 13.4049 16.4548 9.45764
O 8.87961 16.2894 7.81875
O 13.2777 10.2212 9.86859
O 0.812624 9.10049 4.40014
O 13.7002 14.8777 9.65451
O 13.1458 11.6636 6.04018
O 2.26622 17.5107 3.83903
O 10.6891 15.1473 6.92898
O 13.8403 0.0117492 5.44879
O 12.0158 16.3542 8.67226
O 0.138968 10.1956 9.63745
O 12.0194 0.936113 15.6951
O 13.9543 12.5796 10.4991
Si 14.7075 3.6411 10.4666
Si 6.5844 1.00087 15.751
Si 1.48814 6.9383 15.7531
Si 4.34592 1.8996 1.86757
Si 4.07992 2.55416 15.9107
Si 3.64293 5.27111 14.4279
O 0.464117 5.91814 16.2183
O 5.58048 17.6803 15.9251
O 4.17678 1.90596 0.26573
O 4.60531 6.17518 15.2596
O 2.51496 1.89742 12.4569
O 4.22656 5.22124 12.9833
O 0.847741 0.682948 14.4963
O 4.32888 8.52069 10.0443
O 2.38136 6.07483 14.5382
O 6.20835 15.7941 12.4736
O 1.4466 8.58698 15.5777
O 4.25753 5.37706 0.810086
Si 4.48429 4.13781 11.8569
Si 5.58555 16.7573 11.4608
Si 5.85356 7.17036 15.6156
Si 12.0154 2.48172 15.7115
Si 8.83661 2.76378 15.0912
Si 7.14844 7.08262 12.8828
O 6.87851 6.00412 16.029
O 10.1336 0.296379 0.32169
O 7.67164 1.86902 14.7562
O 8.78989 8.03273 13.469
O 10.3303 2.72079 15.7381
O 7.47082 5.64959 12.5427
O 5.87354 2.37849 15.9906
O 6.49209 7.59849 11.5827
O 6.20011 7.44323 14.07
O 12.6207 3.00781 14.258
O 4.65856 3.40643 2.12333
O 8.18279 3.93115 16.0001
Si 8.87398 4.63497 12.5991
Si 12.0568 17.5824 12.2024
Si 9.79854 6.98988 14.4321
Si 15.1493 0.315189 13.0958
Si 13.1682 2.58366 12.8794
Si 12.3092 6.36398 9.72496
O 9.16541 6.18374 15.6083
O 14.4957 1.15633 16.0667
O 14.3566 17.5495 14.1034
O 3.93991 3.8955 15.3027
O 12.3304 16.366 13.0832
O 12.4481 6.96699 8.55664
O 9.90626 5.87826 13.222
O 12.3893 7.59011 10.9133
O 13.7216 3.33749 11.6909
O 14.4729 1.83841 13.4938
O 11.3253 7.27846 14.4499
O 0.449323 0.679565 11.8408
Si 0.0898433 13.7412 13.2038
Si 3.7982 9.91479 9.0248
Si 1.45433 15.5052 15.1712
Si 4.08103 11.7694 11.308
Si 1.54491 10.765 12.7268
Si 3.54661 1.00604 13.071
O 1.6489 14.7299 16.6365
O 1.70152 10.7755 14.4729
O 5.39689 10.9391 11.9226
O 3.08322 17.7252 13.1538
O 1.97793 9.18382 12.5706
O 9.17536 3.23507 13.4402
O 0.981815 12.4116 12.6993
O 4.02259 16.0485 11.0778
O 1.28408 14.7007 13.7357
O 9.08993 13.7348 11.8678
O 4.05746 1.77981 14.419
O 3.77036 13.3859 11.2222
Si 0.872082 14.4883 8.12309
Si 7.04524 10.7774 11.3503
Si 6.80127 15.7783 14.0569
Si 9.25635 11.068 15.0124
Si 8.07016 13.5798 10.3942
Si 9.61767 16.7862 13.7617
O 3.64549 13.3131 0.834469
O 10.128 15.2041 14.594
O 7.60078 14.278 13.9341
O 9.93727 11.7208 16.383
O 7.2196 12.2742 10.7448
O 7.13839 14.2363 9.38069
O 3.61059 11.0799 10.0145
O 12.4733 1.20115 12.2101
O 8.14962 16.8194 14.3857
O 10.4575 10.2809 14.3746
O 8.91463 16.3844 0.890889
O 8.57856 9.50266 15.5569
Si 11.7706 14.788 13.3845
Si 12.4302 9.19529 10.6377
Si 11.2834 17.5984 16.3718
Si 14.1863 10.7648 16.819
Si 12.0454 10.0787 13.5408
Si 13.1039 12.6237 14.8028
O 10.2768 17.5864 15.1791
O 13.1269 9.99041 0.523934
O 12.9688 8.97819 14.2878
O 0.659249 16.7059 15.629
O 12.1446 9.93172 11.9307
O 14.5511 13.2986 14.1819
O 12.7759 11.486 13.6561
O 12.5209 14.0302 12.2186
O 12.2556 13.9413 14.6383
O 15.3631 10.2635 15.7289
O 12.304 17.1126 0.428211
O 13.4371 12.0182 16.2654
324
 Atoms. Timestep: 8500
Si 0.260002 5.19791 0.199902
Si 4.52544 16.3531 15.8314
Si 4.82403 7.1242 4.414
Si 3.74892 2.11796 6.55679
Si 2.74887 0.767412 3.86927
Si 4.83555 4.7273 2.63976
O 4.91859 6.34937 5.81264
O 4.43802 0.975348 9.25764
O 3.0754 1.77165 5.03533
O 6.49481 8.31167 16.3527
O 3.0993 1.18391 2.46026
O 3.12148 4.97107 3.1836
O 1.50683 4.92065 1.09552
O 2.70313 6.96726 0.358316
O 5.31359 6.03979 3.24645
O 4.88694 0.707102 6.44094
O 3.42729 7.8096 4.13416
O 4.66828 3.39076 5.92448
Si 2.65953 6.08868 1.67161
Si 8.37031 0.650523 1.26233
Si 8.19604 5.24389 5.48517
Si 9.28637 3.25913 3.59482
Si 6.13244 0.177722 3.19999
Si 8.82103 5.90096 2.68362
O 6.61937 4.82293 6.00834
O 6.41405 1.02099 4.59574
O 8.83313 4.35894 2.53501
O 12.442 5.03571 1.70885
O 6.90597 1.06384 0.469171
O 8.58661 6.00966 0.941212
O 5.41348 1.10703 2.05564
O 8.00679 9.70948 1.19829
O 7.80347 6.06084 4.16581
O 10.8999 3.34141 3.30968
O 6.11787 8.09804 4.45494
O 10.4448 5.78932 2.88429
Si 8.45774 5.44901 16.6461
Si 0.277518 0.519385 15.5186
Si 12.9545 4.59335 5.8945
Si 15.0186 0.980716 2.87646
Si 14.4338 2.58633 0.219894
Si 12.8673 6.31197 0.697519
O 12.4244 4.86499 4.51798
O 13.7519 1.15373 4.09895
O 14.7462 1.92891 1.61887
O 12.3559 7.63973 1.3596
O 12.8298 2.87288 16.6336
O 15.3517 3.83967 16.9554
O 14.54 6.22706 0.745039
O 12.659 6.82286 16.2635
O 14.4802 3.81944 5.16276
O 0.875429 0.979604 3.60358
O 0.722346 6.52721 5.70479
O 13.4217 3.82308 7.37316
Si 1.58111 15.1977 0.808874
Si 1.0662 9.90714 16.0875
Si 2.61064 15.7406 3.47206
Si 4.04694 11.7182 2.45129
Si 1.59273 12.0017 0.875733
Si 4.58684 14.8251 1.39189
O 13.6275 13.7367 7.94509
O 3.5883 10.3752 5.65189
O 2.47938 11.8817 2.384
O 5.93327 14.908 2.06258
O 1.84952 10.3984 0.393901
O 3.29385 15.695 15.2249
O 1.26215 13.5679 1.30562
O 5.42476 15.1936 16.7843
O 3.62719 15.9151 2.32034
O 5.40977 11.3481 1.70286
O 2.79258 1.24798 7.38408
O 4.2938 12.299 3.94881
Si 8.73526 13.9232 13.424
Si 7.56595 9.5018 16.4135
Si 6.63302 15.1825 3.51395
Si 9.60897 10.5593 5.02477
Si 6.79557 11.6895 0.941835
Si 9.34562 15.4043 1.70037
O 5.47656 14.3464 4.47517
O 8.29711 9.64549 4.86963
O 7.83805 12.6588 0.0248145
O 9.99625 13.5844 4.62232
O 6.34678 10.82 16.6545
O 9.61058 14.0008 1.13816
O 8.82279 12.37 13.6246
O 7.72297 0.436593 2.593
O 8.29641 15.1507 3.18718
O 9.89631 10.6216 3.32475
O 6.10931 16.6397 3.73141
O 8.83939 11.9354 5.43194
Si 9.62309 12.8062 0.012568
Si 12.3453 8.07765 15.3741
Si 12.0182 16.6563 2.17393
Si 11.9292 9.2386 1.04778
Si 9.29385 10.4929 1.92188
Si 15.0415 16.0246 2.48394
O 11.293 11.6429 7.49907
O 0.330924 8.99243 7.30673
O 10.3181 9.12117 1.63335
O 1.04245 15.9354 3.2261
O 11.3712 8.85638 16.4989
O -0.0241504 15.6003 0.966468
O 10.0431 11.4104 0.970319
O 15.1171 17.6507 2.07695
O 10.6863 15.8226 2.5391
O 15.6059 11.316 1.51499
O 12.0257 17.7014 3.3954
O 13.456 15.8957 2.4046
Si 13.5271 2.31578 7.89576
Si 2.91864 0.382552 8.74372
Si 0.625485 5.62651 8.74072
Si 5.4091 1.75097 10.2029
Si 14.0961 17.4687 6.97024
Si 3.96942 5.65517 9.15009
O 0.196142 4.60478 10.0175
O 5.6084 0.669542 11.3233
O 2.14772 1.32016 9.83147
O 6.87478 7.89944 9.18671
O 0.409704 15.2425 8.55391
O 4.85985 4.89881 8.09188
O 14.3081 0.97372 7.11498
O 2.34539 5.72971 8.36996
O 3.4916 4.57735 10.2907
O 6.85688 1.65668 9.42022
O 0.256492 6.99618 9.04832
O 5.55828 3.07778 11.0531
Si 5.19371 4.73613 6.51343
Si 6.53261 1.09358 6.16581
Si 5.94304 8.58622 10.1527
Si 9.21462 4.76321 9.33778
Si 7.92043 2.10592 8.4034
Si 7.81038 7.4234 7.9889
O 5.20042 5.98925 10.6356
O 10.4701 16.3972 12.2348
O 7.94702 3.80865 8.52486
O 8.9099 8.80316 8.1637
O 6.68552 2.18791 7.17618
O 8.42403 6.18464 9.04446
O 9.10293 3.92298 5.07722
O 8.90877 6.53131 6.25502
O 7.20815 8.31801 6.63237
O 10.9518 5.24656 9.19567
O 6.3332 10.2215 10.1569
O 8.65656 4.79874 10.8256
Si 11.7173 4.98464 3.20909
Si 12.455 0.45032 4.58607
Si 9.06799 9.88422 9.51719
Si 1.27472 1.80765 11.1015
Si 10.7642 1.31644 7.20029
Si 0.0476276 5.16489 5.78525
O 10.6286 9.50506 9.90751
O 12.9557 17.2128 11.0884
O 12.0302 2.08039 8.10925
O 15.5854 5.08683 7.49116
O 10.6925 17.7656 7.95797
O 14.3548 2.57105 9.2661
O 9.41773 1.64638 7.9831
O 14.4645 11.3906 8.42776
O 13.9382 5.90587 6.14007
O 13.1606 17.1358 8.24308
O 9.3276 11.3171 8.94089
O 0.0792596 2.84137 11.607
Si 14.4927 12.3977 7.30635
Si 2.80792 9.21598 4.9684
Si 13.5786 13.8634 10.6818
Si 3.80612 14.4021 10.3559
Si 0.520903 8.79053 8.80018
Si 1.31714 16.2048 7.14962
O 5.51842 16.283 14.5682
O 2.0394 9.09291 8.96611
O 4.46365 10.9286 8.11937
O 2.11438 14.8598 6.97003
O 2.40281 8.48599 6.3142
O 2.98856 14.4896 4.37843
O 0.478034 13.079 7.20759
O 2.12921 17.118 8.18772
O 14.7647 13.848 12.0882
O 2.2459 14.2678 9.72947
O 0.00140653 16.9769 6.75399
O 3.2721 11.4065 12.5686
Si 4.16275 13.5301 4.88803
Si 6.91531 9.26562 5.53549
Si 6.28374 15.3104 9.01323
Si 10.2004 12.4839 8.32519
Si 4.64475 11.0952 6.45783
Si 7.84797 16.2722 6.71583
O 5.03941 14.3602 9.19263
O 8.50684 10.2398 11.0399
O 11.237 11.3155 5.05238
O 11.3096 1.08763 5.67978
O 5.98299 10.3076 6.20968
O 8.68709 15.3524 5.85441
O 5.06468 12.5446 6.1051
O 7.10407 17.7547 6.93108
O 6.44175 15.4121 7.31158
O 9.67742 13.3931 9.68025
O 5.67635 16.5532 9.66048
O 9.62974 13.359 7.13164
Si 10.081 14.4605 6.05393
Si 0.477449 8.14343 5.90014
Si 10.2648 16.233 8.53131
Si 14.2129 10.996 9.93226
Si 12.1463 10.9629 6.32894
Si 13.0485 16.6047 9.64606
O 8.78129 16.3194 7.96569
O 12.936 10.0538 9.79141
O 1.27356 9.11879 4.56248
O 13.7936 15.252 9.82635
O 13.4909 11.9997 6.26575
O 2.97427 17.2391 4.38531
O 10.7801 15.4106 7.15376
O 13.0527 17.5396 5.80437
O 11.4658 15.9988 9.55751
O 15.3006 9.66625 9.81442
O 11.5139 1.04827 15.8092
O 13.3987 12.1697 10.4842
Si 14.6756 3.64002 10.506
Si 6.69161 0.878967 16.0353
Si 2.01648 7.02174 15.9406
Si 4.21544 1.71859 1.42056
Si 4.10801 2.35819 15.6133
Si 3.87098 5.20656 14.5226
O 0.609802 6.19614 15.9934
O 5.37242 17.5894 16.2532
O 3.76309 1.64104 17.023
O 4.9275 6.04905 15.1768
O 2.53254 1.96986 12.1245
O 4.15279 4.83417 12.8375
O 0.656561 1.22023 14.1402
O 4.47723 8.52002 9.78038
O 2.77411 6.11345 14.8828
O 6.22188 16.2032 12.1519
O 1.17757 8.34497 15.9082
O 3.98978 5.20119 0.936532
Si 4.92962 4.50393 11.4408
Si 5.2094 17.0111 11.3125
Si 6.07027 6.98103 15.6392
Si 11.6028 2.54258 15.6695
Si 8.66054 3.0165 14.7629
Si 7.42317 7.53208 12.8105
O 7.25451 6.04157 15.8908
O 9.60491 0.910677 0.14751
O 8.14099 1.53609 15.3148
O 8.86701 7.38998 13.572
O 10.2308 2.8451 15.0591
O 7.17113 5.99197 12.6021
O 6.03286 2.18597 15.5661
O 6.41399 8.06341 11.6275
O 6.33202 7.58776 14.1641
O 12.523 2.44383 14.2498
O 4.30471 3.28322 2.25206
O 8.31151 3.98583 16.0918
Si 8.00401 4.70162 12.3154
Si 12.1963 17.4453 12.3721
Si 9.84179 6.40502 14.1414
Si 15.3233 0.0519528 12.9076
Si 12.9795 2.23424 12.657
Si 12.1112 6.24051 9.51029
O 9.51795 5.85654 15.5179
O 14.8558 1.52728 16.1829
O 14.5802 17.3997 14.325
O 3.93581 3.82657 15.2915
O 12.5858 16.0564 13.1972
O 12.7938 6.39233 8.3613
O 9.43846 5.36149 13.0985
O 12.0088 7.50923 10.2761
O 13.2872 3.17566 11.3914
O 14.3158 1.32751 12.7515
O 11.1636 7.36158 14.5131
O 0.659102 0.304843 11.714
Si 0.155417 13.7865 13.2871
Si 3.56123 9.74622 9.06817
Si 1.65565 15.5753 15.1074
Si 4.22085 11.6583 11.4236
Si 1.80385 11.3215 13.2304
Si 3.5399 1.14224 12.8845
O 1.57459 14.6134 16.4197
O 1.76021 10.7808 14.7174
O 5.77931 11.2809 12.3553
O 3.37238 17.7411 12.8684
O 0.659596 10.5894 12.6534
O 7.994 3.71545 13.4855
O 1.37301 12.832 12.8128
O 4.04438 16.0157 10.9579
O 1.2157 14.989 13.6859
O 9.05613 14.0195 11.8789
O 3.58844 1.42273 14.5331
O 4.50518 13.3724 11.3075
Si 1.31547 13.8378 8.48653
Si 7.13043 11.0619 11.3572
Si 6.91573 16.3144 13.7324
Si 9.32666 11.2162 14.5881
Si 8.38622 13.7342 10.4102
Si 9.82097 16.6568 13.8513
O 4.23796 13.3883 1.92017
O 10.3406 14.8594 14.4228
O 7.3484 14.5827 13.6669
O 9.73857 12.0748 15.8712
O 7.33865 12.5198 10.806
O 7.52187 14.9358 9.80176
O 3.66905 10.5239 10.5809
O 11.8242 0.960824 12.3225
O 8.31281 16.8847 13.6172
O 10.8518 10.8959 13.8679
O 8.74085 16.5896 1.12581
O 8.27594 10.3404 15.4038
Si 11.7829 14.4841 12.9498
Si 11.9197 9.09692 10.5277
Si 10.7183 17.9329 16.6521
Si 14.3551 11.1066 0.3809
Si 12.3341 10.3258 13.3745
Si 13.3834 12.7961 14.9269
O 10.1595 17.2041 15.4224
O 13.1713 10.1438 0.630002
O 12.4378 9.11414 14.2329
O 0.86551 16.9621 15.7713
O 11.9744 9.62626 11.9904
O 14.9583 12.9638 14.4584
O 13.1001 11.4058 14.1293
O 12.3237 13.8193 11.645
O 12.7876 13.7798 14.0221
O 15.0832 10.3444 16.277
O 11.5381 17.7305 1.04981
O 13.7988 12.2085 16.4713
324
 Atoms. Timestep: 9000
Si 0.0657707 5.39307 0.374781
Si 5.00753 16.4317 15.7384
Si 5.30009 7.04162 4.48355
Si 3.42835 2.07315 6.16877
Si 2.08356 0.633274 3.8149
Si 4.34624 4.75844 2.84772
O 4.75809 6.14356 5.8307
O 4.40511 1.39038 9.17403
O 2.74318 1.43203 4.97319
O 6.25102 8.39374 16.0944
O 2.53495 1.37775 2.39369
O 2.79576 5.70494 2.9736
O 1.43937 5.27256 0.999057
O 2.65127 6.67473 16.84
O 5.1751 6.3271 3.11226
O 4.9939 1.32475 6.2951
O 3.81205 7.74725 4.49925
O 3.70265 3.76421 6.14489
Si 2.66343 6.4169 1.34319
Si 8.62344 0.796355 1.32865
Si 8.046 4.77147 5.41522
Si 9.62816 2.79061 3.89463
Si 6.12874 0.513977 2.97298
Si 8.90086 5.15687 2.45162
O 6.36596 4.31869 5.29109
O 6.17826 1.25958 4.27519
O 9.05609 3.5051 2.69052
O 12.6268 5.65283 2.06146
O 7.46894 1.29736 0.459444
O 9.17919 5.22367 0.938765
O 5.06722 0.935804 1.73002
O 7.84329 10.1728 0.662487
O 8.03177 5.66333 3.8061
O 11.1163 3.32513 3.81822
O 5.98521 8.28638 5.11077
O 10.5433 5.58044 3.13095
Si 8.57426 5.36302 16.5826
Si 0.290064 0.717379 15.9864
Si 13.7339 4.35464 5.36021
Si 14.7481 0.888257 2.76547
Si 14.0808 2.78939 0.406503
Si 12.99 6.75377 1.00551
O 12.8025 5.08057 4.24854
O 13.7854 0.878317 3.9882
O 14.3162 1.82537 1.56812
O 12.5111 8.1419 1.38678
O 12.801 2.79882 16.5557
O 14.572 4.2734 0.235175
O 14.705 6.84378 0.705379
O 12.577 6.81675 16.591
O 15.2632 3.97607 4.83754
O 0.438056 0.833701 3.57579
O 0.830077 7.04096 5.25937
O 13.765 3.44884 6.84735
Si 0.950236 14.6181 0.977495
Si 0.973952 10.0024 15.9927
Si 2.67696 15.5472 3.01315
Si 4.46222 11.7781 2.4194
Si 1.66923 11.4634 1.37298
Si 4.97457 14.6932 1.21076
O 13.6859 13.1539 7.64642
O 3.33647 10.5067 5.96788
O 3.08565 11.2795 1.94068
O 6.08817 14.7257 2.28072
O 1.92561 11.1146 16.7308
O 3.40946 16.3061 15.4538
O 1.4697 12.955 1.02405
O 5.35615 15.0443 16.8047
O 3.68193 15.4644 1.98547
O 5.55742 10.9422 1.43656
O 2.70098 1.45818 7.40784
O 4.68944 12.6488 3.83579
Si 8.92065 13.5983 13.151
Si 7.2478 9.60939 15.9629
Si 6.68328 15.473 3.4886
Si 9.12826 11.059 4.64932
Si 6.56095 11.8932 0.381136
Si 9.06976 15.7227 1.91388
O 5.85616 14.3635 4.81721
O 8.16636 9.96828 4.95315
O 7.55233 12.7842 16.4266
O 10.7151 14.207 4.75266
O 6.00166 10.8925 15.8725
O 8.3764 14.3959 0.809463
O 9.39879 12.0326 13.3379
O 7.73225 0.747215 2.76766
O 8.14142 15.3697 3.14989
O 8.96044 11.1964 3.03757
O 6.09952 16.8949 3.26983
O 8.21939 12.3457 5.10772
Si 9.03309 13.4479 16.8514
Si 12.6868 7.82084 15.2477
Si 11.7949 17.0236 2.216
Si 11.7351 9.46488 0.682322
Si 9.1127 10.9497 1.4619
Si 14.5907 15.778 2.59251
O 11.7216 11.7819 7.43727
O 0.390541 8.83797 7.43273
O 10.4007 10.1602 1.31906
O 0.683949 15.4051 2.91951
O 11.9448 9.14392 16.1111
O 14.7763 15.0704 1.05749
O 9.31925 12.304 0.769626
O 14.7029 17.3664 2.11717
O 10.3914 16.3722 2.28337
O 0.0380274 11.1621 1.44295
O 11.7658 17.6298 3.84338
O 12.9053 15.865 2.78589
Si 13.7555 2.47495 8.05815
Si 3.00191 0.656608 8.90752
Si 0.672468 5.77642 8.68104
Si 5.77665 1.86476 10.0943
Si 14.0454 17.3967 7.41763
Si 3.67039 5.04746 8.74073
O 15.5956 4.48661 9.38038
O 5.62099 0.491988 10.8598
O 1.86233 1.30241 9.77202
O 6.82848 7.35877 8.86735
O 0.846308 14.8159 9.06247
O 5.0357 4.46902 7.9849
O 14.1727 0.899646 7.63427
O 2.1128 5.20614 9.13403
O 3.94154 3.59698 10.0086
O 6.76095 2.42351 9.08868
O 0.048462 7.39431 9.08751
O 5.87267 3.05663 11.4302
Si 5.21095 4.37049 6.26855
Si 6.5855 1.26096 5.80934
Si 6.05923 8.31229 10.0118
Si 9.14334 5.14035 9.53354
Si 8.03656 2.40054 8.13659
Si 8.29995 7.62859 8.01244
O 4.34238 5.97517 9.97043
O 10.6824 17.3409 12.9856
O 8.31034 4.04783 8.39449
O 8.89938 8.78493 9.18655
O 7.28455 2.46227 6.64944
O 9.15774 6.51174 8.73285
O 9.24933 3.5587 5.24655
O 7.92222 6.12103 6.2418
O 7.67685 8.84598 7.13563
O 10.7537 4.99044 10.0947
O 6.59543 9.9886 9.97357
O 8.34367 5.39123 10.961
Si 11.9917 4.52662 2.94412
Si 12.6583 0.396836 4.95961
Si 9.45586 9.99846 9.80062
Si 1.37253 1.60891 11.2218
Si 10.9722 1.40658 7.3962
Si 0.623101 5.54253 5.75806
O 10.8511 9.82294 10.3158
O 12.4364 16.5667 11.2498
O 11.989 2.18285 8.13449
O 0.60636 5.15519 7.21491
O 10.9861 17.7574 7.90622
O 13.9226 2.5053 9.59574
O 9.28776 1.55236 7.81478
O 14.2507 11.0175 7.81387
O 14.3612 5.77745 6.01894
O 13.3741 16.8877 8.70848
O 9.82711 10.8188 8.25629
O 0.438317 2.99833 11.2178
Si 14.5432 12.3436 6.91804
Si 3.16021 9.22638 4.92624
Si 13.6331 13.396 11.3502
Si 4.00133 14.1518 10.5787
Si 0.779966 8.78686 8.95644
Si 1.56988 16.1831 8.02655
O 5.70724 15.6414 14.5609
O 2.32417 8.72076 9.09527
O 4.24924 10.5811 8.20511
O 2.11307 14.8098 7.02816
O 2.68238 8.36664 6.37963
O 3.43295 14.8583 4.37451
O 0.422597 12.9204 7.47326
O 2.66973 17.1615 8.63547
O 14.7943 14.246 12.1606
O 3.06826 13.8828 9.10495
O 0.163124 16.6389 7.3489
O 2.76674 11.6875 13.0962
Si 4.46122 13.7541 4.88948
Si 6.76316 9.42971 5.79126
Si 6.33703 14.9171 9.04686
Si 10.3612 12.3573 8.19173
Si 4.51266 11.2539 6.90778
Si 7.59689 16.3391 6.69221
O 5.51949 13.6847 10.008
O 8.60299 10.6091 10.9287
O 10.5865 11.3815 5.26498
O 11.7832 1.21779 5.94634
O 5.73671 10.6206 6.27704
O 8.49253 15.0188 5.92245
O 4.08697 12.7612 6.22546
O 6.9528 17.8156 6.25003
O 6.52638 15.504 7.58621
O 9.81318 13.1781 9.40548
O 5.6453 16.4568 9.67509
O 9.97794 13.403 7.10007
Si 9.9347 14.5225 6.0583
Si 0.776284 8.58868 5.79953
Si 10.27 16.2706 8.31009
Si 14.1498 10.8049 9.47338
Si 11.8674 10.9834 6.14087
Si 12.8124 15.8383 9.70145
O 8.78324 16.4263 7.86817
O 13.2974 9.46374 9.62447
O 1.60329 9.18647 4.3613
O 13.139 14.5057 10.2211
O 12.9207 11.8642 5.4586
O 2.70481 17.196 3.41928
O 10.7694 15.7936 6.6255
O 13.2722 17.253 6.0384
O 11.375 15.689 9.10116
O 0.138922 10.2376 9.57748
O 11.7874 0.85049 15.6186
O 13.921 12.001 10.446
Si 14.7341 3.78464 10.6321
Si 6.62005 1.04065 16.2057
Si 1.79127 6.92107 15.538
Si 3.85854 2.01422 1.71763
Si 3.91286 2.62993 15.9274
Si 4.0348 5.02217 13.9001
O 0.527706 5.8939 15.8618
O 6.22856 17.4622 15.8078
O 3.31956 2.54962 0.349733
O 5.34092 5.6969 14.7376
O 2.48972 1.77933 12.3343
O 3.64061 4.47293 12.4581
O 0.715262 1.2417 14.3682
O 4.44058 8.52651 10.1482
O 2.75378 6.00258 14.3092
O 6.23428 16.3507 12.1334
O 1.40477 8.47342 15.6722
O 4.0384 5.36659 1.19084
Si 4.90605 4.40736 11.1579
Si 5.07151 16.9454 11.1914
Si 5.92537 7.07289 15.2636
Si 11.7054 2.51463 15.4847
Si 8.59385 2.85221 14.8923
Si 7.47038 7.27448 12.8137
O 7.26483 6.30162 16.0579
O 10.0091 0.796633 0.489402
O 7.57251 1.46148 15.0488
O 8.90468 7.41915 13.6259
O 10.0488 2.39411 15.2852
O 7.33298 5.45797 13.1406
O 5.40674 1.85192 15.8997
O 6.69329 7.6157 11.3564
O 6.32711 7.58854 13.786
O 11.9984 2.80723 13.8279
O 4.09697 3.24917 2.56722
O 8.20599 4.10221 15.6793
Si 8.54715 4.6041 12.4266
Si 12.2036 17.2769 12.7318
Si 10.0462 6.52754 14.1894
Si 15.2027 0.361167 13.3906
Si 13.0084 2.36812 12.6786
Si 12.002 5.95457 9.63913
O 9.55723 5.9566 15.5868
O 14.944 1.86747 16.4204
O 14.4095 17.8891 15.018
O 3.56044 3.94485 15.0945
O 12.402 15.8248 13.4706
O 11.8234 5.97443 8.27253
O 9.75648 5.43385 13.2067
O 11.7213 7.31786 10.3273
O 13.8685 3.51548 11.9779
O 14.2686 1.79275 13.5773
O 11.2121 7.51191 14.7286
O 0.521202 0.519527 12.002
Si 0.049529 14.4741 13.7566
Si 3.4676 9.76924 9.44507
Si 1.83224 16.078 15.6156
Si 3.95129 11.4589 11.9753
Si 1.1817 11.5876 13.0618
Si 3.34889 0.845515 13.4691
O 1.62406 15.2796 16.9641
O 0.873977 10.6941 14.5636
O 5.4066 10.9543 11.6604
O 2.77991 17.5927 13.4058
O 0.899591 10.5049 11.9581
O 8.47947 3.23765 13.3577
O 1.12464 13.2996 13.5029
O 4.07347 15.7838 11.1448
O 0.987857 15.5915 14.3767
O 9.83716 13.9639 11.7341
O 3.1973 1.63477 14.858
O 3.97043 13.0781 11.6973
Si 1.78261 13.5057 8.16694
Si 6.92705 10.9816 11.1344
Si 6.77935 15.7269 13.4665
Si 9.62779 11.1976 14.8133
Si 8.54536 13.4805 10.3572
Si 9.67638 16.4302 13.9599
O 4.41009 13.1467 1.26611
O 9.95147 14.9192 14.5401
O 7.6916 14.4709 13.0828
O 9.91398 12.5123 15.7523
O 7.16042 12.4064 10.5117
O 7.78602 14.8417 9.73615
O 3.26702 10.4106 10.8261
O 12.4458 0.960784 12.1778
O 8.03752 16.6957 13.7845
O 11.178 10.4994 14.309
O 8.41875 17.0616 1.31621
O 8.09583 10.6351 15.0633
Si 11.7574 14.3934 13.4245
Si 12.1498 9.01706 10.6847
Si 11.0743 17.9008 16.5781
Si 14.4367 11.1127 0.393317
Si 12.5312 10.255 13.5605
Si 13.4905 12.7981 15.031
O 9.71513 17.5726 15.3979
O 12.9978 10.4545 0.866432
O 13.1495 8.96892 14.2978
O 1.22764 17.486 16.0246
O 12.633 9.72482 12.0153
O 14.7576 13.5902 14.7735
O 13.051 11.7023 13.9218
O 12.322 13.2521 12.4357
O 12.347 13.9231 14.871
O 14.9346 9.64507 16.7413
O 12.051 17.5903 0.747048
O 13.9394 11.6281 16.1453
324
 Atoms. Timestep: 9500
Si 0.0373509 5.2446 0.169881
Si 4.80028 16.3503 15.5725
Si 5.52243 7.29689 4.43409
Si 3.48169 2.06274 6.24738
Si 1.92224 0.772965 3.59074
Si 4.30604 5.20561 2.57332
O 5.05742 6.11107 5.62978
O 4.77912 1.00404 8.60502
O 2.94604 1.17022 4.64903
O 6.68299 8.48739 15.9867
O 2.8082 1.31965 2.28951
O 2.65476 6.41248 2.62756
O 1.69448 5.43248 0.694842
O 2.5243 6.8574 16.3499
O 4.94918 6.41594 3.20176
O 4.72633 1.15981 6.07802
O 4.19764 8.19511 4.44068
O 3.79988 3.50177 5.91734
Si 2.78037 6.74298 1.01001
Si 8.36167 0.402879 0.714127
Si 7.65816 4.75673 5.26045
Si 9.73742 2.91358 4.20091
Si 6.3342 0.772902 3.19181
Si 8.66641 4.89637 2.32232
O 6.27592 4.13836 5.84116
O 6.96823 0.818976 4.70546
O 9.0211 3.2978 2.81085
O 12.6249 5.20569 1.87748
O 7.55033 0.935763 16.5159
O 8.47608 4.96667 0.764079
O 5.21569 1.81707 2.61613
O 8.25267 10.3132 0.300048
O 7.67949 5.29621 3.70618
O 10.9478 3.92443 4.06687
O 6.41683 8.26112 5.23781
O 10.3032 5.3169 2.50553
Si 8.22762 5.19993 16.3811
Si 0.266628 0.704222 16.2807
Si 13.8388 4.20982 5.49239
Si 14.4702 0.557357 3.24046
Si 14.2039 2.69661 0.799158
Si 13.1623 6.62825 1.16986
O 13.097 4.98589 4.17007
O 13.5849 0.684752 4.47221
O 13.9477 1.8621 2.26259
O 12.4112 7.734 1.74651
O 12.6258 2.93718 0.129746
O 15.1385 3.94687 1.11653
O 14.8456 6.41852 1.2658
O 13.0402 7.07042 16.6227
O 0.0782817 4.53392 5.58006
O 0.403837 1.2397 3.69945
O 0.198 7.46414 5.34733
O 14.0366 2.82902 6.59279
Si 0.952898 14.1372 1.70306
Si 0.49854 9.6171 15.5326
Si 2.60261 15.8393 3.63635
Si 4.34588 11.8623 1.78425
Si 1.55183 11.3375 0.86504
Si 4.23012 14.9609 1.09351
O 13.4577 14.0039 6.92851
O 4.09925 10.5989 5.7253
O 2.95966 11.3441 1.68492
O 5.40495 15.0836 2.07508
O 1.61516 10.4169 16.6417
O 3.30466 16.1386 15.3783
O 1.23158 12.8518 0.67564
O 4.95705 15.4779 16.9203
O 3.13993 15.7084 2.12754
O 5.47731 11.0212 0.948906
O 2.82238 1.89014 7.76647
O 4.5891 12.6809 3.2135
Si 9.1372 13.6909 12.8295
Si 7.34466 9.82696 15.5681
Si 6.11003 15.7774 3.29866
Si 9.41027 11.5342 4.72445
Si 6.75226 11.9122 0.179536
Si 8.72887 15.3189 1.56045
O 5.38613 14.7723 4.68712
O 8.27738 10.5581 5.60296
O 7.58967 13.1568 16.8051
O 10.8074 14.2196 4.40585
O 6.33069 11.1464 15.6792
O 9.63264 14.8116 0.344709
O 9.31911 12.2175 13.4127
O 7.62678 0.670435 2.05632
O 7.68225 15.4018 2.80522
O 9.10933 10.9985 3.25453
O 5.66891 17.2273 3.03646
O 8.91189 12.9816 4.3763
Si 9.54077 13.1839 16.8705
Si 12.3525 8.34886 15.6087
Si 11.3094 16.5972 2.478
Si 11.6906 9.19996 1.31793
Si 9.1028 10.9612 1.73966
Si 14.0753 15.5493 2.56032
O 11.2267 10.8183 6.98641
O 0.429055 9.29716 6.99987
O 10.6004 10.4971 1.23774
O 1.23921 15.0316 2.92397
O 11.4433 8.80683 16.9661
O 14.6915 14.8917 1.14852
O 9.37777 12.4927 1.16457
O 14.2888 17.0441 2.57526
O 9.97546 15.8501 2.34598
O 0.0808242 10.8623 1.258
O 11.336 16.9435 4.03308
O 12.4862 15.4415 2.3603
Si 13.6339 2.38351 8.05981
Si 3.10524 0.896266 8.96944
Si 0.642947 6.01266 9.41549
Si 5.87327 1.03393 9.87324
Si 14.2053 17.3522 7.67256
Si 3.48596 4.90562 9.33126
O 15.4725 5.08103 10.4976
O 5.70129 17.8463 11.0609
O 2.1738 1.45023 10.2052
O 6.56157 7.61006 9.07059
O 0.357849 14.9997 9.17981
O 3.88252 5.22075 7.68246
O 14.1459 0.936967 7.94729
O 2.24259 5.78212 9.65617
O 3.22575 3.52327 10.5473
O 7.37544 1.17613 9.36222
O 0.15531 7.77385 9.23731
O 5.36779 2.40664 10.5827
Si 4.75879 4.59528 6.32236
Si 6.42499 1.11389 6.18255
Si 5.8316 8.1864 10.2492
Si 9.45674 4.72377 9.26095
Si 8.28026 2.10819 8.37655
Si 8.12552 7.56955 8.32225
O 5.08695 4.82965 10.0004
O 10.4956 16.7408 12.6764
O 8.35698 3.65351 8.77933
O 9.2137 8.31021 9.22682
O 7.06321 2.31367 7.30048
O 8.42849 6.15086 8.95412
O 8.86235 3.5318 5.43766
O 8.53876 6.06978 5.73547
O 7.93848 8.83709 7.30218
O 10.9152 5.28702 9.36502
O 6.13625 9.77985 10.3783
O 9.51003 4.09211 10.8627
Si 11.7419 5.13534 3.34846
Si 12.4338 17.5001 5.13305
Si 9.71126 9.80351 9.96821
Si 1.42142 1.66064 11.5481
Si 11.014 1.2215 7.03375
Si 15.4362 6.07277 6.47393
O 10.8829 9.48902 11.0388
O 12.5699 16.8268 11.1225
O 11.9871 2.23791 7.77018
O 0.508534 5.52809 8.01337
O 11.5071 17.8102 7.8998
O 14.6276 3.23326 9.01261
O 9.59858 1.68086 7.7905
O 14.0249 12.3916 8.4495
O 13.6961 5.63439 6.25262
O 13.4328 16.6621 8.92454
O 9.71626 10.7034 8.60336
O 0.379305 3.0483 11.6056
Si 14.1719 12.6346 6.93752
Si 3.65821 9.64257 4.63973
Si 14.1127 13.6542 11.7092
Si 3.58651 14.1678 9.93153
Si 0.550292 9.04067 8.63706
Si 1.43618 16.3782 8.38754
O 5.79077 15.845 14.611
O 2.05542 9.28333 9.05991
O 3.89335 10.8051 8.10761
O 1.89707 14.8919 7.45865
O 2.63364 8.39843 5.97685
O 3.19489 14.5116 4.22289
O 0.165986 13.2667 7.10364
O 2.55213 17.4598 8.54869
O 15.3968 14.2054 12.5214
O 2.44525 13.424 9.33867
O 0.0284222 17.0211 8.00851
O 3.02675 11.6503 12.5812
Si 4.38782 13.6559 4.47738
Si 7.0795 9.5481 6.20915
Si 6.14711 14.8648 8.40011
Si 10.6493 11.9445 8.09695
Si 4.71597 11.3718 6.82028
Si 7.79256 16.3901 6.48436
O 5.00853 13.9034 8.96581
O 8.43386 10.0252 10.8114
O 11.0858 11.6 4.72522
O 11.5817 0.699539 5.72191
O 6.21816 10.7062 6.75792
O 8.4638 15.4233 5.39995
O 4.58289 12.9859 6.06994
O 6.65061 17.5652 6.75134
O 6.80847 14.8069 7.00903
O 9.87836 12.9561 9.15455
O 6.0186 16.2175 9.47199
O 10.1521 12.898 6.7983
Si 9.81147 14.3089 5.62855
Si 1.10013 8.73106 5.42659
Si 10.5159 16.3939 7.84796
Si 14.4139 11.3181 9.73924
Si 12.1446 10.8103 5.74373
Si 12.5059 15.8102 9.88997
O 9.02481 16.2995 7.44996
O 12.9281 10.5962 9.88662
O 1.84874 9.98058 4.19103
O 13.7463 14.8421 10.5317
O 13.1898 11.8197 6.20571
O 1.79 17.2183 3.28311
O 11.0002 15.3877 6.70451
O 13.4899 17.1098 6.26852
O 11.0336 15.9195 9.38477
O 15.3115 10.3 9.04124
O 12.0058 1.03424 15.884
O 14.1816 12.371 10.908
Si 14.5991 3.58296 10.7758
Si 6.37975 1.11943 15.4039
Si 1.59279 6.77259 15.0862
Si 3.89635 2.46897 1.86343
Si 3.75358 2.62749 15.7972
Si 3.99098 5.15588 14.0587
O 0.130944 6.22973 15.9453
O 5.16838 0.055454 15.9252
O 3.78446 2.29684 0.171134
O 4.79142 6.28774 14.931
O 2.6456 1.8068 12.5638
O 4.38467 4.92076 12.4664
O 0.705394 1.52874 14.8488
O 4.35637 8.21656 9.60118
O 2.59582 5.9319 14.0645
O 6.13401 15.4294 11.9345
O 1.29688 8.36125 14.7285
O 4.22982 5.68661 0.757753
Si 4.80401 3.73392 11.4564
Si 5.19817 16.3892 11.022
Si 5.95996 7.22302 15.4126
Si 11.8505 2.62716 15.7002
Si 8.91171 2.88698 14.7472
Si 7.61408 7.16622 12.5491
O 6.95954 6.10701 16.3218
O 9.81342 0.59126 17.0125
O 7.66776 1.83929 14.5076
O 9.01624 7.7088 13.3075
O 10.2325 2.73843 15.4454
O 7.8654 5.64544 12.1155
O 5.5048 2.47565 15.5353
O 6.41098 7.65576 11.6668
O 6.73905 6.94133 13.9094
O 12.4557 3.02046 14.166
O 3.32089 3.88504 2.40877
O 8.14701 3.83606 15.7302
Si 9.22779 4.69219 12.3047
Si 12.109 17.1202 12.6139
Si 10.1943 6.91959 13.9866
Si 15.0983 0.452572 13.6171
Si 12.8755 2.16791 12.8686
Si 12.1161 6.44511 9.44706
O 9.0652 6.11305 15.1665
O 14.8605 1.77251 16.9556
O 14.4189 0.073501 15.1135
O 3.60947 3.70844 14.6485
O 12.5453 15.8706 13.5772
O 12.4675 6.71169 8.16775
O 10.4617 5.58741 13.1648
O 12.3907 7.81137 10.4178
O 13.6043 2.67075 11.4544
O 14.2002 1.69209 13.5159
O 11.4189 7.26774 14.8507
O 0.385311 0.647621 12.2736
Si 0.470981 14.1417 14.1158
Si 3.43455 9.80264 9.3332
Si 1.82218 15.8222 16.0944
Si 4.22416 11.6241 11.6402
Si 1.67216 11.5866 13.3028
Si 3.84879 0.887272 13.4149
O 1.39303 15.2669 0.417652
O 0.970151 10.8708 14.4549
O 5.87173 11.7998 11.7002
O 3.28697 17.6229 13.1544
O 0.483581 11.3578 12.3622
O 8.71149 3.68286 13.3466
O 1.71643 13.055 13.8924
O 3.86641 15.628 10.7954
O 1.19064 15.1641 14.9288
O 8.74006 13.6832 11.2243
O 3.23779 1.36991 14.8889
O 3.88564 13.1253 11.1754
Si 1.05571 13.6302 8.46628
Si 7.12147 10.9113 11.0733
Si 6.86301 15.3378 13.4543
Si 9.85323 11.2718 14.5914
Si 8.37367 13.3073 9.7832
Si 9.76221 16.3573 14.1923
O 4.11265 13.394 0.907601
O 10.0196 14.7662 14.315
O 7.62856 14.0174 13.3743
O 9.87516 12.0407 15.8689
O 7.30425 12.0075 9.89252
O 7.31201 14.2057 9.13504
O 3.71303 10.7333 10.504
O 12.1038 0.880566 12.7307
O 8.2066 16.2504 13.6793
O 11.3696 10.6488 14.2065
O 8.1666 16.72 0.737883
O 8.7769 10.1199 15.0649
Si 11.9976 14.2571 13.4724
Si 12.4177 9.41999 10.9631
Si 11.1501 17.8434 16.6629
Si 14.1176 10.8401 0.499158
Si 12.9857 10.6081 13.7105
Si 13.5356 13.0757 15.6007
O 10.6464 16.8936 15.5383
O 12.8894 10.1332 1.27431
O 13.3211 9.00604 14.5511
O 1.10023 17.3255 16.0554
O 13.0003 9.90471 12.3078
O 15.1072 13.2915 14.9638
O 13.556 11.728 14.6526
O 12.5162 13.4745 12.1288
O 12.3798 13.998 15.0001
O 14.5973 10.214 15.9347
O 11.4141 17.2852 1.01408
O 13.3557 12.1362 16.9544
324
 Atoms. Timestep: 10000
Si 0.239644 4.9381 0.668301
Si 4.87635 16.2044 15.365
Si 5.34217 7.31453 4.50295
Si 3.50119 2.23479 6.06405
Si 2.2663 0.808986 3.72836
Si 5.08324 5.41769 2.10261
O 4.5156 6.29132 5.57182
O 4.26007 1.5129 9.4248
O 2.48101 1.55185 5.15642
O 6.47005 8.4807 15.0118
O 2.5965 1.44781 2.35545
O 3.35615 6.11004 2.75397
O 1.61293 5.35338 1.38155
O 2.57115 6.69547 16.8363
O 5.42075 6.08309 3.5406
O 4.96357 1.45769 6.03934
O 4.13147 8.21222 3.96524
O 3.89733 3.84515 5.7322
Si 2.82531 6.55438 1.27409
Si 7.80802 0.17994 0.765406
Si 7.93889 4.68497 5.08411
Si 9.66339 2.85516 3.62645
Si 6.22537 0.912943 3.3698
Si 8.69693 5.4235 2.36163
O 6.63554 5.10753 5.95634
O 7.03133 1.91892 4.43257
O 9.0089 3.75786 2.45552
O 11.9669 5.233 2.20574
O 6.99315 1.28925 16.7689
O 8.37668 5.42053 0.888608
O 5.10982 1.47126 2.51739
O 8.21433 9.60117 0.420843
O 7.62148 5.24248 3.59462
O 11.0118 3.70509 3.6658
O 6.76925 7.81025 5.107
O 10.1387 5.89862 3.22836
Si 7.90437 5.29642 16.421
Si 0.27262 0.502992 16.0728
Si 13.6293 4.23343 5.55724
Si 14.7533 0.351085 2.8052
Si 13.9515 2.43697 0.475782
Si 12.895 5.85299 1.09007
O 12.8936 5.10065 4.51533
O 13.6826 0.820287 3.9838
O 13.9721 1.10859 1.37876
O 12.8891 7.4209 1.68793
O 12.6105 3.00522 16.8019
O 15.2445 3.28408 0.550326
O 14.5148 5.82424 1.14072
O 12.5401 5.88988 16.4909
O 15.2998 4.82733 5.95961
O 0.742608 0.560926 3.48349
O 15.1767 7.42991 6.07691
O 13.2685 3.29112 6.74184
Si 0.706174 14.2437 1.30778
Si 0.718923 9.70479 15.9264
Si 2.47126 15.634 3.34677
Si 4.42326 12.3894 1.87398
Si 1.4091 11.2518 1.31866
Si 4.48134 15.2799 1.17971
O 12.8785 14.648 7.12759
O 4.00264 10.1053 5.66899
O 3.10235 11.5765 1.5605
O 5.86398 15.6589 2.21533
O 1.6959 10.1938 0.0884683
O 3.35085 16.423 15.1791
O 1.01442 12.5324 0.501333
O 5.08836 16.2654 16.9301
O 3.23918 16.0999 2.00581
O 5.75142 12.173 1.1725
O 2.77557 2.04944 7.48844
O 4.49996 12.5788 3.3646
Si 9.26359 13.5646 12.8044
Si 7.48574 9.32248 15.906
Si 6.29277 15.5981 3.6609
Si 9.43279 11.088 4.4003
Si 6.96914 11.6786 0.363109
Si 8.72213 15.2455 1.89896
O 5.83989 14.1361 4.31085
O 8.27294 9.82447 4.92074
O 7.58113 12.6252 16.3694
O 11.3222 13.7661 5.30079
O 6.32402 10.6005 16.2181
O 9.21333 14.1375 0.950195
O 9.44372 12.0685 13.4371
O 7.33632 0.863464 2.18667
O 7.80871 15.0898 3.14005
O 8.78379 11.0406 3.05122
O 6.44875 17.1593 4.04938
O 9.28877 12.6713 4.68109
Si 9.46811 12.8712 16.9463
Si 12.5284 7.63226 15.7177
Si 11.2461 16.6351 2.17209
Si 11.8304 8.78236 1.48717
Si 9.32741 10.3596 1.66609
Si 13.796 15.3682 2.67332
O 11.5208 10.6886 7.49073
O 0.268193 9.50895 7.26106
O 10.3907 9.27179 2.10581
O 1.46843 14.648 2.75057
O 11.5039 8.29205 16.9288
O 14.7535 14.6071 1.65275
O 9.93367 11.898 1.18445
O 14.612 16.6693 2.50109
O 10.06 15.7234 2.53335
O 15.3785 10.8485 1.64516
O 11.7084 17.3443 3.61786
O 12.534 15.6983 1.96601
Si 13.4124 2.51926 8.09731
Si 2.84551 0.929705 8.73337
Si 1.08873 6.35715 9.52113
Si 5.70093 1.77773 9.96446
Si 13.9034 17.4551 7.73278
Si 3.86303 4.72956 9.1002
O 15.3511 5.2695 10.2559
O 6.05487 0.17539 10.2421
O 1.86966 1.43242 9.8685
O 6.16317 7.14231 8.98469
O 0.752646 14.7821 9.25555
O 4.66286 5.32793 7.79933
O 14.2915 1.1793 7.86863
O 2.77677 5.84501 9.47505
O 3.52549 3.8145 10.4342
O 6.95842 2.09217 9.0364
O 0.595212 7.70736 9.26558
O 5.49508 2.95336 11.1732
Si 5.13071 4.89695 6.20227
Si 6.52443 1.20149 6.17787
Si 5.69021 8.35323 10.2032
Si 9.74855 4.92176 9.11534
Si 8.16666 2.3955 8.22339
Si 7.92613 7.41397 8.7165
O 4.91935 5.66963 10.3485
O 10.2912 17.4631 12.9589
O 9.11562 3.51812 9.13856
O 8.77873 8.13922 9.73866
O 7.38747 2.60341 6.75685
O 8.45275 5.86946 8.60999
O 9.06092 3.57401 4.95079
O 8.88216 5.81408 5.6088
O 7.97183 7.87363 7.30508
O 10.995 5.82342 8.64315
O 6.56738 9.67226 9.96081
O 10.0854 5.16094 10.6061
Si 11.4319 5.26148 3.73337
Si 12.4106 0.118825 4.90189
Si 9.60642 9.61984 10.2535
Si 1.25024 1.69555 11.2416
Si 10.859 0.956729 7.39996
Si 14.8538 5.97077 7.18685
O 10.9062 9.34966 11.1063
O 11.8555 17.1297 11.0308
O 11.9534 1.79607 8.15355
O 0.62896 5.31365 8.11824
O 11.1065 17.3214 7.98905
O 13.8707 3.36739 9.3184
O 9.4644 1.5174 7.74313
O 13.5326 12.5496 8.47135
O 13.3253 5.45669 6.87281
O 13.6971 17.2249 9.34903
O 9.44213 10.3381 8.84698
O 0.246745 3.04632 11.0403
Si 13.544 13.3203 7.0269
Si 3.12984 9.28742 4.63615
Si 14.1614 13.8161 11.7482
Si 3.81122 14.3806 9.79297
Si 0.619661 9.5813 8.824
Si 1.40395 16.2574 7.952
O 5.5363 15.6088 14.0546
O 2.20275 9.90897 8.60279
O 4.34248 11.0658 7.71087
O 1.76058 15.1211 6.88719
O 2.4174 8.1339 6.15872
O 3.43569 14.5319 4.22171
O 15.1326 13.7545 6.99859
O 2.70501 17.3923 7.9683
O 15.1453 14.08 12.7932
O 2.48129 13.6125 8.96224
O 15.3208 16.63 7.66203
O 3.68539 11.2215 13.4839
Si 4.50448 13.3713 4.66346
Si 7.66738 8.9584 6.18714
Si 6.45138 14.5365 8.42172
Si 10.0767 11.516 8.08845
Si 5.27359 10.7841 6.32202
Si 8.04162 16.1989 6.42527
O 4.93958 14.4439 8.73853
O 8.52697 9.98777 11.3397
O 10.9981 10.9579 5.07309
O 11.3946 0.905858 5.97014
O 6.32291 9.72129 6.80486
O 8.96191 15.6995 5.12701
O 5.08091 12.3283 5.60318
O 7.11857 17.6283 6.34008
O 6.80086 15.2068 6.89173
O 9.99625 12.509 9.57746
O 6.73434 15.8695 9.41273
O 10.0586 12.7585 7.11692
Si 9.79361 13.8243 6.0059
Si 0.762974 8.68481 6.00902
Si 10.3303 15.9484 8.41548
Si 14.0086 11.4656 9.66602
Si 12.3165 10.8328 6.06592
Si 12.8194 16.1521 10.0586
O 8.97842 16.3502 7.65031
O 13.1963 10.1642 10.149
O 1.68188 10.0199 5.11545
O 13.8546 15.2254 10.9705
O 12.7242 12.4538 6.07297
O 2.47901 16.8811 4.1453
O 10.6199 15.2014 7.01134
O 13.3728 17.3647 6.04467
O 11.5855 15.4477 9.41991
O 15.4134 11.021 9.23752
O 11.0641 1.32337 16.068
O 14.2118 12.5292 10.9293
Si 14.5844 4.02278 10.6095
Si 6.59614 1.1839 15.2109
Si 1.29326 6.67092 15.5969
Si 3.92711 2.32765 1.84183
Si 4.2308 2.77674 15.8858
Si 3.44483 5.50028 13.9907
O 0.287 5.63571 16.1625
O 5.17842 17.8527 15.2449
O 3.93365 1.90453 0.200298
O 4.2274 6.75909 14.6643
O 2.40034 2.24127 12.2387
O 4.01611 4.55744 12.7926
O 0.876071 1.21342 14.7866
O 4.50569 8.87946 9.1068
O 1.88174 5.9284 14.2342
O 6.46435 15.9542 11.8447
O 1.12287 8.20685 15.4787
O 4.52243 5.91948 0.776344
Si 5.0166 4.34298 11.5216
Si 5.78513 16.5135 10.5463
Si 5.80964 6.9482 15.028
Si 11.7138 2.71905 15.4696
Si 8.88819 3.00589 14.5889
Si 7.36359 6.98707 12.4173
O 6.70784 6.07928 15.9866
O 9.35359 0.620712 0.529837
O 7.83502 1.97326 14.6042
O 8.84315 7.69025 13.1235
O 10.2826 3.47283 15.2558
O 8.04142 5.76485 11.6861
O 5.62828 2.48905 15.2352
O 6.41378 7.44488 11.3616
O 6.39351 6.25272 13.6041
O 12.1764 2.51706 14.0282
O 4.39429 3.77095 2.22866
O 8.01925 3.96457 15.594
Si 9.33544 4.75225 12.0555
Si 11.8129 17.6327 12.4623
Si 9.908 6.92725 13.9654
Si 15.3861 17.9037 13.4165
Si 13.2979 2.30796 12.7454
Si 11.7243 7.27234 8.87256
O 9.13394 6.03039 15.2505
O 14.425 1.47166 16.1812
O 14.6537 17.3018 14.7891
O 4.15411 4.57013 15.3188
O 12.3741 16.2288 13.3016
O 12.2967 7.97113 7.78026
O 10.2269 5.73035 13.1108
O 12.3848 7.72796 10.425
O 13.6501 3.7553 11.9616
O 14.3297 1.32941 13.23
O 11.4781 7.32797 14.5891
O 0.598303 0.440022 12.0539
Si 0.529028 13.8387 14.2453
Si 3.65306 10.2965 8.9714
Si 1.93864 15.812 16.1807
Si 4.11413 12.1595 11.7389
Si 1.90533 11.4364 13.4399
Si 3.60755 1.73959 13.1872
O 1.01898 15.4472 0.327436
O 1.45242 10.6283 14.7217
O 5.51872 11.2958 11.7497
O 3.42166 0.389269 13.1022
O 1.9312 12.2421 11.8918
O 8.52535 3.9287 13.1564
O 1.8619 12.9037 14.0833
O 4.36667 15.623 10.558
O 0.982068 15.2552 14.8409
O 9.22556 14.1239 11.2236
O 3.17793 2.20868 14.7136
O 4.15573 13.013 10.3831
Si 1.07165 13.7812 8.06233
Si 7.01538 10.6308 11.2456
Si 6.87816 15.3368 13.1712
Si 9.78411 11.1206 14.6917
Si 8.48374 13.1637 10.0136
Si 9.4833 16.489 13.937
O 3.9859 13.8555 1.42564
O 9.94769 14.3501 14.2164
O 7.75484 14.0511 13.2728
O 10.1452 11.9796 15.8279
O 7.54671 11.9532 10.53
O 7.99365 13.7645 8.69148
O 3.58194 10.6541 10.4669
O 12.2856 1.26336 12.0297
O 7.96249 16.6301 13.5215
O 11.0463 10.2825 14.1471
O 8.04745 16.5345 1.24199
O 8.37783 10.2395 14.8889
Si 11.8933 14.6739 13.4539
Si 12.5973 9.09586 11.1225
Si 10.4733 17.8634 16.4236
Si 13.9982 10.7692 0.702054
Si 12.5827 10.3176 13.8911
Si 13.5103 12.8773 15.6129
O 9.92409 16.7422 15.4178
O 12.8674 9.96765 1.36005
O 12.9247 8.97716 15.0298
O 1.38224 17.312 16.2315
O 12.8276 9.73078 12.4973
O 15.0159 13.1348 15.1397
O 13.0024 11.6046 14.6251
O 12.6407 13.6702 12.4664
O 12.5618 14.0043 14.8142
O 14.6592 9.83058 16.535
O 11.1389 16.9575 0.531616
O 13.4443 12.2829 0.147338
324
 Atoms. Timestep: 10500
Si 0.303958 4.36775 0.649697
Si 4.91441 16.479 15.3589
Si 5.49786 7.44231 4.42869
Si 3.73336 2.49654 6.26102
Si 2.38036 0.966347 3.77761
Si 4.49807 4.91468 2.86868
O 5.21455 6.30163 5.61762
O 4.81322 2.04442 9.03598
O 3.33282 1.61638 5.01599
O 6.81821 8.33088 15.2113
O 2.96799 1.10975 2.36301
O 2.94387 5.36918 3.26307
O 1.67428 4.63119 1.37809
O 2.21586 6.60547 0.0469261
O 5.31617 6.31438 3.34917
O 5.15137 1.84536 6.28493
O 4.14003 8.24734 4.75586
O 4.16797 4.04099 6.06256
Si 2.63567 6.18082 1.46406
Si 8.09085 0.108804 0.868122
Si 8.06239 4.69787 5.09322
Si 9.53706 2.99611 3.18108
Si 6.23909 0.314207 3.28445
Si 8.77322 5.79902 2.25602
O 6.79779 4.27641 5.97431
O 6.75695 1.21591 4.43807
O 8.75261 4.10081 2.26956
O 12.4583 4.95297 1.91215
O 6.88366 0.698759 0.138611
O 8.53098 5.98945 0.693514
O 5.44425 1.02682 2.18178
O 8.49532 9.30673 0.847852
O 8.24693 5.75641 3.92136
O 10.7741 3.86178 3.46487
O 6.78366 8.21706 4.66764
O 10.2816 5.85711 2.48414
Si 8.05373 5.78128 16.1523
Si 0.0416548 17.7422 15.1784
Si 13.0273 4.31107 5.91219
Si 14.932 0.799038 3.08656
Si 14.1584 1.84201 0.190279
Si 13.3853 6.061 0.873847
O 12.6772 5.16095 4.47658
O 13.7503 0.955486 4.16205
O 14.6782 1.14499 1.53707
O 12.8908 7.36856 1.88257
O 12.9595 2.71587 16.6762
O 0.161005 2.98152 0.131971
O 14.7205 5.87297 1.4984
O 13.0861 6.20918 16.3735
O 14.97 4.72518 6.02867
O 0.905757 1.44446 3.61654
O 15.0596 7.18049 6.03992
O 13.4128 3.29309 6.92956
Si 0.924907 14.3655 1.58951
Si 0.937514 9.68513 15.8749
Si 2.76396 15.7655 3.57454
Si 4.17376 12.518 1.6663
Si 1.5849 11.2618 1.51828
Si 4.78545 15.4001 1.10312
O 13.2541 13.4558 7.70904
O 3.27957 9.95679 5.94942
O 2.8135 11.7188 2.19294
O 6.04102 14.7875 1.9896
O 1.76376 10.7065 0.0623304
O 3.26156 15.7802 15.2178
O 0.923227 12.866 1.29671
O 5.36345 16.0494 16.782
O 3.97593 15.8505 2.50772
O 5.15434 11.5173 1.05015
O 3.09112 2.03965 7.51498
O 4.40802 13.2524 2.99295
Si 9.24743 13.604 12.9984
Si 7.61326 9.10188 16.2736
Si 6.73118 15.1586 3.43008
Si 9.4517 11.156 4.66514
Si 6.77704 11.166 1.09218
Si 9.30292 15.3372 1.68462
O 6.07941 14.1445 4.61358
O 8.68415 10.0499 5.50908
O 7.7497 12.2333 0.693196
O 10.6177 13.6859 5.18828
O 6.54446 10.2603 16.6909
O 9.72468 13.9847 0.918392
O 9.20683 12.0824 13.424
O 7.69039 0.43699 2.40819
O 8.22367 14.9098 2.90967
O 9.08078 10.8222 3.26053
O 6.1003 16.6439 3.49725
O 8.18085 12.5172 4.82421
Si 9.28844 12.6298 0.386425
Si 12.408 7.45173 15.3953
Si 11.6426 17.1328 2.29821
Si 11.9275 8.59586 1.1338
Si 9.36011 9.85309 1.94819
Si 14.2049 15.6852 2.94983
O 11.3669 10.6974 7.58343
O 0.391979 9.36092 7.46454
O 10.7164 9.0335 2.02127
O 1.84831 14.6384 2.84714
O 11.5611 8.17585 16.725
O 14.8627 14.6972 1.41626
O 9.82162 11.415 1.22521
O 15.0557 17.1946 3.00523
O 10.4725 16.1893 2.11326
O 0.0803951 10.395 1.69074
O 11.738 17.776 3.81359
O 13.0228 16.2909 2.14529
Si 13.2616 2.50029 8.34079
Si 3.30742 1.02994 8.83729
Si 0.668212 6.39828 9.68303
Si 5.77386 1.82454 10.2545
Si 14.061 17.5886 7.40316
Si 3.78674 5.33498 9.08595
O 14.955 5.655 10.6346
O 5.76349 0.135754 10.6177
O 2.24392 1.62355 9.79153
O 6.64436 7.68491 8.93984
O 0.801123 15.6528 8.58314
O 4.93427 4.79563 8.19384
O 14.0142 1.1449 8.17182
O 2.26238 5.9671 9.69633
O 3.55301 3.94029 10.1916
O 7.06148 2.35714 9.60986
O 1.18166 8.07759 10.0718
O 5.50126 3.06922 11.2062
Si 5.42569 4.98656 6.59438
Si 6.6891 1.45938 6.0164
Si 5.87805 8.71704 10.056
Si 9.99262 5.07861 8.93337
Si 8.33097 2.47699 8.28031
Si 8.06933 7.39345 8.26654
O 4.78676 5.92811 10.2734
O 10.2948 17.1066 12.6903
O 9.26962 3.68619 8.58728
O 8.80674 8.44555 9.24861
O 7.33178 2.51415 7.1476
O 8.61603 5.96685 8.67628
O 8.54844 3.31423 4.45329
O 9.32487 4.66055 6.01421
O 7.90374 7.9384 6.90955
O 11.2739 6.09128 8.57568
O 6.3399 10.2599 10.4165
O 9.88366 5.27761 10.6069
Si 11.579 5.13644 3.31648
Si 12.3589 0.667813 4.95532
Si 9.1249 9.49418 10.227
Si 1.23125 1.88646 10.9904
Si 10.7097 0.869264 7.33502
Si 14.7054 5.9751 7.02994
O 10.6835 9.35328 10.7367
O 12.4905 17.2627 11.1006
O 11.6775 1.97677 8.13278
O 0.611674 6.30352 8.03381
O 10.7602 17.1914 7.38528
O 13.8795 3.60124 9.35022
O 9.15953 1.20521 7.82191
O 13.9877 11.5467 8.67603
O 13.0842 5.9424 6.62447
O 13.6589 16.3396 8.45673
O 9.29803 10.6743 9.19292
O 0.45826 3.22715 10.8569
Si 14.2107 12.3758 7.36695
Si 2.78679 8.91588 4.80015
Si 13.8153 14.0116 11.5176
Si 3.91159 14.0269 9.40298
Si 0.838748 9.2612 8.97841
Si 1.72857 16.917 7.39754
O 5.74654 15.3705 14.3674
O 2.1344 10.0884 9.21473
O 4.61351 10.7633 7.75545
O 1.95171 15.549 6.5191
O 1.88276 7.98939 6.17128
O 3.63069 15.141 4.77938
O 0.155877 13.117 7.90585
O 2.63809 17.4867 8.47741
O 15.0648 14.4961 12.4483
O 2.61666 14.0179 8.40015
O 0.203617 17.3091 7.0841
O 3.47767 11.5796 13.709
Si 4.48354 13.6357 4.44236
Si 7.3912 9.08781 5.9589
Si 6.65147 14.341 8.36215
Si 10.3324 11.6173 8.52406
Si 4.77682 10.8091 6.22331
Si 7.88051 16.3151 6.37984
O 5.37188 13.679 8.9681
O 8.2963 10.2839 11.6128
O 10.9165 11.5803 5.37561
O 11.09 1.16534 5.73006
O 6.25837 10.1213 6.16386
O 8.73169 15.2158 5.7085
O 4.58222 12.4796 5.56573
O 6.8745 17.7453 6.73518
O 6.72798 15.1455 6.93875
O 10.3233 12.8743 9.51415
O 6.806 15.8245 9.33391
O 9.50131 12.4614 7.31722
Si 9.372 13.6893 6.16341
Si 0.37644 8.55803 5.87759
Si 10.2352 15.9163 8.17111
Si 14.3936 11.1922 10.2477
Si 12.0071 10.6237 6.11256
Si 12.8151 16.2914 9.74637
O 8.77042 16.2913 7.78907
O 13.0117 10.5578 10.7791
O 1.14887 9.69997 4.7814
O 13.3001 14.7407 10.342
O 13.3795 11.5245 6.20173
O 2.35519 17.2445 3.92112
O 10.4564 14.642 7.20034
O 13.003 17.6232 6.40953
O 11.4391 15.751 9.27518
O 14.9709 9.79623 9.70844
O 11.5765 1.07822 15.6569
O 14.1581 12.6298 11.0493
Si 14.5568 3.97786 10.6077
Si 6.41206 1.28906 15.6503
Si 1.20982 6.57709 15.7701
Si 4.07119 2.06811 1.58376
Si 3.65238 2.97752 15.7129
Si 3.37817 5.49422 13.9058
O 0.282178 5.3245 16.369
O 5.35286 0.149933 15.274
O 3.32923 2.54369 0.297169
O 4.30384 6.62377 14.8018
O 2.05024 2.11173 12.4344
O 3.71372 5.51797 12.172
O 0.654347 0.88778 13.9846
O 4.39299 8.89333 9.351
O 2.1071 5.67165 14.8724
O 5.90703 15.6354 11.644
O 0.394907 7.88592 15.8496
O 4.13236 5.34268 1.2025
Si 4.73449 4.48068 11.3993
Si 5.65317 16.477 10.3444
Si 5.71722 7.09416 14.9707
Si 11.8246 2.65243 15.5485
Si 8.42965 3.05122 14.6175
Si 7.2028 7.16175 12.2299
O 6.51534 6.15012 16.1057
O 9.52756 0.727351 0.453713
O 7.72557 1.94849 15.3333
O 8.69777 7.60705 12.8968
O 10.0637 2.95211 15.0465
O 7.7312 5.56966 11.8143
O 5.27041 2.51287 15.8466
O 6.20233 7.87127 11.313
O 6.46095 6.83334 13.589
O 12.6779 2.95297 14.2114
O 4.18861 3.32357 2.56064
O 7.92296 4.34522 15.3947
Si 9.0922 4.63758 12.0996
Si 11.8667 17.4694 12.634
Si 9.73107 7.07608 13.881
Si 14.7679 0.249856 12.482
Si 12.7606 2.55613 12.6873
Si 11.6779 7.66979 8.42046
O 8.80776 6.92639 15.1599
O 14.6777 0.849085 16.0977
O 14.6266 17.0289 13.6699
O 4.06116 4.1353 14.6942
O 12.3591 16.1973 13.3226
O 11.9082 7.74488 7.06143
O 9.85293 5.60662 13.1497
O 12.6907 8.35415 9.43451
O 13.5238 3.63858 11.7766
O 14.2601 1.68853 12.9886
O 11.2003 7.06527 14.6119
O 0.305278 0.774754 11.3965
Si 0.343424 13.817 13.8987
Si 3.67788 10.4932 8.93542
Si 2.0011 15.748 16.0423
Si 4.1494 11.9138 11.6537
Si 1.82055 11.3844 13.4108
Si 3.40383 1.43898 13.2607
O 1.56358 15.225 0.429936
O 1.38452 10.1474 14.3926
O 5.68943 12.0215 11.7351
O 3.70148 0.10419 13.0866
O 2.23445 11.6037 11.7356
O 8.57281 3.66311 13.0865
O 1.50294 12.8821 13.9469
O 4.3377 15.6714 9.65862
O 0.875119 14.8869 15.1745
O 9.30733 14.5572 11.5685
O 3.18007 1.77229 14.8583
O 3.94341 13.5118 10.9829
Si 1.26299 14.2572 7.65225
Si 7.03947 11.1942 11.5103
Si 6.78135 15.3132 12.9929
Si 9.20771 11.0886 14.6634
Si 8.93358 13.635 10.2219
Si 9.36956 16.5277 13.9967
O 4.27483 13.8925 0.628519
O 10.1556 14.9549 14.5034
O 7.73347 14.1955 13.542
O 9.58252 12.1331 15.8622
O 7.93705 12.2202 10.6475
O 8.16594 13.7808 8.73506
O 4.09989 11.046 10.2674
O 11.8453 1.205 12.6443
O 7.78256 16.5297 13.2475
O 10.6038 10.4147 14.3525
O 8.40737 16.2899 0.679339
O 8.60332 10.052 15.5123
Si 11.8744 14.7098 13.8495
Si 12.1842 9.20922 11.0197
Si 10.7349 0.196365 16.5774
Si 14.3525 10.6701 0.643012
Si 12.1344 10.0075 13.9718
Si 13.3865 12.5656 15.304
O 9.8604 17.3948 15.142
O 13.2012 9.55007 1.05003
O 13.0258 8.81568 14.9506
O 1.46434 17.1435 15.5181
O 11.939 9.35953 12.6274
O 14.792 13.0548 14.9077
O 13.0279 11.327 14.1057
O 12.7447 13.9201 12.6998
O 12.5595 13.9184 15.1861
O 15.0233 10.1816 16.337
O 11.8122 0.122705 1.02668
O 13.4996 11.8323 16.9126
324
 Atoms. Timestep: 11000
Si 0.276033 4.63477 0.222743
Si 4.79698 16.587 15.506
Si 4.9541 7.12961 4.81192
Si 4.15441 2.49855 5.98809
Si 2.26623 0.986474 3.9268
Si 4.41193 4.71846 3.19688
O 4.93393 6.37839 6.16243
O 4.60093 1.54821 9.64598
O 3.07155 1.74442 5.17262
O 6.36455 8.36278 15.881
O 3.11104 0.825794 2.70566
O 2.95036 5.32149 3.37082
O 1.74353 4.59022 0.962183
O 2.60903 6.55535 16.9825
O 5.19893 6.19083 3.48763
O 5.16912 1.34542 6.20192
O 3.765 8.1075 4.39652
O 4.66286 3.96832 6.05399
Si 2.75875 5.74908 1.34696
Si 8.49757 0.171654 0.686431
Si 8.14624 4.53797 4.86549
Si 9.24962 2.81178 2.62298
Si 6.88043 0.163433 3.16613
Si 8.72362 5.61542 2.16959
O 7.04599 4.63897 5.91357
O 7.19462 1.13714 4.46464
O 8.53092 3.94279 1.78321
O 12.771 4.71378 2.29797
O 7.53202 0.817574 16.8137
O 8.88032 6.0368 0.65331
O 5.46619 0.94953 2.13353
O 8.66019 8.96037 0.754986
O 7.86437 5.59797 3.61563
O 10.9078 3.02816 3.01473
O 5.87871 8.29993 5.26374
O 10.2317 5.40093 2.80565
Si 8.14998 5.44902 16.2968
Si 15.0141 17.6068 15.1358
Si 13.3588 4.094 5.67471
Si 14.9116 1.18319 3.01227
Si 14.2604 2.12964 17.0678
Si 13.2003 5.82772 1.0228
O 12.1499 4.41284 4.60439
O 13.7296 1.51584 4.01143
O 14.4732 1.68848 1.52552
O 12.8994 7.29505 1.91441
O 12.8567 2.81416 16.6773
O 15.4 3.18449 16.7543
O 14.6118 5.56949 1.20868
O 13.044 6.61474 16.4337
O 14.9723 4.79157 5.29939
O 0.672795 1.42211 3.89188
O 15.2387 7.59419 5.84595
O 13.1311 3.33435 7.03218
Si 1.27039 14.4995 1.50646
Si 1.20932 9.68635 15.9274
Si 2.92296 15.9665 3.52044
Si 4.06703 12.2765 1.97966
Si 1.31279 11.2787 1.52339
Si 4.79954 15.1365 1.33738
O 13.2061 13.8716 7.58797
O 3.41975 10.4299 5.33982
O 2.74549 11.2825 2.15164
O 6.03513 15.4347 2.10413
O 1.73082 10.5622 0.155746
O 3.44423 15.8982 15.1716
O 1.20433 12.9749 0.990674
O 4.94254 15.6682 16.9931
O 3.84439 16.3276 2.07277
O 5.58349 11.9662 1.49881
O 3.3359 2.34848 7.57018
O 4.52627 12.4729 3.46519
Si 8.59566 13.4423 13.3846
Si 7.48313 9.02032 16.7177
Si 7.02436 15.0381 3.32899
Si 9.89147 10.654 4.89266
Si 6.87792 11.3166 1.70054
Si 9.62597 15.3799 1.60973
O 6.33273 14.0691 4.43654
O 8.21051 10.0569 5.1232
O 7.99865 12.2781 1.17724
O 11.6513 14.2957 5.28406
O 6.73025 10.1611 0.442482
O 9.87251 14.102 0.660848
O 8.75063 11.8397 13.624
O 7.87548 0.389887 2.03893
O 8.3581 14.9054 2.49518
O 10.1112 10.152 3.30046
O 7.25812 16.5559 3.76048
O 9.83515 12.252 4.5423
Si 9.39926 12.4556 0.557689
Si 12.4482 7.73699 15.5703
Si 11.9371 17.2492 2.04739
Si 12.2252 8.58944 1.35803
Si 9.47223 9.71949 1.94277
Si 14.3281 16.0154 2.93085
O 11.5435 11.5795 7.82099
O 0.457651 9.3517 7.66286
O 10.717 8.62917 1.87558
O 2.17883 14.8605 2.64611
O 11.6629 8.37534 16.738
O 15.4388 15.2775 1.93015
O 10.2839 10.8185 0.827783
O 14.737 17.6611 2.74153
O 10.717 16.3039 2.15639
O 15.0889 11.2761 1.23958
O 12.0701 17.855 3.81743
O 13.0902 16.1509 1.92093
Si 13.544 2.47258 8.18931
Si 3.27852 1.0824 8.949
Si 0.726493 5.96186 9.29734
Si 5.85819 1.71083 10.3625
Si 14.0709 17.5643 7.46879
Si 3.74623 5.27579 9.00114
O 15.398 5.24986 10.4797
O 5.88179 0.456189 11.5061
O 2.18263 1.97402 9.50283
O 6.30305 7.94613 9.00223
O 0.809448 15.7569 8.51159
O 5.10794 5.14649 8.27793
O 14.1875 1.08908 7.87373
O 2.19526 5.40103 9.2216
O 3.71235 3.8303 10.201
O 7.42257 1.97741 9.89952
O 15.4373 7.57855 9.38096
O 5.61896 2.95304 11.3657
Si 5.62026 4.97373 6.72637
Si 6.72244 0.925669 6.10869
Si 5.71728 8.68377 10.2236
Si 9.13639 5.05592 9.26156
Si 8.13091 2.33867 8.20637
Si 7.68886 7.6915 8.18961
O 4.77402 5.86112 10.3962
O 10.2495 16.8003 12.418
O 8.65122 4.0586 8.09542
O 8.47121 8.70127 9.20976
O 7.79133 1.88806 6.80431
O 8.05658 6.24652 8.96064
O 8.51737 3.28347 3.96245
O 9.60368 5.21635 5.18513
O 7.35971 8.851 7.06377
O 10.5669 5.84726 8.82341
O 6.00627 10.6499 10.0378
O 9.26678 4.49046 10.7582
Si 11.5609 4.50876 3.15203
Si 12.6962 0.757534 4.8521
Si 9.19971 9.75051 10.0703
Si 1.53052 2.05379 10.9943
Si 10.7527 1.47827 7.19185
Si 14.9294 6.17838 6.5864
O 10.6964 10.0896 10.536
O 12.6372 17.1813 11.1888
O 11.9395 1.74512 8.28428
O 0.0452944 5.27526 7.95551
O 10.6057 17.8291 7.24521
O 14.2422 3.42102 9.27253
O 9.54897 1.72973 8.40155
O 14.2366 11.7264 8.40834
O 13.3988 5.73054 6.44459
O 13.3761 16.8985 8.63765
O 9.26459 10.9775 8.81777
O 0.376791 3.06524 11.312
Si 14.1547 12.8005 7.23398
Si 2.65886 9.06861 4.67174
Si 14.003 14.0603 11.5815
Si 3.08927 14.6179 9.93339
Si 0.565846 8.86182 9.45891
Si 1.49408 17.1047 7.26538
O 5.88219 15.7315 14.5449
O 2.01221 9.21531 9.59478
O 3.92284 10.7146 7.719
O 2.20249 15.8533 6.48612
O 2.19625 8.3535 6.24661
O 4.17773 15.0972 4.05138
O 15.5347 13.5899 7.60831
O 2.29211 17.9283 8.28687
O 15.2282 14.1338 12.5592
O 2.30766 13.8992 8.74489
O 15.5516 17.2852 6.85163
O 3.43596 11.3375 12.8824
Si 4.69169 13.6678 4.65848
Si 6.81249 9.56253 5.85668
Si 6.05294 14.9663 8.9479
Si 10.2605 12.1811 8.30023
Si 4.24599 11.3509 6.28487
Si 7.70059 16.0282 6.83
O 4.50843 14.8095 9.00438
O 8.11361 10.2601 11.1942
O 11.2975 10.6682 5.47926
O 11.5604 1.4352 5.64698
O 5.67726 10.4541 6.18967
O 8.57632 14.7724 6.03292
O 4.58536 12.8178 5.87554
O 6.94077 17.3032 6.37231
O 6.38052 15.2809 7.33638
O 9.92831 13.1677 9.46708
O 5.75156 16.3911 9.74828
O 9.85288 13.1019 6.87664
Si 10.0571 14.2982 5.88517
Si 0.382571 8.94766 6.17515
Si 10.2606 16.6787 8.18671
Si 14.2194 11.3113 9.90696
Si 12.1551 10.7401 6.76012
Si 12.6315 16.0792 9.995
O 8.55649 16.5114 8.21708
O 13.0679 10.3379 10.1276
O 1.14625 9.62563 4.49459
O 14 15.3492 10.3852
O 13.3729 11.8554 6.11185
O 2.46368 17.3174 4.36964
O 10.4558 15.3254 7.16101
O 13.5164 17.6606 6.00242
O 11.0818 16.4267 9.42943
O 15.4066 10.2333 9.77679
O 11.5075 1.214 15.2268
O 13.9175 12.6301 10.8619
Si 14.6544 3.84309 10.7691
Si 6.47922 1.14455 15.5051
Si 1.83609 6.67282 15.678
Si 4.23449 1.7555 1.92163
Si 4.06846 2.57063 15.9601
Si 3.73514 4.97103 14.272
O 0.551914 5.58534 15.9756
O 5.37523 17.9329 15.952
O 3.92156 1.9085 0.352242
O 4.59319 6.27684 14.7481
O 2.71251 2.06906 12.0876
O 3.78525 4.51308 12.8288
O 0.225506 0.906548 14.1034
O 4.39822 9.06076 9.43543
O 2.0379 5.89119 14.1662
O 5.41535 15.6194 11.8508
O 1.47623 8.18532 15.8556
O 4.29147 5.2108 1.37322
Si 4.70418 4.38842 11.387
Si 4.78625 16.9256 10.9732
Si 5.99613 7.07054 15.039
Si 11.8724 2.77823 15.2501
Si 8.86706 2.8211 14.8553
Si 7.19063 7.0217 12.1447
O 6.81563 5.93541 15.8739
O 9.89874 0.835773 0.0939076
O 7.71554 1.61132 14.4996
O 8.71643 7.52996 12.811
O 10.3193 3.35324 15.4474
O 7.75394 5.47216 12.4038
O 5.57593 2.794 15.65
O 6.73014 8.41259 11.4243
O 6.63633 7.28694 13.5335
O 12.9977 2.78604 14.0359
O 4.06031 3.20254 2.56712
O 7.88629 3.82651 15.8917
Si 8.84201 4.39497 12.244
Si 11.896 17.3501 12.6018
Si 9.97456 6.75286 13.791
Si 15.1116 0.342501 12.4724
Si 12.8278 2.3089 12.4185
Si 11.4418 7.21029 8.81173
O 9.09312 6.12579 15.1206
O 14.4756 0.889301 16.0273
O 14.53 16.9739 13.3409
O 3.5397 3.90273 15.3365
O 12.023 16.0983 13.5281
O 12.6546 7.22769 8.21371
O 9.97256 5.52782 12.7939
O 11.8342 7.74533 10.2957
O 13.4872 3.81716 11.8282
O 14.1189 1.42798 12.0472
O 11.4802 7.15169 14.3562
O 0.759045 0.62281 11.3528
Si 0.35776 13.4223 13.7579
Si 3.317 10.0891 9.20212
Si 1.9555 15.722 15.7781
Si 4.09081 12.2136 11.5895
Si 1.9218 10.885 13.1599
Si 3.57226 1.04125 13.053
O 1.6419 15.4822 0.312833
O 1.8023 10.4345 14.6124
O 5.63611 12.2413 12.1316
O 2.84571 17.8395 13.0959
O 1.71186 10.0705 11.7018
O 8.64339 3.78187 13.7504
O 1.10698 12.1577 13.2452
O 3.36243 16.0115 10.4594
O 1.38475 14.4473 14.8338
O 9.08286 13.9781 11.8189
O 3.43756 1.65743 14.7234
O 3.54551 13.7156 11.2492
Si 1.36854 14.3983 7.54028
Si 6.9133 11.3052 11.3909
Si 6.49983 15.5605 13.0067
Si 9.32619 10.9809 14.9816
Si 8.55717 13.5957 10.2954
Si 9.23881 16.4069 13.7222
O 4.06509 13.7571 1.5028
O 9.62203 14.9558 14.4788
O 7.10343 14.0483 13.4574
O 9.57575 12.2554 16.0784
O 7.50075 12.514 10.6925
O 7.64293 14.8626 9.58463
O 3.77246 11.2427 10.4111
O 11.9042 1.03111 12.7649
O 7.72806 16.6012 13.1332
O 10.8743 10.5984 14.768
O 9.09183 16.5666 0.505234
O 8.09319 10.0154 15.6486
Si 11.605 14.5006 13.5769
Si 12.0881 9.33095 10.7842
Si 11.0221 0.0367906 16.1361
Si 14.1863 10.5914 0.0532441
Si 12.0317 10.1319 13.9139
Si 13.2636 12.7211 15.334
O 10.1207 17.2565 14.9241
O 13.6189 9.42879 1.02848
O 12.9557 9.0877 14.9646
O 0.747227 16.8395 15.446
O 11.7166 9.42633 12.5189
O 14.6928 13.0386 14.6358
O 12.9341 11.5024 14.1741
O 12.5444 14.3282 12.1873
O 12.2584 13.7901 14.7156
O 15.0605 9.80156 16.1984
O 12.1226 17.603 0.422331
O 13.3652 11.7715 16.5347
324
 Atoms. Timestep: 11500
Si 0.443438 5.05476 0.366037
Si 4.58401 16.5176 15.6853
Si 5.24436 7.17977 4.64451
Si 3.90968 2.15889 5.88967
Si 2.12143 0.780597 3.93231
Si 4.90741 4.94969 2.66401
O 4.90788 5.96573 5.77174
O 4.59988 1.48016 9.44407
O 2.41629 2.10135 5.05271
O 6.64442 8.0325 16.7674
O 3.15072 1.05173 2.81339
O 3.14339 5.29762 2.97277
O 1.95951 5.04296 0.796668
O 2.88696 6.74952 16.8822
O 5.38969 6.36454 3.3767
O 5.3106 1.44845 5.86258
O 3.91082 7.9145 4.60433
O 4.22462 3.70156 6.21521
Si 2.91826 6.12497 1.18907
Si 8.343 17.6864 0.556186
Si 7.87738 4.90194 4.72825
Si 9.28094 2.65312 3.31106
Si 6.51114 0.0978776 3.07447
Si 8.77513 5.37833 2.02029
O 6.73572 4.39723 5.75048
O 7.17199 0.680943 4.34987
O 8.92249 3.67735 2.12193
O 12.4546 4.40286 1.624
O 7.20669 0.127014 16.5788
O 9.11539 5.69936 0.529526
O 5.23235 0.61204 2.10856
O 8.96241 8.8355 0.886336
O 8.08152 5.79857 3.43383
O 10.913 2.92208 3.40748
O 6.24977 8.28729 4.81928
O 10.2522 5.45237 2.67302
Si 8.64698 5.30906 16.1445
Si 15.1913 0.0696988 15.5749
Si 14.1224 4.4424 4.97321
Si 14.9176 0.940723 2.98207
Si 14.7466 2.21053 0.247272
Si 13.0465 5.44503 0.59691
O 12.7116 4.83286 4.10644
O 13.8104 0.939711 4.09279
O 14.9682 1.87382 1.73042
O 12.7105 6.8169 1.55811
O 13.4666 2.18004 16.403
O 0.184527 3.4302 0.0296359
O 14.5771 5.4903 0.89197
O 13.1954 6.19876 16.3502
O 0.201876 4.36498 5.25358
O 0.686022 1.20585 3.60254
O 0.0360664 7.80018 5.71336
O 13.6342 3.94596 6.48796
Si 1.10913 14.9017 1.33704
Si 1.37018 9.95731 16.177
Si 2.8957 15.6629 3.70111
Si 4.34834 12.4496 2.03162
Si 1.39386 11.8638 1.26157
Si 4.91382 15.3652 1.37097
O 13.0013 14.2119 7.32226
O 3.53776 10.5037 5.33404
O 2.8008 12.1451 2.01893
O 6.3443 14.5604 2.01507
O 2.09151 10.795 0.1605
O 2.99817 16.3634 15.1029
O 1.19492 13.2265 0.651796
O 4.78363 16.3105 0.172574
O 4.1815 15.6174 2.75507
O 5.69751 11.8414 1.87257
O 3.25175 1.65242 7.41961
O 4.42208 12.8394 3.63215
Si 8.69987 13.4255 13.2629
Si 7.64917 9.20125 17.0042
Si 7.10932 15.102 3.421
Si 9.64054 10.4489 4.86465
Si 7.06099 11.2768 1.89447
Si 9.35138 15.0091 1.32634
O 5.91523 14.5855 4.53694
O 8.27054 10.1014 5.45745
O 8.04499 12.0842 0.893387
O 11.0554 14.5351 4.67034
O 6.69592 10.2145 0.687059
O 9.97999 13.4742 1.38263
O 8.78668 12.2347 14.1481
O 7.75464 17.894 2.00463
O 8.54346 15.0955 2.76317
O 9.99787 9.31259 3.63923
O 6.49273 16.4573 3.41645
O 9.0787 11.8162 4.01121
Si 9.59076 12.0142 0.730351
Si 12.704 7.48856 15.2592
Si 11.6021 17.1015 2.02273
Si 12.8307 8.31306 1.02263
Si 10.1525 9.44215 2.04201
Si 14.4221 15.926 2.60213
O 11.0616 11.9898 7.81951
O 15.1979 9.15975 7.59884
O 11.5022 8.90441 1.869
O 1.87153 14.7475 2.74796
O 12.2683 8.21485 16.6317
O 15.1201 15.2127 1.33398
O 10.065 11.0464 1.91732
O 14.9508 17.4449 2.73452
O 10.5531 15.859 1.92073
O 15.4626 11.2346 1.51913
O 11.5197 17.7505 3.54431
O 12.9579 16.3841 2.20564
Si 13.8088 2.72954 7.54979
Si 3.33801 0.809396 8.90683
Si 0.426465 5.83671 8.84678
Si 5.87837 1.57018 10.3256
Si 13.9567 17.6614 6.98401
Si 3.29692 5.39676 9.01507
O 15.1896 4.8416 9.58252
O 5.52208 0.482425 11.5165
O 2.12744 1.47014 9.74334
O 6.70509 7.88635 9.35774
O 0.110101 15.7537 8.85711
O 4.55738 4.93897 8.08717
O 14.206 1.28918 7.13403
O 1.88998 5.71056 9.74646
O 3.45653 3.93688 10.3556
O 7.23795 1.49485 9.34214
O 0.429 7.5152 8.93493
O 5.78272 3.22838 10.7613
Si 5.34891 4.77581 6.62076
Si 6.90254 1.01359 5.88732
Si 5.73779 8.48879 10.4946
Si 9.0321 5.2067 9.00622
Si 8.37744 2.32882 8.39611
Si 7.94141 7.98132 8.31585
O 4.5267 6.05471 10.1468
O 9.88533 17.1255 12.2686
O 8.3621 3.8356 8.79537
O 8.76283 8.88862 9.53165
O 7.68506 2.03367 6.94638
O 8.23046 6.22736 8.26884
O 8.73801 3.4847 4.5083
O 8.80278 5.68803 5.78008
O 7.48317 8.18935 6.84707
O 10.4392 5.97748 9.35398
O 6.23929 10.1124 10.0979
O 8.29701 5.40579 10.3775
Si 11.4879 4.43595 3.025
Si 12.4002 0.455353 4.59641
Si 9.16067 10.4132 9.97227
Si 1.52041 2.14453 11.2473
Si 11.0904 1.60583 7.16629
Si 0.346346 6.23498 5.86426
O 10.7483 10.4008 10.323
O 12.088 16.7887 10.8165
O 12.2223 2.31501 7.86461
O 0.448403 5.70031 7.28927
O 11.1701 0.0190789 7.57511
O 14.3644 2.37863 9.14357
O 9.81431 2.04353 7.94333
O 14.1834 12.6095 8.55744
O 14.1298 6.07258 5.56321
O 13.8428 17.1554 8.41803
O 8.89279 11.2937 8.69892
O 0.31524 3.00729 10.9186
Si 14.058 13.1677 7.07489
Si 2.83083 8.99891 5.04567
Si 13.7034 13.8888 11.447
Si 3.15675 14.9277 10.4542
Si 0.341963 9.0712 9.25431
Si 1.10389 17.11 7.60512
O 5.2567 15.2745 14.5759
O 1.97775 9.35113 9.17136
O 3.51238 10.6329 7.81094
O 1.44589 15.6921 6.95573
O 2.08918 8.85269 6.64873
O 3.20441 14.8171 5.05341
O 15.5143 13.9266 7.12114
O 2.49514 17.5072 8.42927
O 15.0335 14.2583 12.3629
O 2.21724 14.7261 9.0508
O 15.4456 17.3102 6.91587
O 2.4923 10.646 12.2005
Si 4.61428 13.7221 4.99355
Si 6.87703 9.32306 5.88249
Si 5.81096 15.4142 9.17972
Si 9.39066 12.6275 7.92633
Si 4.45879 11.0766 6.56851
Si 7.77316 16.258 7.0297
O 4.57442 14.5205 9.62437
O 8.24365 10.803 11.1504
O 10.8773 10.8345 5.65723
O 11.5895 1.34796 5.71454
O 5.47803 9.91948 6.71211
O 8.67387 15.7374 5.76107
O 4.53802 12.4421 5.90837
O 6.69606 17.6138 6.54844
O 6.84235 15.9998 8.18617
O 9.38707 13.5101 9.1907
O 5.65893 16.708 10.0904
O 9.97221 13.7471 6.95293
Si 9.82705 14.6398 5.62749
Si 0.356099 9.26099 6.08415
Si 10.5245 16.7617 7.96117
Si 13.978 11.3166 9.51651
Si 11.9397 11.059 6.8005
Si 12.9625 16.2737 9.65536
O 8.96562 17.0364 7.8641
O 13.1048 10.1137 10.0091
O 1.31485 9.29563 4.58611
O 13.6112 14.9339 10.2119
O 13.1544 12.0213 6.28808
O 2.24534 16.9351 4.01635
O 10.8195 15.9209 6.45333
O 12.9682 17.3466 5.6951
O 11.7389 16.0625 8.61056
O 15.4462 10.6097 9.68885
O 11.8599 0.383824 15.571
O 13.9417 12.3444 10.8507
Si 14.6125 3.52814 10.3686
Si 6.59993 0.899258 15.3894
Si 1.9666 6.93663 15.5791
Si 4.37017 1.85854 2.17271
Si 4.27601 2.60337 16.2176
Si 4.16481 5.13852 14.1952
O 0.624275 5.77064 15.9536
O 5.36762 17.692 14.9073
O 4.09849 2.34317 0.61542
O 5.48682 6.10862 14.427
O 2.49684 2.40505 12.6371
O 4.34374 4.55067 12.7364
O 0.386092 1.30442 14.0857
O 4.14608 8.87811 10.3605
O 3.00836 5.96845 14.7652
O 6.13277 16.4195 12.1996
O 1.28816 8.38088 15.8467
O 4.63349 5.45086 1.16822
Si 4.82219 4.65419 11.1536
Si 4.87967 17.1318 11.5715
Si 6.23362 7.13932 15.5394
Si 12.1805 1.90246 15.3975
Si 8.99624 2.76463 14.3473
Si 7.38411 7.57401 12.8904
O 7.14036 5.87182 16.0366
O 9.69648 0.174578 17.1081
O 8.08227 1.55316 14.9513
O 9.17197 8.1307 13.1877
O 10.5323 2.2041 14.8928
O 7.58218 6.05864 12.8586
O 5.7223 2.00646 15.9903
O 6.32471 7.86056 11.7644
O 7.12318 7.84648 14.4959
O 12.9214 1.94875 14.0328
O 5.03936 3.34962 2.4328
O 8.66886 3.88635 15.5524
Si 8.64381 5.01767 12.0906
Si 11.6668 17.1898 12.2263
Si 10.1022 6.89456 13.8596
Si 15.4514 0.243024 12.829
Si 12.8961 1.87718 12.3359
Si 11.9263 6.66153 9.44644
O 9.12521 6.38081 14.9545
O -0.032382 0.906651 16.844
O 14.7237 17.4037 14.0634
O 4.2855 3.91228 15.203
O 11.7962 16.0701 13.411
O 12.9292 5.81838 9.70264
O 9.93206 5.57904 12.755
O 11.6173 8.05772 10.5323
O 13.3757 3.10569 11.274
O 13.9668 0.744194 12.2307
O 11.4669 6.57031 14.4696
O 0.653906 0.796615 11.4972
Si 0.160587 13.6107 13.6244
Si 3.32574 9.99504 9.33701
Si 1.73268 15.7234 15.7173
Si 3.44805 12.0568 11.4562
Si 1.2255 10.8939 13.0854
Si 3.29006 1.13315 13.4777
O 1.88922 15.8325 0.100106
O 1.84162 10.8921 14.7432
O 5.07535 11.9115 11.1365
O 2.56244 -0.0792458 13.4747
O 0.257922 9.59945 13.4027
O 8.56441 3.44531 12.8899
O 0.347615 12.1276 13.1008
O 3.81703 15.8815 11.4941
O 0.894581 14.7876 14.468
O 8.72175 13.2494 11.7807
O 3.47031 1.47466 15.218
O 3.0453 13.5217 11.0634
Si 0.91701 14.444 8.36231
Si 6.56312 11.3306 11.1081
Si 6.38891 15.6025 13.512
Si 9.3541 11.0001 15.1284
Si 8.11682 13.7563 10.2954
Si 9.22086 16.4116 13.6809
O 4.23232 13.854 1.04321
O 9.64909 14.6773 14.5652
O 7.26217 14.2067 13.4624
O 10.1732 11.048 16.5651
O 7.05175 12.4188 9.9058
O 6.92405 14.6987 10.2964
O 3.26375 11.3385 10.0428
O 11.7523 0.681168 12.402
O 7.58753 16.4207 14.2686
O 10.4346 10.2369 14.2777
O 8.79396 16.2125 0.547534
O 8.21615 10.0973 15.7263
Si 11.423 14.4561 13.4011
Si 11.861 9.59705 10.8721
Si 10.9242 17.4649 16.2318
Si 14.3564 11.1569 0.207397
Si 11.9901 10.1465 14.0809
Si 13.1543 12.7753 15.2142
O 9.9989 17.1582 14.8427
O 13.7275 9.68346 0.64047
O 12.7976 8.74639 14.4442
O 0.827847 17.1485 15.4101
O 12.0201 10.1218 12.4245
O 14.5771 13.2079 14.7419
O 12.7067 11.3084 14.8822
O 12.4301 13.8624 12.348
O 12.1119 13.8924 14.641
O 15.4224 10.1887 16.3105
O 11.7142 17.3371 0.407402
O 13.3676 12.5256 16.8289
324
 Atoms. Timestep: 12000
Si 0.562336 4.59018 0.340722
Si 4.96495 16.4932 15.531
Si 5.39268 7.18142 4.69102
Si 3.80177 1.87708 6.18451
Si 2.01945 1.12426 3.50585
Si 4.73973 4.97737 2.57425
O 4.53343 6.28306 5.88748
O 4.72024 1.3655 9.37778
O 2.87682 1.71364 4.85481
O 7.06767 7.6572 16.9075
O 2.58225 1.3189 2.03792
O 2.90199 5.83706 3.01344
O 1.89894 4.89336 1.19929
O 2.40943 7.02678 0.0962107
O 5.51684 6.10959 3.30226
O 5.29124 1.36656 6.17137
O 4.25056 8.12865 4.05128
O 4.28953 3.44778 6.08995
Si 2.6172 6.43193 1.53738
Si 8.08529 18.032 0.698025
Si 7.59956 5.05359 4.96761
Si 9.54744 2.91127 3.74434
Si 6.54425 0.644397 3.22985
Si 8.87183 5.22475 2.12697
O 6.35437 4.54889 5.77251
O 6.86198 1.58294 4.42476
O 9.05089 3.58685 2.29128
O 12.6212 4.56074 1.22122
O 6.83973 0.250124 16.8198
O 8.53101 5.37238 0.592691
O 4.93889 0.728313 2.67271
O 8.81036 8.59433 1.29452
O 8.39419 5.69774 3.56289
O 11.3154 3.38538 3.38729
O 6.53386 8.3433 4.966
O 10.5159 5.62371 2.06425
Si 8.85949 5.1491 16.2789
Si 15.3003 17.5769 15.2476
Si 14.2734 4.12189 4.63409
Si 14.7354 0.927211 2.60294
Si 14.3652 2.2981 16.8196
Si 13.3262 5.40118 0.214695
O 13.2935 4.89028 3.53882
O 13.525 1.49321 3.78499
O 14.6436 1.95526 1.30679
O 13.4892 6.95878 0.830709
O 13.3267 2.85113 15.8315
O 15.6069 3.30117 16.6147
O 14.917 5.15968 0.811613
O 13.4977 6.09227 15.8335
O 0.289796 4.96887 4.55758
O 0.49443 1.32141 3.37268
O 0.273361 7.26392 5.34129
O 14.3819 3.18093 5.95768
Si 1.07884 14.6688 1.09409
Si 1.2229 9.8338 16.2305
Si 2.90665 15.9769 3.33907
Si 4.12391 12.2867 2.00107
Si 1.07451 11.3751 1.62154
Si 4.5495 15.1542 1.14734
O 13.4717 14.2296 7.9427
O 3.89232 10.2329 5.09325
O 2.77354 11.4787 2.30588
O 5.72768 15.3975 2.05716
O 1.73736 10.7487 0.35365
O 3.28995 16.2743 15.2594
O 1.01307 13.1003 1.32181
O 5.01741 15.8521 17.0034
O 3.46064 16.3728 1.9057
O 5.50896 11.6196 1.3014
O 2.96133 2.02825 7.63498
O 4.84599 12.7769 3.39781
Si 8.69147 13.2322 13.4064
Si 8.05815 8.94591 17.1073
Si 6.69658 15.5515 3.43781
Si 9.4303 10.6412 4.87632
Si 6.89789 11.0842 1.80313
Si 9.0236 15.0781 1.73858
O 6.21517 14.5634 4.54131
O 8.66344 9.40327 5.69691
O 8.1017 11.9864 1.17299
O 10.2255 14.1861 4.75723
O 6.99824 9.82515 0.944606
O 9.71739 13.8094 1.11855
O 8.698 11.4144 13.7021
O 7.56073 0.825578 1.97367
O 8.03422 14.9065 2.95448
O 9.94954 9.5673 3.66275
O 7.02823 17.0324 3.50912
O 8.33522 11.2354 3.8278
Si 9.65887 12.1352 1.02083
Si 13.0117 7.56088 14.972
Si 11.631 16.6366 2.1244
Si 12.5218 8.18827 0.630891
Si 10.1513 9.07948 2.20787
Si 14.4815 16.0347 2.35297
O 10.8829 12.7596 7.76413
O 0.147772 9.26512 7.21614
O 11.7004 8.72861 1.9289
O 1.8016 14.9867 2.53364
O 11.9553 8.11198 16.1936
O 15.13 15.1853 0.891801
O 10.1364 10.6645 1.36031
O 14.9236 17.4037 1.95514
O 10.3152 15.8447 2.52619
O 15.2799 10.9522 1.33232
O 11.979 17.6668 3.36418
O 12.9956 15.9045 2.02012
Si 13.8487 2.51003 7.15522
Si 3.27831 0.882043 8.90648
Si 0.378329 6.14053 9.28803
Si 5.92891 1.78861 10.1588
Si 14.2295 17.4974 7.02532
Si 3.4824 5.7335 9.38486
O 15.3504 5.04875 10.0554
O 5.94384 0.606883 11.4075
O 2.59344 1.37696 10.235
O 6.27984 7.57864 9.79892
O 0.404139 15.9921 9.1144
O 4.00218 4.91935 7.98412
O 14.4987 1.04973 7.2538
O 1.94204 6.01198 9.32742
O 3.2502 4.25456 10.3983
O 7.40473 1.67151 9.50092
O 0.131502 7.78624 9.15131
O 5.40516 2.97442 10.9956
Si 4.99468 4.7988 6.61186
Si 6.77283 1.5708 5.9808
Si 5.35843 8.64565 10.7401
Si 9.2417 5.07289 9.49193
Si 8.35974 2.43196 8.39684
Si 7.6512 7.626 8.98364
O 5.09723 5.54613 10.1288
O 10.0477 17.0748 12.8483
O 8.44854 3.91549 8.47253
O 8.64561 8.75692 9.55595
O 7.07297 2.51655 7.26457
O 8.14536 6.30649 9.50532
O 8.80677 3.83533 4.835
O 8.19174 5.904 6.06402
O 7.32091 8.2331 7.49862
O 10.8119 5.52852 9.64425
O 6.00769 10.1369 9.8544
O 8.9856 4.67613 10.9869
Si 11.813 4.74911 2.83564
Si 12.5755 0.460438 4.44855
Si 9.06976 10.3124 9.58497
Si 1.39817 1.68896 11.0637
Si 11.0298 1.31874 6.82998
Si 0.239434 5.89421 6.02271
O 10.2992 10.2888 10.4325
O 11.9921 16.7455 10.9285
O 12.2918 2.11267 6.92803
O 15.6775 5.85108 7.75183
O 11.0636 0.0719834 7.76484
O 14.093 3.34978 8.65458
O 9.68575 2.0457 7.43003
O 14.0039 12.0718 8.69188
O 14.1735 5.51235 5.70262
O 13.6628 17.0731 8.48641
O 8.91982 11.1623 8.38643
O 0.286835 2.61836 10.2628
Si 14.2967 13.2316 7.40037
Si 3.05897 9.32833 4.20612
Si 13.8883 13.9556 11.3191
Si 3.62252 14.6915 11.0409
Si 0.272173 9.21631 8.75937
Si 1.32601 16.7748 7.70519
O 5.90316 15.3982 14.8803
O 1.75715 9.474 8.88822
O 4.14066 10.5402 7.65908
O 2.11123 15.1531 7.74959
O 2.40353 8.5009 5.62991
O 3.77116 14.8954 4.43005
O 0.154803 13.9005 7.7965
O 2.04197 -0.0580194 8.4072
O 14.792 14.176 12.6384
O 2.38294 14.7033 10.042
O 0.0349396 16.8693 6.69114
O 2.94511 11.1622 12.7837
Si 4.8307 13.703 4.76006
Si 7.1626 9.1846 6.006
Si 5.87305 15.4849 9.27007
Si 9.30878 12.6673 7.78436
Si 4.8148 11.0689 6.17801
Si 7.61742 17.0874 7.43743
O 4.81053 14.5676 9.83543
O 8.08383 10.9546 10.7165
O 10.8579 11.1074 5.62465
O 11.0788 0.740017 5.39353
O 6.34334 10.5757 6.01807
O 8.29089 16.0447 6.35284
O 4.55005 12.6401 5.96355
O 7.61595 0.258167 6.49713
O 6.44929 16.3408 8.13175
O 8.90209 13.4752 9.02766
O 5.66177 16.8581 10.0726
O 8.80994 13.8423 6.48264
Si 9.40388 15.0522 5.64431
Si 0.680584 8.84198 5.43875
Si 10.4138 16.5593 7.8892
Si 14.0785 11.3463 9.99572
Si 11.8161 11.4279 6.82212
Si 12.6698 16.3125 9.69582
O 8.8343 17.4716 8.66089
O 12.6652 10.5545 10.0791
O 1.43611 9.97696 4.27346
O 13.3075 14.8694 10.0864
O 13.1999 12.0713 6.34167
O 2.25844 17.6013 3.64627
O 10.8234 15.5382 6.58408
O 13.6836 17.6598 5.41482
O 11.2774 15.8266 8.92688
O 15.0474 10.2732 9.34895
O 11.5581 0.750982 15.6819
O 14.1617 12.3613 11.092
Si 14.5962 3.65699 10.3766
Si 6.58987 0.853061 15.2891
Si 1.85304 6.67629 15.8815
Si 4.1194 1.73853 1.57634
Si 4.45994 2.99981 15.9876
Si 4.30991 5.50487 14.1279
O 0.757093 5.70118 16.2135
O 5.17108 17.8857 14.6422
O 3.84604 2.10075 0.0825414
O 5.04598 6.47821 14.9681
O 1.82171 2.27264 12.5212
O 3.86303 4.88275 12.797
O 0.705335 0.147508 13.8118
O 4.11279 8.58552 9.7258
O 2.92113 5.70616 14.8733
O 5.69043 16.3813 12.6014
O 1.44925 8.28403 15.6644
O 4.48955 5.79845 1.10464
Si 4.64939 4.24366 11.4341
Si 5.0337 17.3571 11.4616
Si 6.45461 6.88436 15.6906
Si 11.8899 2.26128 15.1483
Si 8.90029 2.69296 14.6176
Si 7.5548 7.63432 13.0119
O 7.43534 5.65222 15.5866
O 9.49295 0.288118 0.0681722
O 8.03763 1.3321 14.7811
O 8.98887 7.70942 13.7762
O 10.5109 2.56762 14.2787
O 7.42507 6.13465 12.7092
O 5.75992 2.14059 15.7125
O 6.02291 8.16138 12.147
O 6.95597 7.82494 14.5829
O 12.6427 1.94148 13.7262
O 4.22477 3.37678 2.12102
O 8.79627 3.66431 15.9155
Si 8.31093 4.87919 12.4122
Si 11.5472 17.2192 12.3353
Si 10.1726 6.62998 14.1667
Si 15.2877 17.5554 12.4355
Si 13.056 1.58395 12.145
Si 11.8405 6.62356 10.342
O 10.3977 5.67538 15.614
O 15.001 0.901384 15.9164
O 14.6327 16.8718 13.6912
O 4.73924 4.21012 15.0135
O 11.8988 15.7344 13.1979
O 12.2256 6.37366 11.6897
O 9.89566 5.63064 13.0038
O 11.6151 8.19286 10.319
O 13.6554 2.66939 11.2639
O 14.178 0.556623 12.3368
O 11.7787 7.23293 14.0183
O 0.945505 0.0840945 11.4305
Si 0.0191385 13.746 13.7725
Si 3.3384 9.60529 8.79827
Si 1.81883 15.8296 15.5248
Si 3.75501 11.5453 11.3712
Si 1.57847 11.1395 13.5573
Si 3.41179 1.91573 13.3471
O 1.52352 14.8503 16.8266
O 1.53298 10.7287 15.0726
O 5.36495 11.1798 12.0635
O 3.59506 0.525643 13.4074
O 0.592377 10.7314 12.3479
O 8.39648 3.70497 13.4976
O 0.970165 12.6515 13.2923
O 3.60174 16.318 11.3343
O 0.647446 15.1205 14.5991
O 8.86192 13.8307 11.8568
O 3.51176 2.34595 14.8076
O 3.63564 13.2172 11.3538
Si 1.10266 14.3978 9.02221
Si 6.69845 11.3416 11.241
Si 6.50667 15.0962 13.5087
Si 9.4575 11.0855 15.4246
Si 8.13144 13.8866 10.4632
Si 9.37717 16.2659 14.0042
O 3.89557 13.731 1.44235
O 10.1292 14.5479 14.367
O 7.35587 13.8643 13.625
O 9.58606 12.2902 16.5267
O 6.82891 12.8123 10.7716
O 7.22545 15.1137 10.2628
O 3.46843 10.7919 10.0178
O 11.5938 0.885198 11.98
O 7.77068 16.2946 13.5882
O 10.9196 10.7985 14.9078
O 8.27318 16.5517 1.331
O 8.98683 9.85488 16.2656
Si 11.4919 14.1578 13.1815
Si 11.7605 9.67024 11.0226
Si 10.8449 17.7364 16.5371
Si 14.1741 10.7123 0.141493
Si 12.0441 10.1905 14.0963
Si 13.1645 12.7487 15.2488
O 9.93268 16.8261 15.2942
O 13.405 9.4372 0.527508
O 13.1241 9.09836 14.3443
O 1.26698 17.4147 16.3212
O 11.536 9.72369 12.6423
O 14.702 13.0979 15.0072
O 12.9657 11.581 14.0204
O 12.4226 13.6334 11.9257
O 12.5175 13.8022 14.3321
O 15.3893 9.77333 16.4821
O 11.5464 16.9939 0.546897
O 13.3516 11.7517 16.542
324
 Atoms. Timestep: 12500
Si 0.385262 4.32814 16.9466
Si 4.81392 16.1634 15.2451
Si 5.41006 7.14621 4.63193
Si 3.34734 2.45696 5.89969
Si 2.0322 0.640927 3.55554
Si 4.34901 4.83123 2.6666
O 4.57568 6.3886 5.86676
O 4.903 1.80432 8.85922
O 2.48714 1.72135 4.82513
O 6.93328 8.28978 16.5501
O 2.98445 1.22922 2.36215
O 2.51975 5.79779 3.10486
O 1.87227 4.46064 0.79139
O 2.57481 7.09838 0.0448064
O 5.02225 5.86796 3.49392
O 4.77246 1.91446 5.83481
O 4.52003 8.39754 4.25091
O 3.89282 3.93479 6.17973
Si 2.12951 6.01917 1.56489
Si 8.41184 0.404794 0.952062
Si 7.95077 5.30615 5.26945
Si 9.56773 3.17067 3.75116
Si 6.46934 0.506133 3.23382
Si 8.60823 5.54472 2.36221
O 6.49506 4.59633 5.75707
O 6.83436 1.40571 4.57329
O 8.89355 3.80934 2.40385
O 12.2639 4.8349 1.6786
O 7.22302 0.753467 17.1195
O 8.22566 5.74144 0.793999
O 5.57267 1.14963 2.1976
O 9.08291 9.11504 1.05717
O 7.76479 5.66885 3.75116
O 10.8543 4.00068 3.91249
O 6.55442 8.01802 5.35958
O 10.1254 6.09339 2.5968
Si 8.15643 5.36486 16.4113
Si 15.2364 17.6303 15.0071
Si 13.6938 4.32581 5.05864
Si 14.7368 0.872452 2.60882
Si 14.0952 1.78608 16.7884
Si 13.4012 5.56394 0.791656
O 13.1049 5.23646 3.78289
O 13.5691 0.904192 3.72831
O 14.1135 1.37114 1.17648
O 13.9659 7.13423 1.14422
O 12.8398 2.73228 15.9351
O 15.2166 2.87294 16.5058
O 14.8896 4.87371 0.841287
O 13.6108 5.94603 16.2114
O 15.37 4.36966 4.74565
O 0.532729 1.29777 3.22882
O 0.30987 7.13293 5.45596
O 13.5874 3.31793 6.3997
Si 0.979999 14.3387 1.15045
Si 0.929828 9.65139 15.9116
Si 2.73734 15.6647 3.38834
Si 4.11657 12.7375 2.19304
Si 1.28366 11.4268 1.32059
Si 4.83282 15.2986 0.974939
O 13.065 13.8746 7.51161
O 3.67152 10.4998 5.43056
O 2.89124 11.7327 1.64588
O 5.9809 14.9836 1.96983
O 1.66962 10.4305 17.0453
O 3.33268 16.4401 15.5927
O 1.0977 12.8195 0.567844
O 5.19685 15.3948 16.5919
O 3.83075 15.8339 2.34977
O 5.46941 11.8865 1.96117
O 2.88696 1.71635 7.31566
O 4.15354 12.8267 3.76853
Si 9.10046 13.3016 13.4276
Si 7.80175 9.2544 0.279003
Si 6.59481 15.4877 3.44111
Si 9.02127 11.0894 4.64169
Si 6.94833 11.2641 2.03965
Si 8.92709 15.5221 1.56327
O 5.69659 14.5854 4.34356
O 8.42285 10.1164 5.65665
O 7.97192 12.0571 1.32789
O 9.44423 13.6391 4.68094
O 6.92971 9.7839 1.3984
O 8.85508 14.2233 0.480203
O 9.35714 11.76 13.9046
O 7.86428 0.3016 2.39773
O 8.11262 15.925 2.98581
O 9.71706 9.48734 3.74537
O 5.73861 16.8788 3.54787
O 7.88414 11.2693 3.61453
Si 9.43108 12.6752 1.09995
Si 12.9177 7.32508 15.4424
Si 11.4871 17.2015 1.89993
Si 12.4224 8.26135 1.08873
Si 10.1606 9.90186 2.16568
Si 14.1223 15.9947 2.4897
O 10.4492 12.3227 7.5685
O 0.603849 9.18822 6.8301
O 11.3948 8.98151 2.06865
O 1.92442 14.5094 2.41324
O 11.9197 7.89721 16.6619
O 14.9932 14.8196 1.71504
O 10.4056 11.6721 2.18018
O 14.9017 17.3625 2.37267
O 10.3296 16.1505 1.92385
O 15.1985 10.9597 1.18492
O 11.5042 17.5622 3.41187
O 12.7232 15.9702 1.71729
Si 13.4783 2.24698 7.51861
Si 3.5187 0.913691 8.51452
Si 0.922929 6.05588 8.71477
Si 6.08866 1.73073 9.94016
Si 14.2373 17.4466 7.15583
Si 3.97999 5.42199 9.23852
O 15.3568 4.83827 9.4345
O 5.45141 0.766935 11.081
O 2.55639 1.39199 9.65501
O 6.38202 7.65004 9.41671
O 0.722971 15.7747 9.12518
O 4.93427 4.73546 8.1944
O 14.6375 1.1192 7.35903
O 2.49909 5.61831 8.52267
O 3.43118 4.15431 10.4272
O 7.23536 2.61006 9.20273
O 0.618524 7.64729 9.01707
O 5.62026 3.07564 10.7946
Si 5.10386 4.88691 6.55371
Si 6.31277 1.75993 6.13893
Si 5.71887 8.56186 10.6419
Si 9.47798 5.15372 9.47376
Si 8.40297 2.43673 8.15393
Si 7.90415 7.69232 8.68033
O 5.37978 5.51771 10.3439
O 10.1296 16.9742 12.6401
O 9.22481 3.72488 8.75182
O 8.81562 8.49905 9.71297
O 7.38825 2.67773 6.76211
O 8.45861 6.18272 8.79582
O 8.77028 3.82168 4.89713
O 9.27779 6.17824 5.74084
O 7.34196 8.97897 7.84915
O 10.8365 6.09169 9.7576
O 6.57258 9.99135 10.5077
O 8.80519 5.11222 10.9399
Si 11.6044 5.34819 3.16149
Si 12.5471 0.165453 4.57021
Si 9.42906 9.87282 9.85643
Si 1.41796 1.74137 10.7307
Si 10.8119 0.972576 6.89099
Si 0.279926 5.63647 5.78203
O 10.9167 9.6866 10.147
O 12.1821 16.4557 11.1509
O 12.049 1.57455 7.91185
O 0.332825 5.96506 7.27248
O 11.1913 17.4854 7.22973
O 13.949 2.92899 8.85909
O 9.59208 1.40846 7.64898
O 13.3361 11.8639 8.76858
O 13.9461 5.77578 5.9879
O 13.7193 16.6063 8.47813
O 8.87333 11.0217 8.76503
O 0.0230338 2.49682 10.5335
Si 13.8927 12.6017 7.22922
Si 3.18893 9.23199 4.35715
Si 14.1788 14.1202 11.2721
Si 3.2939 14.9328 10.5328
Si 1.02032 9.0629 8.59769
Si 1.42571 16.8079 7.79287
O 5.78652 15.5434 14.2814
O 2.15338 9.61575 9.4344
O 4.254 10.55 7.86383
O 1.79773 14.9113 7.25452
O 2.46754 8.36988 5.79066
O 3.39632 14.9393 4.52084
O 15.4833 13.445 7.78156
O 2.90788 17.3651 8.33226
O 15.3676 14.3372 12.3423
O 2.22344 13.9531 9.65823
O 0.147965 16.9503 6.78011
O 3.13734 11.2687 12.5534
Si 4.51128 13.8333 4.94583
Si 7.1362 9.28017 6.10304
Si 5.75035 15.3286 8.8286
Si 8.90086 12.4646 7.99681
Si 4.76149 11.0286 6.35949
Si 7.62472 16.8751 6.9473
O 4.51462 14.4012 9.60603
O 8.84244 10.3606 11.2638
O 10.4423 11.5472 5.08281
O 11.827 1.14248 5.52412
O 6.01533 10.2604 6.11675
O 8.37417 16.0991 5.88415
O 4.85269 12.6153 5.92357
O 6.9598 0.43815 6.75963
O 6.54279 16.0534 7.59898
O 9.0891 13.3722 9.42111
O 5.80499 16.5937 9.85621
O 8.51542 13.7039 6.89412
Si 9.16953 14.6187 5.83197
Si 0.674831 8.75479 5.35804
Si 10.2755 16.4997 8.26512
Si 14.5101 11.3467 9.78372
Si 11.2696 11.4598 6.49576
Si 12.8112 16.3068 9.63626
O 8.71512 17.0901 8.10566
O 13.5626 10.3453 10.7472
O 1.45484 9.05855 3.94895
O 13.6239 14.8086 10.0069
O 12.6191 12.1087 6.51209
O 2.11264 17.1082 3.67687
O 10.2501 15.3249 6.94849
O 13.2267 17.1885 5.73454
O 11.5588 15.7732 8.86343
O 15.3998 10.1828 9.10739
O 11.5455 0.983369 15.0803
O 14.6914 12.7098 10.7346
Si 14.4041 3.51504 10.371
Si 6.53966 0.628394 15.7585
Si 1.80033 6.73776 15.8386
Si 4.11808 2.04498 1.86169
Si 4.1765 2.97578 15.726
Si 4.11294 5.59369 14.26
O 0.620241 5.53672 15.8638
O 5.54217 17.5148 15.4001
O 3.98568 2.61077 0.348351
O 5.22568 6.63786 14.4526
O 2.17817 2.3185 11.9717
O 4.30918 5.53864 12.5794
O 0.573805 0.697964 13.8241
O 4.48097 9.16519 9.90954
O 2.89324 6.34084 14.6863
O 6.39588 16.6359 12.1068
O 1.54795 8.30906 15.3297
O 4.01805 5.47656 1.17261
Si 4.90926 4.34219 11.5215
Si 5.27372 17.1416 11.1862
Si 6.15405 7.39057 15.4203
Si 11.5635 2.58543 14.8433
Si 8.47776 2.63916 14.7506
Si 8.01613 7.56256 12.827
O 6.67406 5.99503 16.0673
O 9.59168 0.728954 -0.0887272
O 7.56855 1.32682 14.5624
O 9.55646 7.57238 13.5352
O 10.0011 2.80923 14.6139
O 7.59263 5.9312 12.627
O 5.32452 1.93527 15.5917
O 6.77963 8.32742 11.7375
O 7.22835 7.62643 14.2732
O 12.2635 2.92483 13.4377
O 4.08742 3.29364 2.79656
O 8.29514 3.86951 15.9072
Si 8.62943 4.6237 12.3944
Si 11.9191 17.03 12.7072
Si 10.214 6.48228 14.4517
Si 15.4336 17.7747 12.2753
Si 13.1514 1.86153 12.4192
Si 11.9355 6.5089 10.8996
O 9.21986 6.42661 15.758
O 14.5547 0.535446 16.005
O 14.7642 16.8235 13.4165
O 4.13765 4.61078 15.7817
O 12.2623 15.7284 13.6472
O 12.1929 5.69801 11.9299
O 9.63709 5.3316 13.5944
O 12.245 8.02478 11.0796
O 13.3727 2.74662 11.2114
O 14.4742 0.915639 12.3667
O 11.7818 6.44767 14.5119
O 1.14121 0.254009 11.3189
Si 0.513654 13.6159 13.448
Si 3.63377 10.3605 9.31742
Si 1.86173 15.4818 15.5455
Si 4.18522 12.3038 11.6609
Si 1.69735 10.8325 13.0462
Si 3.20417 1.65529 13.1783
O 1.75777 15.0427 17.0788
O 1.50681 10.6192 14.606
O 5.57715 11.603 12.009
O 2.69925 0.398821 13.3478
O 0.786637 9.57662 12.4481
O 7.99005 3.50897 13.5039
O 1.12274 12.3293 12.8493
O 4.09803 16.1897 11.6193
O 1.67975 14.2619 14.5648
O 9.24087 13.2923 11.782
O 2.96411 2.41987 14.9038
O 3.70418 13.8353 11.6639
Si 1.2135 14.2148 8.48839
Si 7.12974 11.1042 11.3961
Si 6.90219 15.194 13.138
Si 9.55755 11.2729 15.4879
Si 7.99892 13.7759 10.651
Si 9.48358 16.1763 14.0823
O 4.06131 13.846 1.14102
O 10.3161 14.9403 14.7943
O 7.70392 13.783 13.9982
O 9.96784 12.0528 16.82
O 7.38717 12.3322 10.5437
O 6.89634 14.4266 9.64929
O 3.63685 11.726 10.2698
O 12.0543 0.694691 12.4015
O 8.03558 16.0838 13.5963
O 10.5888 10.2242 14.7811
O 8.21637 16.7538 0.659807
O 8.31113 10.1934 15.9994
Si 11.7683 14.2787 13.6692
Si 12.1508 9.63066 11.0909
Si 10.8395 0.228403 16.1829
Si 14.0438 10.64 0.172227
Si 11.9741 9.99322 14.1205
Si 13.8568 12.6426 15.1481
O 9.92591 17.2787 15.1173
O 13.1634 9.50484 0.714783
O 12.7271 8.69979 14.5276
O 0.776844 16.6007 15.2082
O 11.9505 10.3621 12.5881
O 14.9482 13.6816 14.7235
O 13.0424 11.1195 14.8487
O 12.9143 13.9417 12.3361
O 12.5123 13.6299 15.0612
O 14.9835 10.0707 16.036
O 11.7116 17.5143 0.242719
O 14.0059 12.3218 16.8128
324
 Atoms. Timestep: 13000
Si 0.295718 4.54462 17.1279
Si 4.89788 16.4226 15.3863
Si 5.16574 7.31834 4.52455
Si 3.76459 2.52481 5.92479
Si 2.0741 0.997996 3.72676
Si 4.36001 4.91162 3.013
O 4.57168 6.36137 5.82971
O 4.59607 1.45562 9.07861
O 2.66978 1.86288 4.95059
O 6.37394 8.72612 16.3325
O 2.77423 1.2148 2.35521
O 2.62144 5.36381 2.86839
O 1.55227 4.80346 0.952268
O 2.63951 6.75087 16.8087
O 4.83439 6.36166 3.26988
O 4.88222 1.51001 5.94346
O 3.98013 8.48646 4.16826
O 4.42215 3.81847 6.19087
Si 2.81114 5.95529 1.14362
Si 8.36102 0.57943 0.754219
Si 7.93105 5.09773 5.51306
Si 9.23636 2.92358 3.79495
Si 6.3003 0.553715 3.13125
Si 8.14721 5.42618 2.51143
O 6.54429 4.67132 6.42986
O 6.88272 1.22796 4.48298
O 8.42561 3.87446 2.65666
O 12.4121 5.02307 2.18807
O 7.18858 0.659701 16.6047
O 8.21795 5.41007 0.908235
O 5.30099 0.77653 1.98068
O 9.32601 8.88259 0.592438
O 7.54716 5.54567 4.00732
O 10.679 3.71757 3.57231
O 6.42529 7.83714 5.35797
O 9.71105 5.6428 2.77279
Si 8.12495 5.49537 16.2605
Si 0.165307 17.7331 15.3499
Si 13.2162 4.84276 5.60864
Si 14.7636 0.679471 2.64021
Si 14.198 1.90711 16.9774
Si 13.1602 5.77156 1.17469
O 12.3979 5.54401 4.45502
O 13.7613 1.04705 3.81716
O 14.3092 1.33731 1.30413
O 13.2571 7.33777 1.9647
O 12.7287 2.63745 16.2799
O 15.3983 2.95758 16.8834
O 14.5574 5.08857 0.91034
O 12.2219 5.75459 16.8211
O 14.7748 4.73467 4.96245
O 0.598635 1.17362 3.10878
O 0.186847 7.15224 4.96048
O 13.649 3.69248 6.654
Si 0.757789 14.1861 0.882743
Si 1.15718 9.78701 15.6799
Si 2.41432 15.9652 3.05992
Si 4.50722 12.4159 2.1409
Si 1.89208 11.1558 1.20764
Si 4.42811 15.2192 1.05968
O 12.498 13.5284 8.23217
O 3.68068 10.1551 5.85629
O 3.30621 11.3544 1.8615
O 5.64494 14.9485 2.02736
O 2.0179 10.7705 16.6183
O 3.40817 15.9129 15.0355
O 1.59913 12.7392 1.10383
O 5.14345 15.8531 16.869
O 3.59719 16.2687 1.95786
O 6.0182 12.4009 1.661
O 3.02587 1.89577 7.32216
O 4.38424 13.043 3.59305
Si 9.11442 13.5958 13.0352
Si 7.64028 9.43273 17.1064
Si 6.74809 15.2722 3.2711
Si 9.0482 11.152 4.71684
Si 7.37124 11.6009 2.01046
Si 9.20795 15.6356 1.41867
O 6.08308 14.5501 4.59072
O 8.05795 10.2655 5.55968
O 8.3598 12.6231 1.29231
O 9.59301 13.1032 4.78764
O 7.16498 10.2432 1.24025
O 10.1691 14.4426 0.868537
O 8.94638 12.2764 13.6546
O 7.61999 0.98292 2.19035
O 8.17856 15.0263 2.68881
O 9.68915 9.98311 3.32699
O 6.50745 16.7613 3.57646
O 7.79429 11.8875 3.73143
Si 9.80849 12.8263 0.696816
Si 12.5632 7.29692 15.7929
Si 11.5564 17.4337 2.11171
Si 13.0237 8.77978 1.37732
Si 10.0391 9.72375 1.76711
Si 14.0513 15.5023 2.44909
O 10.7348 11.7449 7.43649
O 0.124475 9.0591 7.11116
O 11.5752 9.14434 2.3058
O 1.501 14.8021 2.20997
O 12.1653 8.1683 17.1228
O 14.6775 14.7697 1.11993
O 10.2661 11.3761 1.246
O 14.529 17.0366 2.51832
O 10.3397 16.4902 2.11795
O 0.0249065 10.8598 1.51282
O 12.0032 17.4468 3.73271
O 12.6259 16.046 1.91053
Si 13.4098 2.64459 7.77531
Si 3.09393 0.740849 8.57114
Si 0.783922 5.99586 8.95938
Si 5.92372 1.61039 9.94892
Si 14.1076 17.5476 7.2104
Si 4.02982 5.642 9.66499
O 15.1704 5.23744 9.99454
O 5.85985 0.249033 10.4868
O 2.15756 1.56503 9.43993
O 7.01846 7.85235 9.69091
O 0.652402 15.8008 8.75333
O 4.84313 5.2345 8.36856
O 14.2914 1.41922 7.52044
O 2.38777 5.72212 9.27514
O 3.73369 4.03825 10.428
O 7.37426 1.7898 9.29683
O 0.553664 7.45029 9.14642
O 5.79358 3.04258 10.5258
Si 5.10007 5.15171 6.66825
Si 6.48917 1.01621 6.01744
Si 5.77321 8.55661 10.5784
Si 9.43814 5.11089 9.37807
Si 8.18371 2.38935 8.07824
Si 8.2941 7.86858 8.71648
O 5.53673 5.6359 10.7252
O 10.4246 17.3767 12.8118
O 8.52207 3.97757 8.39804
O 9.45361 8.50056 9.87616
O 7.13854 2.25098 6.81861
O 8.82747 6.39619 8.59315
O 8.66597 3.78185 5.09987
O 8.64677 6.00486 6.40642
O 8.0266 8.49143 7.16576
O 10.8773 5.76815 9.75163
O 6.28228 10.0958 10.8109
O 8.60742 4.73854 10.6013
Si 11.3326 5.17056 3.33985
Si 12.6811 0.349366 4.80393
Si 9.47705 9.93961 10.5092
Si 1.93604 1.75677 11.0105
Si 10.8611 1.16748 7.19454
Si 0.340331 5.79201 5.97195
O 10.9478 10.2745 11.1866
O 12.2937 17.1003 10.8454
O 12.0414 1.83853 7.96964
O 0.655871 5.21288 7.58691
O 10.9998 17.6855 7.67676
O 13.8513 3.4357 9.14966
O 9.53494 1.59925 8.00208
O 14.0469 11.4804 8.54791
O 14.0791 6.23558 6.44967
O 13.4766 16.9975 8.65502
O 9.27326 11.0542 9.4061
O 0.748576 2.78304 10.883
Si 13.4464 12.6497 7.57394
Si 2.79513 9.54667 4.6161
Si 13.8766 13.5798 11.1426
Si 3.35222 14.0767 10.1872
Si 0.913414 8.97537 8.48875
Si 1.38807 16.5672 7.19017
O 6.00726 15.7948 14.465
O 2.42484 9.19792 9.21002
O 4.03892 11.1226 8.05013
O 1.4904 14.5819 7.04575
O 2.04781 8.32237 5.76641
O 3.30095 15.1052 4.33982
O 14.7528 14.0569 7.77064
O 2.25778 17.4871 8.03247
O 15.0097 13.9444 12.2701
O 2.01306 13.7065 9.46711
O -0.00290335 17.2183 6.80056
O 3.41958 11.1315 13.2681
Si 4.4974 14.1265 4.85845
Si 7.04683 9.04489 6.13886
Si 6.13923 14.6509 8.81338
Si 9.37496 12.0452 8.06468
Si 4.59175 11.2739 6.44979
Si 7.74485 16.1592 6.74597
O 4.85883 13.8509 9.53724
O 8.40622 10.2922 11.6668
O 10.5848 11.1078 5.2574
O 11.6107 1.26319 5.74923
O 5.8409 10.1963 6.65198
O 8.38642 15.1847 5.59121
O 4.54433 12.9179 6.09795
O 6.66895 17.2023 6.05522
O 6.73305 14.9461 7.21954
O 9.81925 13.2032 9.25755
O 5.67059 16.1815 9.27002
O 8.7705 13.3353 6.89557
Si 9.65345 14.3132 5.82415
Si 0.32011 8.70095 5.38852
Si 10.3262 16.163 8.32747
Si 14.6146 10.85 9.93584
Si 11.5685 11.0088 6.33239
Si 12.8696 16.1307 9.75384
O 8.78876 16.3242 7.91999
O 13.3371 10.1309 10.3444
O 1.26642 10.0955 4.73933
O 13.9616 14.9919 10.3024
O 12.6769 12.2867 6.17693
O 2.14682 17.3615 3.81568
O 10.5278 15.3316 6.64742
O 13.0267 17.4796 6.11851
O 11.5865 15.5359 8.97826
O 0.185153 9.80276 9.4999
O 11.0417 1.15304 14.9638
O 14.5227 12.1092 10.8294
Si 14.8814 3.61989 10.3866
Si 6.17364 1.36781 15.6748
Si 1.58154 6.70013 15.5605
Si 4.12845 2.00934 1.77868
Si 3.77506 3.07753 16.0305
Si 3.76358 5.43491 14.1899
O 0.413454 5.683 15.8215
O 5.45936 -0.0349982 15.1899
O 3.43597 2.23158 0.4172
O 4.77407 6.84914 14.5092
O 2.99177 2.09054 12.2107
O 4.29909 4.91067 12.7452
O 0.866461 1.26145 13.9719
O 4.94652 8.90942 9.28126
O 2.32895 6.12614 14.2326
O 5.94377 16.0249 11.8798
O 0.912024 8.24011 15.9276
O 4.30725 5.31672 1.113
Si 5.06305 4.08659 11.5425
Si 4.96815 16.6923 10.535
Si 5.99067 7.43842 15.3204
Si 11.6024 2.64319 15.1372
Si 8.57164 2.92558 14.9331
Si 7.72768 7.39842 12.8545
O 6.5748 6.23174 16.0291
O 9.53594 0.547234 16.8333
O 7.08582 2.14568 14.6353
O 9.24298 7.59075 13.3375
O 10.3014 3.42414 14.8589
O 7.47833 5.74028 12.5758
O 5.41191 2.87852 15.9841
O 6.54371 7.94391 12.0173
O 6.96528 7.65552 14.1428
O 12.5487 2.84764 13.8089
O 4.2109 3.44224 2.60621
O 7.9065 4.06214 15.8316
Si 8.49608 4.57665 12.2322
Si 11.9275 17.4896 12.3405
Si 10.2357 6.38043 14.2179
Si 15.4281 0.428815 12.6892
Si 13.0426 2.34852 12.3349
Si 12.1441 6.55925 10.3541
O 9.02581 6.08884 15.1239
O 14.64 0.8507 15.752
O 15.177 17.1327 13.9551
O 3.83436 4.52156 15.4128
O 12.4028 16.1915 13.2702
O 12.4427 5.85535 11.4956
O 9.76023 5.42007 12.8473
O 11.8973 8.10885 10.7567
O 13.8599 3.42217 11.5985
O 14.2599 1.41732 12.8535
O 10.9707 7.27963 15.2797
O 1.10117 0.408109 11.5361
Si 0.519064 13.2312 13.2533
Si 3.71625 10.0331 9.17388
Si 1.95981 15.3624 15.2891
Si 4.19334 11.7806 11.9698
Si 1.79035 10.3724 12.8092
Si 3.8154 1.61814 13.406
O 1.73719 14.9584 16.8184
O 1.08815 9.88884 14.073
O 5.75093 11.9511 12.1429
O 3.36869 0.292553 13.415
O 2.8004 9.45123 12.0495
O 8.39632 3.63242 13.5711
O 1.11909 11.8449 12.3294
O 3.67541 15.5885 10.8486
O 1.06552 14.561 14.2074
O 9.67674 13.9561 11.4499
O 2.89283 2.24051 14.7327
O 3.55218 13.2343 11.5153
Si 0.816958 14.177 8.40542
Si 7.0938 11.1965 11.6564
Si 6.84675 15.5704 13.2255
Si 9.1559 11.4953 15.1273
Si 8.75218 14.0439 10.0995
Si 9.64201 16.4619 13.7311
O 4.05821 13.6647 1.28402
O 10.149 14.3561 14.1076
O 7.614 14.1855 13.1345
O 9.35829 12.4196 16.2659
O 7.74539 12.6332 10.7275
O 7.55521 14.9287 9.67864
O 3.81914 10.9036 10.6512
O 11.9129 1.20638 12.2848
O 8.11599 16.5888 13.4974
O 10.6498 10.8311 14.6816
O 8.11551 16.9894 0.961113
O 8.30428 10.2487 15.7347
Si 12.0703 14.6489 13.1111
Si 12.3062 9.40027 11.5209
Si 10.8524 17.9534 16.0948
Si 14.5672 11.1871 0.263917
Si 12.0111 9.91543 14.381
Si 13.4858 12.5107 14.7099
O 10.136 16.9691 15.0755
O 13.3867 10.1027 0.800357
O 12.9404 8.77937 15.0414
O 1.43045 16.9524 15.6012
O 11.6804 9.06656 13.0201
O 14.9353 12.6503 14.2377
O 13.0812 11.2195 13.8797
O 12.6712 13.7888 12.019
O 12.8233 13.8051 14.2181
O 15.214 10.2801 16.2002
O 11.6368 17.5929 0.572241
O 13.4024 12.0152 16.2945
324
 Atoms. Timestep: 13500
Si 0.288802 4.93346 0.410132
Si 4.44641 16.688 15.3131
Si 5.09326 7.4633 4.99671
Si 3.41627 2.36086 6.16113
Si 2.10175 0.948233 3.84101
Si 4.53599 5.05376 2.87643
O 4.52745 6.34345 6.20368
O 4.71731 0.984836 8.82025
O 2.47752 1.63002 5.18266
O 7.13497 8.14823 16.2258
O 3.02328 1.6018 2.74192
O 2.92303 5.56375 3.20676
O 1.90374 5.07089 1.07681
O 2.72419 6.91983 16.9467
O 4.99856 6.41472 3.76989
O 4.7597 1.26897 5.90133
O 3.90884 8.38106 4.46077
O 3.96636 3.82958 5.87947
Si 2.71366 6.36861 1.51492
Si 8.26097 0.589337 1.01337
Si 7.7119 5.13092 5.66143
Si 9.08672 2.80717 4.14038
Si 6.12015 0.470126 3.11945
Si 8.13559 5.17005 2.62194
O 6.46305 4.97884 6.56744
O 7.03719 1.15767 4.63081
O 8.23725 3.51847 2.99948
O 12.0775 5.02988 2.39401
O 7.33606 0.782076 16.6294
O 8.26993 5.02237 0.945582
O 5.46002 1.72063 2.35155
O 9.22341 9.2372 1.08954
O 7.3018 5.44369 3.98395
O 10.5158 3.76058 3.96761
O 6.51282 8.32493 5.21555
O 9.62588 5.51489 2.99446
Si 8.19099 5.42318 16.3203
Si 0.25852 17.672 15.8303
Si 12.7058 4.57422 6.18278
Si 14.813 0.947215 2.8017
Si 14.1787 2.4399 0.43228
Si 13.0774 5.84542 1.39593
O 12.1339 5.60959 4.9383
O 13.3983 1.51555 3.82322
O 14.8936 2.15925 1.89863
O 13.3026 7.23033 2.2627
O 12.9101 2.92207 16.6522
O 15.2128 3.55311 16.8042
O 14.6107 5.57993 1.34487
O 12.8512 6.36735 16.7213
O 14.3125 4.55734 5.37159
O 0.419702 1.0322 3.9111
O 14.9112 7.77761 6.23822
O 13.3665 3.66804 7.36812
Si 0.967611 14.4031 0.87191
Si 0.507617 9.89324 15.8798
Si 2.74417 15.677 3.5331
Si 4.17696 12.4374 1.84218
Si 1.45808 11.4151 1.36339
Si 4.77092 15.366 1.28244
O 12.998 13.0536 8.10911
O 3.60132 10.1807 6.05378
O 3.0448 11.5117 1.37073
O 6.27408 15.295 1.58071
O 1.47382 10.6339 16.8567
O 3.16385 15.7132 14.7931
O 1.1727 12.9216 0.984859
O 4.73277 15.944 16.6599
O 3.97977 16.1048 2.47294
O 5.61851 12.0978 1.25304
O 3.0342 2.29611 7.67336
O 3.98042 12.3463 3.39899
Si 9.0567 13.782 13.1974
Si 8.05683 9.07962 0.192205
Si 6.97119 15.2972 3.22372
Si 8.63744 11.4498 4.00348
Si 7.10152 11.6404 1.14143
Si 9.24333 15.3379 1.33705
O 6.02812 13.9636 3.48593
O 7.88634 10.4406 5.02471
O 8.42308 12.2172 0.629882
O 9.69346 12.4121 4.5308
O 6.91221 10.0391 0.943909
O 9.86254 14.2298 0.469888
O 9.11019 12.4797 14.0445
O 7.46621 0.554449 2.27811
O 8.19986 14.5736 2.4069
O 9.5138 10.1812 3.37602
O 6.30435 16.7203 3.63092
O 7.40716 11.4378 2.93528
Si 10.0063 12.6052 0.662996
Si 12.532 7.5296 15.7245
Si 11.7172 16.6955 2.44765
Si 12.9227 8.71215 1.54356
Si 10.2275 9.96293 2.02468
Si 14.3395 15.623 2.64418
O 11.0786 10.5513 7.38691
O 0.343952 9.55864 7.42383
O 11.5586 9.09875 2.40271
O 1.97316 14.8211 2.18657
O 11.8473 8.13062 0.14105
O 15.0452 15.038 1.47656
O 10.5039 11.3674 1.4541
O 14.5383 17.3417 2.20663
O 10.2418 15.7465 2.51254
O 15.3606 10.9164 1.64506
O 11.7707 17.3075 3.864
O 12.8953 15.5678 2.09061
Si 13.3603 2.52679 8.46629
Si 3.09509 1.06559 8.73346
Si 0.926077 6.21887 8.99826
Si 5.66856 1.41129 10.1427
Si 14.0528 17.8471 7.06562
Si 4.00361 5.59119 9.31497
O 15.451 5.40353 9.92146
O 5.58996 0.252167 11.1542
O 2.46912 1.40367 10.122
O 6.7988 7.84378 9.12043
O 0.999796 16.0024 8.77406
O 4.39684 4.65721 8.11768
O 14.4211 1.62767 7.60975
O 2.38269 5.68889 9.07483
O 3.38291 4.23683 10.7206
O 7.0932 1.48076 9.2825
O 0.574607 7.72446 9.02288
O 5.46717 2.89152 10.5162
Si 4.90795 4.91491 6.54155
Si 6.37334 0.927033 5.99931
Si 6.03053 8.57149 10.2696
Si 9.40374 4.85727 9.0298
Si 8.14176 2.23586 8.15092
Si 8.06451 7.47108 8.32592
O 5.46543 5.30197 10.2065
O 10.5285 17.2751 12.6949
O 8.56641 3.68581 8.36477
O 9.20115 8.27119 9.28544
O 7.26023 1.84433 6.88773
O 8.21001 6.00837 8.67919
O 8.5402 3.71466 5.30572
O 9.0533 5.87416 6.09997
O 7.93267 8.45948 7.10632
O 10.7072 5.68663 9.10499
O 6.53375 10.1893 10.0999
O 8.93918 5.07303 10.655
Si 11.0367 5.15764 3.64684
Si 12.3347 0.698238 4.69003
Si 9.43069 9.63749 10.1422
Si 1.39756 1.85797 11.1828
Si 10.7768 1.28526 7.24008
Si 14.7597 6.23468 6.09855
O 11.1378 9.87581 10.3162
O 12.6277 17.4145 10.7037
O 12.0518 1.58865 8.02353
O 0.27758 5.7877 7.39901
O 10.9774 17.4108 7.2507
O 14.3046 3.23839 9.37674
O 9.37581 1.40265 8.09013
O 14.5758 11.2261 8.6145
O 13.3122 6.16543 7.07616
O 13.5067 16.469 8.12764
O 9.33861 10.4374 8.82878
O 0.726471 3.24394 10.8764
Si 14.223 12.4122 7.46768
Si 2.96355 9.51502 4.74166
Si 13.6766 13.8029 10.9936
Si 3.60524 13.9286 9.72579
Si 0.994871 9.17274 8.83902
Si 1.43316 16.7001 7.1152
O 5.83511 15.9315 14.64
O 2.38676 9.97073 8.60228
O 4.44673 11.3093 8.15282
O 1.31643 15.1491 6.52997
O 1.81002 8.23887 5.66635
O 3.70996 14.7864 4.31761
O 15.1885 13.6529 8.1079
O 2.55078 17.5755 7.83103
O 14.9129 13.6497 12.033
O 2.26192 13.5804 9.01292
O 0.066884 17.4239 6.9746
O 3.15999 10.843 12.6821
Si 4.66975 13.5624 4.523
Si 7.30157 9.40952 6.14902
Si 6.40104 15.1062 8.74567
Si 9.70402 11.7136 8.06215
Si 4.69331 11.2398 6.4719
Si 7.96728 15.862 6.24444
O 5.2326 14.2119 9.31877
O 8.64328 10.7383 11.1103
O 11.4735 10.4805 5.1222
O 11.0534 1.1081 5.63094
O 6.02758 10.1357 6.78886
O 8.38807 14.5539 5.40049
O 5.0237 12.5232 5.53689
O 7.11661 17.1642 6.27626
O 6.71066 14.9389 7.19818
O 10.2805 12.6515 9.2131
O 5.63093 16.5648 9.067
O 10.0591 12.6823 6.85652
Si 9.96649 13.5802 5.62878
Si 0.353477 9.06669 5.79107
Si 10.6185 15.9561 7.55637
Si 14.4751 10.9967 10.2213
Si 12.1449 10.4781 6.37006
Si 12.8427 16.4246 9.48448
O 9.10084 15.8926 7.35268
O 13.4978 9.77318 10.0383
O 1.35698 10.3363 4.65355
O 13.6334 15.1154 10.1782
O 13.3251 11.7534 6.31174
O 2.38222 17.1598 4.16966
O 10.8747 14.9662 5.99168
O 13.2982 17.8103 5.68139
O 11.405 15.4077 8.8893
O 0.383181 10.0273 10.2144
O 12.1405 1.04449 15.5345
O 13.3692 12.2455 10.3854
Si 14.7245 3.88814 10.6358
Si 6.61847 1.07509 15.3787
Si 1.64784 6.90573 15.6131
Si 4.01411 2.22763 1.83679
Si 4.29322 2.97258 15.847
Si 3.93853 5.50413 14.1416
O 0.762061 5.80742 15.9984
O 5.06785 0.216908 15.4108
O 4.04762 2.27678 0.244493
O 4.43339 6.74059 14.9995
O 2.45114 2.08452 12.5582
O 4.58237 5.33255 12.5457
O 0.689651 1.00298 14.2727
O 4.6224 8.83674 9.4804
O 2.30917 5.85634 14.3831
O 5.81661 15.8063 12.1031
O 0.587376 8.30854 16.1772
O 4.53422 6.03966 1.45785
Si 4.73732 4.15305 11.4145
Si 4.9739 16.4969 10.7782
Si 6.0239 7.14814 15.5177
Si 11.7024 2.80922 15.468
Si 8.83932 2.91589 14.1681
Si 7.34957 7.98472 12.9239
O 6.88988 5.73359 15.65
O 9.67851 1.11241 0.401073
O 7.80582 1.67121 14.4527
O 8.81061 8.14809 13.8295
O 10.3284 2.4111 14.6346
O 7.41533 6.43679 12.4527
O 5.99127 2.4808 15.4953
O 5.86182 8.40579 11.9202
O 6.34194 7.60272 14.045
O 12.6434 3.22878 14.1517
O 4.01718 3.81973 2.11338
O 8.58804 3.9336 15.5948
Si 8.52761 5.35636 12.3302
Si 12.1333 17.4486 12.2572
Si 9.90235 7.03252 14.2976
Si 15.2338 0.387918 13.0832
Si 12.947 2.67731 12.7261
Si 12.0828 6.05377 9.79649
O 9.52963 6.22815 15.7245
O 14.7736 0.862081 16.6586
O 14.4883 17.1702 14.5787
O 4.09185 4.0823 14.6612
O 12.4002 15.9673 12.8065
O 12.049 4.98775 10.6596
O 9.8137 5.89145 12.9816
O 12.0897 7.46004 10.608
O 13.6154 3.90548 11.8358
O 14.2154 1.74826 13.0099
O 11.4939 7.15021 14.5028
O 0.635785 0.697438 11.8759
Si 0.376696 13.223 13.2474
Si 3.80101 10.2244 9.11185
Si 1.79778 15.1663 15.0082
Si 4.24406 11.795 11.8338
Si 1.66869 10.4877 13.0423
Si 3.79299 1.43153 13.193
O 1.47801 14.6129 16.3929
O 1.30161 10.1095 14.5387
O 5.76517 11.939 11.5832
O 3.69832 17.9041 13.0112
O 1.07148 9.33921 12.3286
O 8.14515 3.91932 13.0658
O 0.761159 11.7004 12.9229
O 3.70332 15.6213 10.3076
O 1.40891 14.1695 13.801
O 9.03298 13.7212 11.4136
O 3.82181 1.87332 14.7736
O 3.65512 13.2671 11.2427
Si 0.902548 14.4213 8.57409
Si 7.14079 11.3966 11.1117
Si 6.80585 15.704 13.2589
Si 9.54401 11.2341 14.9195
Si 8.72876 13.6393 9.92285
Si 9.76614 16.6171 13.8307
O 4.08851 13.9919 1.34958
O 10.1089 14.828 14.3976
O 7.34272 14.1853 13.4194
O 10.3047 11.9249 16.1766
O 7.559 12.4068 9.79171
O 7.84419 14.8846 9.57849
O 3.79739 11.0192 10.4412
O 12.1759 1.13672 12.715
O 8.09156 16.5865 13.9226
O 10.7748 10.5324 14.0784
O 8.67006 16.8124 0.859106
O 8.55992 10.3409 15.8851
Si 11.8276 14.5699 13.1131
Si 12.3182 9.01371 10.8328
Si 10.9795 0.277514 16.4395
Si 13.9863 11.4753 0.64908
Si 12.3374 10.1821 13.9086
Si 13.2276 12.8279 15.1245
O 10.0995 17.6487 15.1838
O 13.2125 10.1337 1.06928
O 12.8171 9.08241 15.0798
O 1.20059 16.6874 15.2048
O 12.4 9.74229 12.334
O 14.7358 13.0706 14.4799
O 13.0251 11.5436 14.2252
O 12.6243 13.6168 12.1588
O 12.5089 14.3676 14.6399
O 14.5157 10.59 16.1709
O 11.711 17.6374 1.12247
O 13.013 12.2222 16.4815
324
 Atoms. Timestep: 14000
Si 0.44774 5.20264 0.813283
Si 4.79389 16.5283 15.2741
Si 4.82086 7.43923 4.94269
Si 4.02419 2.20735 6.01909
Si 2.28795 0.829747 3.83317
Si 4.73386 5.25831 2.754
O 4.82575 6.07651 6.08697
O 4.49275 2.01591 9.41599
O 3.66587 1.47649 4.63406
O 7.11364 8.05832 16.3246
O 2.83043 1.32922 2.48979
O 3.18701 6.3904 2.97632
O 1.98805 5.25028 1.1619
O 2.56089 7.33197 16.8705
O 5.36544 6.57288 3.65409
O 5.28687 1.36268 6.37821
O 3.96488 8.71307 4.37155
O 4.41043 3.73331 6.31557
Si 2.84216 6.65 1.38145
Si 8.55925 0.34376 1.11955
Si 7.97218 4.83211 5.42863
Si 9.16059 2.76214 3.49649
Si 6.42938 0.545787 3.21028
Si 8.39293 5.40811 2.58726
O 6.55603 4.51356 5.95001
O 6.76731 1.40703 4.68132
O 8.5379 3.84317 2.54326
O 12.1384 4.83148 2.03767
O 7.66849 0.667811 16.9035
O 8.11804 5.69718 1.08734
O 5.40956 1.55775 2.37115
O 8.91827 8.97424 0.955741
O 7.66003 5.84366 3.81232
O 10.6414 3.24327 3.26868
O 5.98231 8.32558 5.19699
O 10.0328 5.51907 3.01416
Si 8.24292 5.03643 16.5819
Si 15.4993 17.799 15.521
Si 12.4773 4.71008 6.35903
Si 15.1022 1.15859 2.67875
Si 14.5219 2.48519 0.0713328
Si 12.8413 5.79375 0.866535
O 12.1698 5.00501 4.7233
O 13.9828 1.1198 3.9185
O 14.1777 1.74271 1.55771
O 12.6461 7.18715 1.72194
O 13.1408 3.03903 16.495
O 15.4787 3.6835 0.307287
O 14.6054 5.91892 1.35435
O 13.0465 6.15998 16.4346
O 14.1455 4.51283 5.90341
O 0.737139 1.33285 3.6851
O 14.5178 7.85993 5.71217
O 12.6783 3.73665 7.51278
Si 1.08191 14.5621 1.07725
Si 0.919368 10.084 16.0474
Si 2.90829 15.4082 3.40288
Si 4.08492 12.3746 1.83901
Si 1.21211 11.6134 1.59594
Si 4.62438 15.26 1.04897
O 13.2865 13.6938 7.54569
O 3.14629 10.2835 5.81957
O 2.66151 12.0872 2.23566
O 6.0824 15.0185 1.51577
O 1.89146 10.9553 0.209306
O 2.98329 16.6368 15.1293
O 0.731546 12.9698 1.05198
O 5.06333 16.2531 16.8421
O 3.64916 15.7707 2.10611
O 5.20956 11.7717 0.922743
O 3.05179 1.75684 7.29321
O 4.70989 12.7911 3.1267
Si 9.03043 13.4987 12.9994
Si 7.96417 9.25933 16.6914
Si 6.99376 15.4442 2.79574
Si 7.93627 11.4881 3.73704
Si 6.84713 11.8197 0.764859
Si 9.54545 15.2042 1.47049
O 6.25991 14.4621 3.86822
O 7.51985 10.7995 5.04799
O 8.12053 12.6982 0.133725
O 8.95453 12.7009 4.23217
O 7.19934 10.3749 0.411756
O 10.1573 13.7552 0.936541
O 9.10455 12.1242 13.5844
O 7.68887 0.939785 2.44635
O 8.41227 14.9251 2.55495
O 8.72333 10.28 3.12614
O 6.55622 16.9498 3.33392
O 7.13218 11.9267 2.42408
Si 9.76415 12.4055 0.313484
Si 12.7195 7.59869 15.3754
Si 11.777 16.9985 2.31119
Si 12.6003 8.72558 1.27082
Si 9.9377 9.96899 2.04251
Si 14.4624 15.9192 2.7711
O 11.5683 11.3839 6.65454
O 0.343338 9.4726 7.52546
O 11.0964 9.01879 2.20101
O 1.70564 14.5699 2.58395
O 12.1027 8.46441 16.859
O 15.0167 15.2013 1.42847
O 10.0068 11.3015 1.34659
O 15.0186 17.3389 2.66661
O 10.4089 16.1704 2.67916
O 14.9249 11.0377 1.80384
O 12.0656 17.6504 3.85849
O 12.8458 15.9209 2.75654
Si 12.9978 2.48774 8.38218
Si 3.17483 1.19031 8.67382
Si 0.718999 6.00999 8.92204
Si 5.93519 2.1336 10.5494
Si 14.1525 17.7914 7.39758
Si 3.70644 5.80027 9.2729
O 15.1724 5.13009 9.84895
O 5.96573 0.557838 10.8277
O 2.05032 1.72337 9.69907
O 6.18085 7.83183 8.80226
O 0.935759 15.8379 8.87067
O 4.57459 5.12949 8.26561
O 14.1953 1.6217 7.62115
O 2.24161 5.6832 8.75127
O 3.15554 4.06135 10.3318
O 7.00964 2.31769 9.48048
O 0.604355 7.52384 9.52365
O 5.44106 3.46997 11.1431
Si 5.3942 4.93524 6.93148
Si 6.78309 1.16729 6.22535
Si 6.04336 8.45202 10.2407
Si 9.20463 5.0144 9.02363
Si 8.27062 2.01425 8.59124
Si 7.62477 7.3942 7.94791
O 4.77228 5.83241 10.6029
O 9.95076 17.6435 12.7922
O 8.92239 3.35094 8.72935
O 8.56602 8.20623 8.99004
O 7.46743 2.40161 7.072
O 7.96293 5.92588 8.6468
O 8.73301 3.59733 4.79416
O 9.13017 5.74864 5.81908
O 7.5763 8.79506 6.93082
O 10.7652 5.8499 8.91767
O 6.64223 9.97242 9.93498
O 8.97342 5.02901 10.5888
Si 11.3509 4.75301 3.29802
Si 12.9354 0.765699 4.93348
Si 9.2977 9.60743 9.59903
Si 1.59545 1.98358 11.2527
Si 10.751 1.11354 7.05634
Si 14.6226 6.31144 6.33301
O 10.5713 8.99605 10.348
O 12.0696 16.6089 11.0238
O 11.6612 1.63213 8.21625
O 15.2025 6.13328 7.74595
O 11.1628 17.3139 6.86828
O 13.5178 3.17377 9.76362
O 9.52526 1.01529 7.94201
O 14.7679 12.0576 8.87249
O 12.9948 6.34808 6.9495
O 13.4214 17.0582 8.63569
O 10.1208 10.6205 8.5403
O 0.260009 2.97395 10.8441
Si 14.4856 12.7354 7.42749
Si 2.66982 9.64352 4.52923
Si 13.2938 13.5718 11.2816
Si 3.99696 14.4937 10.4141
Si 0.716729 9.05965 8.92685
Si 1.55675 16.8944 7.33036
O 5.66531 15.3584 14.5286
O 2.29152 9.27458 9.0459
O 3.96394 11.0873 8.10224
O 2.22408 15.1763 6.86851
O 1.95439 8.42392 5.75685
O 3.77441 14.5511 4.39118
O 0.216555 13.9505 7.49356
O 2.08626 17.7411 8.4005
O 14.6853 14.5497 12.1269
O 2.60762 14.1975 9.42507
O 0.252013 17.517 7.01502
O 3.30065 11.6049 13.1058
Si 5.01806 13.5512 4.45264
Si 6.81624 9.50093 5.80406
Si 6.70646 14.5617 9.13004
Si 10.2342 11.8022 7.6653
Si 4.27293 11.1835 6.56394
Si 7.76687 15.9384 6.69568
O 5.22839 14.169 9.30689
O 8.8123 10.131 11.0532
O 12.5593 10.1282 4.83494
O 11.6622 1.66332 5.75761
O 5.55637 10.326 6.46357
O 8.13831 14.5898 5.61302
O 4.66916 12.4209 5.59649
O 7.16112 17.5672 6.797
O 6.94928 15.0054 7.64781
O 9.93656 12.9421 8.87136
O 6.62917 15.9861 9.8925
O 8.9262 12.084 6.57679
Si 9.29396 13.5734 5.55907
Si 0.413452 8.91663 5.93291
Si 10.7388 15.6042 7.22333
Si 14.2609 11.0841 9.98111
Si 12.7376 10.5793 6.07662
Si 12.8028 16.0452 9.47691
O 9.23452 15.7617 7.61357
O 12.8175 10.0959 9.94415
O 1.00456 10.3848 4.60221
O 13.3 14.5704 10.0679
O 14.0914 11.5632 6.42733
O 2.46051 17.0627 3.66986
O 10.6552 14.2172 6.33273
O 13.3523 17.5533 6.14315
O 11.5041 15.3986 8.47058
O 15.2956 9.88822 10.0219
O 12.0104 1.17273 15.8416
O 13.9265 12.1464 11.1102
Si 14.5724 4.1198 10.9088
Si 6.71644 1.02576 15.5517
Si 1.48053 7.22295 15.6832
Si 4.00602 2.35323 1.98064
Si 4.24902 2.58847 15.9367
Si 3.68387 5.45468 14.5343
O 0.424314 6.08255 16.4532
O 5.66287 17.7707 14.9334
O 4.02029 2.05519 0.437996
O 4.57295 6.55343 15.3653
O 2.70239 2.21873 12.5203
O 4.02681 5.06377 12.975
O 0.930949 0.52478 14.0293
O 4.34072 9.00007 10.2631
O 2.2572 5.61656 15.0704
O 6.04766 16.2289 12.0756
O 0.852649 8.66705 15.5257
O 4.42654 5.94948 1.07339
Si 4.21546 4.41489 11.572
Si 5.55717 16.8746 10.792
Si 6.07511 7.04417 15.5546
Si 11.7824 2.83607 15.5078
Si 8.71872 2.98742 14.4172
Si 7.39736 7.45372 12.863
O 6.86821 5.605 15.9717
O 9.98629 0.758438 0.391578
O 7.70899 1.72701 14.2947
O 9.06527 7.81716 13.4988
O 10.1955 2.74915 15.0241
O 7.93873 6.00744 12.4778
O 5.81437 2.15009 15.84
O 6.35948 7.53746 11.6957
O 6.57946 6.91335 14.0317
O 12.5671 2.94935 14.14
O 3.96547 3.81992 2.84338
O 8.02647 3.716 15.5627
Si 9.25405 4.93817 12.1346
Si 11.6364 17.4547 12.3315
Si 9.87546 6.72739 14.4579
Si 15.2572 0.30914 12.8495
Si 13.0297 2.38349 12.7523
Si 12.0491 5.94718 9.64389
O 9.36587 6.1198 15.7931
O 15.0643 1.50834 16.0629
O 14.3253 17.3651 14.3618
O 4.15019 3.9431 15.1842
O 12.072 16.2912 13.266
O 11.727 5.09001 10.7201
O 9.9937 5.61889 13.3673
O 12.3252 7.56512 9.83307
O 13.7936 3.58772 12.1568
O 14.6027 1.77496 13.1981
O 11.4176 7.08782 14.7263
O 0.822606 0.648195 11.6033
Si 15.4622 13.8108 13.2319
Si 3.63532 10.0312 9.24992
Si 1.94901 15.4889 15.3132
Si 4.10801 11.7282 11.7091
Si 1.58111 11.3518 13.2682
Si 3.60378 1.18109 13.2824
O 1.98527 14.547 16.6884
O 0.981437 10.9055 14.7037
O 5.66213 11.3304 11.7792
O 3.15361 17.7785 12.8716
O 1.1711 10.0969 12.3872
O 9.09245 3.53563 12.8852
O 1.02019 12.6885 12.8077
O 4.15463 16.291 10.3776
O 0.904733 14.5315 14.4206
O 9.79164 13.8553 11.5189
O 3.38037 1.55466 14.9303
O 4.14408 13.3494 11.51
Si 1.48235 14.2794 8.26211
Si 7.2595 10.759 11.4004
Si 6.75121 15.3693 13.2947
Si 9.51483 10.7663 14.6173
Si 9.03726 13.0271 10.2758
Si 9.44474 16.6345 14.0753
O 3.9732 13.8208 0.909418
O 9.64579 15.0732 13.8746
O 7.50756 13.9826 13.0444
O 10.0805 11.7799 15.8601
O 7.88836 12.1587 11.1533
O 8.1794 14.2321 9.88828
O 3.40009 11.0737 10.4714
O 12.1294 1.08949 12.4269
O 7.78092 16.4092 13.8264
O 10.6883 9.79789 14.1332
O 8.55024 16.6045 0.832218
O 8.46014 9.985 15.3018
Si 11.803 14.7894 13.3988
Si 12.1669 8.91406 10.6507
Si 11.1528 17.8577 16.5346
Si 13.9723 11.2118 0.465867
Si 12.3018 10.0022 13.5882
Si 13.1133 12.6136 14.9094
O 10.3603 17.0571 15.3321
O 12.7701 10.3683 1.00881
O 12.9185 8.80558 14.4742
O 0.873077 16.5698 15.893
O 12.4916 8.99422 12.2338
O 14.1723 13.0509 13.9054
O 12.9223 11.1404 14.4618
O 12.1579 13.8631 12.2788
O 12.277 14.1351 14.8575
O 14.9679 10.0968 16.6331
O 11.7872 16.8931 0.660679
O 13.464 12.3986 16.4307
324
 Atoms. Timestep: 14500
Si 0.287997 5.15253 -0.0267578
Si 4.99489 16.4481 15.6212
Si 4.76604 7.23149 4.68765
Si 3.79721 2.20441 6.15499
Si 2.46687 0.778545 3.83561
Si 4.57904 4.93678 2.73013
O 4.33949 6.06364 5.88216
O 4.78581 1.30458 9.67149
O 3.00743 1.63071 5.04912
O 6.55472 8.4056 15.8247
O 3.30529 1.30884 2.61559
O 2.59446 5.47145 2.88737
O 1.69221 5.11408 0.669288
O 2.54994 7.17468 0.110678
O 5.20669 6.24959 3.51075
O 5.1213 1.07264 6.23824
O 3.40635 7.86659 4.79967
O 4.75691 3.41526 6.06556
Si 2.4865 6.37691 1.5106
Si 8.1657 17.3147 0.385129
Si 8.01284 4.88839 5.11683
Si 8.81959 2.72501 3.28311
Si 6.89301 0.47382 2.87998
Si 8.66456 5.59296 2.20427
O 6.78481 4.79648 6.06456
O 7.02981 0.895425 4.28027
O 8.30999 3.79151 2.12548
O 12.5103 4.84178 2.15296
O 7.0229 0.422 16.8482
O 8.59706 5.58349 0.690396
O 5.72894 1.24383 2.2149
O 8.57914 9.29377 0.457285
O 8.01562 5.82285 3.82854
O 10.3502 3.039 3.25633
O 5.61573 8.32082 5.61096
O 10.1043 5.33177 2.75825
Si 8.08881 5.39922 16.3388
Si 15.3492 0.058109 15.6259
Si 12.5335 4.54115 5.92557
Si 15.1093 1.11325 2.92282
Si 14.3265 2.5397 0.12987
Si 12.945 5.90464 0.869849
O 11.9121 5.07214 4.54807
O 13.846 1.64813 3.816
O 15.0498 1.7002 1.48812
O 12.9827 7.44158 1.37026
O 12.8359 2.71872 16.8206
O 15.5084 3.66117 16.7962
O 14.5248 5.66581 0.800313
O 12.7138 6.09694 16.3926
O 14.3988 4.57836 5.11174
O 0.902236 1.5291 3.50667
O 15.5295 7.32691 5.41854
O 13.0618 3.82558 7.09605
Si 1.25803 14.8835 1.56093
Si 1.31712 10.3527 15.962
Si 3.38243 15.965 3.34293
Si 4.14224 12.213 2.11788
Si 1.26982 11.4866 1.78549
Si 5.08716 14.9431 1.11382
O 14.3284 14.7811 7.53994
O 3.0115 10.2825 5.51452
O 2.71154 11.3143 2.59306
O 6.19846 14.5239 2.15908
O 1.69727 10.7592 0.344545
O 3.41088 16.0518 15.2659
O 1.40444 13.2518 1.56852
O 5.53459 15.4216 16.7372
O 4.4854 15.9696 2.00089
O 5.40233 11.6919 1.2528
O 3.38523 1.70859 7.59349
O 4.61512 12.6016 3.57529
Si 9.08867 13.5767 12.741
Si 7.7719 9.43171 16.2948
Si 6.69778 15.3847 3.70316
Si 8.09201 11.4494 3.79048
Si 6.95198 11.8728 0.723435
Si 9.26258 15.1159 2.09339
O 5.78298 14.4728 4.92914
O 7.00982 10.3439 4.69399
O 8.02382 12.8822 0.204631
O 8.95451 12.5259 4.70427
O 6.82399 10.7806 16.5296
O 10.1503 13.987 1.25775
O 8.50616 12.4024 13.7195
O 7.97636 17.8654 1.98078
O 8.4761 15.7911 3.34634
O 9.26165 10.3923 3.45846
O 6.13975 16.9551 3.35081
O 7.58571 11.9333 2.35826
Si 9.65167 12.806 0.172127
Si 12.3058 7.55396 15.4712
Si 11.8928 17.1188 2.76139
Si 12.1213 8.72329 1.16279
Si 9.42742 9.99497 1.74399
Si 14.6311 16.027 3.22532
O 11.8483 10.9106 7.33973
O 15.3738 9.43583 7.613
O 10.7447 9.08052 1.91412
O 2.01324 15.5398 2.61716
O 11.5096 8.28987 16.7479
O 15.1619 15.0016 1.84177
O 9.82776 11.426 1.2054
O 15.0086 17.4728 3.0639
O 10.6442 16.06 2.33965
O 15.185 11.3779 1.62145
O 11.7255 17.9237 4.13293
O 13.0665 15.9561 3.12991
Si 13.5852 2.43939 7.72407
Si 3.32123 1.00701 8.96841
Si 0.416851 5.84682 8.96166
Si 5.86687 2.03254 10.4158
Si 14.3648 17.6285 7.17968
Si 3.59351 5.59956 8.94219
O 15.2546 5.19362 10.0681
O 6.24671 0.894703 11.4893
O 1.9543 1.5872 9.61842
O 6.26349 7.5456 8.90621
O 0.68429 15.3589 9.31081
O 4.77849 4.93608 8.00062
O 14.5235 0.915579 8.07044
O 1.9912 5.79132 9.52553
O 3.39057 3.98973 9.46046
O 7.20708 2.05337 9.41223
O 0.0237959 7.46957 9.0714
O 5.4876 3.64859 10.8882
Si 5.304 4.96571 6.62234
Si 6.63326 1.07163 5.9947
Si 5.43401 8.34018 10.0963
Si 9.1509 5.1851 9.19813
Si 8.21754 2.56825 8.13234
Si 7.57556 7.74051 8.08999
O 4.26235 5.70018 10.5463
O 9.93084 16.523 12.8735
O 9.00813 3.9231 8.16879
O 8.51473 8.43308 9.30244
O 7.47187 2.06893 6.82589
O 8.25016 6.24263 8.10401
O 8.46664 3.4764 4.64499
O 9.1425 5.18831 6.1258
O 7.31835 9.04593 7.1755
O 10.5368 5.64032 9.15879
O 6.12616 9.79106 10.389
O 9.26258 4.46474 10.679
Si 11.298 4.39567 3.16338
Si 12.7407 0.989474 4.92006
Si 9.44122 9.53029 9.73042
Si 1.37138 1.91482 11.0947
Si 10.7481 1.35682 7.14789
Si 15.06 5.76658 5.98832
O 10.6727 9.04972 10.6012
O 11.2187 16.7494 10.623
O 12.0062 1.68426 8.21117
O 15.6521 5.5694 7.3646
O 10.5736 17.7706 7.42257
O 13.7804 3.19755 9.36261
O 9.55999 1.79773 8.49675
O 14.3791 12.4398 8.46484
O 13.2988 6.13507 6.28467
O 13.4571 16.6415 8.10298
O 9.54725 10.2329 8.0451
O 0.200441 3.01303 10.7377
Si 14.8658 13.2727 7.14433
Si 2.31067 9.06774 4.861
Si 13.6091 14.0501 11.1032
Si 4.22569 14.6888 10.6323
Si 0.164906 9.05511 9.06415
Si 1.32762 16.7654 8.28586
O 5.65054 15.3574 14.4781
O 1.79059 9.32821 9.11866
O 3.30614 11.0861 8.19134
O 2.18186 15.429 7.65982
O 1.73544 8.40054 6.54563
O 3.58124 14.7306 4.34307
O 0.798043 13.3779 7.70007
O 2.99694 17.507 8.71235
O 14.7584 14.6722 12.3832
O 2.88909 14.3359 9.7835
O 0.557509 16.8642 6.75855
O 3.75316 11.905 13.3661
Si 4.48726 13.5949 4.82531
Si 6.38373 9.62696 5.9636
Si 6.78249 15.3411 9.34098
Si 10.4786 11.5304 7.72415
Si 3.75477 11.0805 6.57465
Si 7.39368 16.1319 6.49376
O 5.61029 14.5515 9.95163
O 8.50748 10.0084 11.0853
O 12.3714 10.6431 4.84928
O 11.7686 1.59974 5.95188
O 5.30298 10.5624 6.61353
O 8.0701 14.4371 6.132
O 3.96039 12.541 5.93722
O 7.15721 17.753 6.59036
O 6.4342 15.8324 7.85391
O 10.1049 12.2417 9.14865
O 6.48082 16.7909 10.2088
O 9.95485 12.8005 6.83819
Si 9.3212 13.8361 5.53567
Si 15.5378 8.68909 6.22073
Si 10.4479 16.0373 7.05202
Si 14.0262 11.3538 9.66187
Si 12.9111 11.2844 5.99546
Si 12.4155 16.3519 9.38353
O 8.91676 16.1362 7.36833
O 12.6701 10.2734 9.58165
O 0.501084 9.83549 4.76687
O 13.2283 15.1699 10.1317
O 13.8224 12.5158 6.23056
O 3.25725 17.4001 4.21544
O 10.3825 14.9939 5.84504
O 13.4527 17.8813 5.76512
O 11.2973 15.7277 8.43745
O 15.1258 10.3177 9.71685
O 11.8717 0.875654 15.976
O 13.2679 12.7658 10.4388
Si 14.3799 3.95855 10.5927
Si 6.49664 1.07891 15.5715
Si 1.88817 7.30217 15.693
Si 4.43532 1.96675 1.78018
Si 4.03876 2.73233 15.9661
Si 3.46884 5.16051 14.2501
O 0.557825 6.69171 16.2244
O 5.51123 17.8976 15.025
O 3.83887 1.69366 0.263087
O 4.7224 5.93852 14.5391
O 2.82933 1.73083 11.9022
O 3.84106 4.36562 12.846
O 0.268423 0.8859 14.1106
O 4.18033 8.99502 9.4754
O 2.18872 6.06203 14.4865
O 6.6293 16.6022 12.6253
O 1.80109 8.88414 15.7888
O 4.23254 5.74051 1.1832
Si 3.99237 4.21869 11.3217
Si 5.61805 17.2598 11.4296
Si 5.87841 7.03183 15.3404
Si 12.0005 2.39324 15.554
Si 8.84898 2.85855 14.8808
Si 7.51665 6.90839 12.5658
O 6.74705 6.14649 16.47
O 9.48132 0.39813 0.161491
O 7.7347 1.60465 14.9237
O 9.03539 7.07856 13.1634
O 10.5196 2.75534 15.0577
O 7.65318 5.49504 12.2303
O 5.61881 2.44952 15.8448
O 6.64951 7.48879 11.3226
O 6.77181 6.8713 14.1054
O 12.5896 2.50967 13.9679
O 4.71705 3.38027 2.17528
O 8.3618 3.8107 15.9593
Si 8.7164 4.08117 12.2426
Si 11.5492 17.2672 12.0114
Si 10.0994 6.03039 13.8986
Si 15.1899 17.8682 12.875
Si 12.706 2.0481 12.4433
Si 11.9641 6.13141 10.0902
O 9.27904 5.95117 15.4454
O 14.9109 1.40628 16.2389
O 14.4775 17.1237 14.2044
O 3.38117 4.0634 15.3676
O 12.5154 16.4939 12.9682
O 11.7081 6.23771 11.4014
O 9.92522 4.80356 12.9343
O 12.4156 7.61577 9.74372
O 13.4449 3.28585 11.7397
O 13.7812 0.828328 12.648
O 11.2421 6.88176 14.5713
O 0.513961 0.642051 11.662
Si 0.295886 14.1936 13.6577
Si 3.17696 10.1064 9.51142
Si 1.98976 16.0339 15.7143
Si 4.50098 11.8509 11.7622
Si 2.09839 11.8028 13.4385
Si 3.78851 1.24242 13.059
O 1.90574 15.3619 0.0851262
O 1.87213 11.5098 14.9513
O 5.9843 12.0001 11.7563
O 3.45633 17.8991 13.3449
O 1.171 10.8009 12.677
O 8.08245 3.70513 13.7006
O 1.63404 13.2403 13.1269
O 4.33997 16.1478 11.0314
O 1.11307 15.2953 14.5437
O 9.29339 12.8721 11.3158
O 3.6584 1.82839 14.5833
O 4.38854 13.5482 11.5962
Si 1.73904 14.1245 8.81219
Si 7.22061 10.802 11.1454
Si 7.00302 15.4387 13.688
Si 9.59302 11.319 14.4539
Si 8.7985 12.8918 9.79861
Si 9.79671 16.1095 14.3921
O 4.02244 13.7112 1.47514
O 10.4017 14.4785 14.1793
O 7.68016 14.5383 12.6018
O 9.86324 12.099 15.7955
O 7.51266 11.7979 9.8301
O 8.08543 14.3062 9.78368
O 3.96866 11.1372 10.4234
O 11.3793 0.936457 12.5043
O 8.19628 15.6267 14.5733
O 10.9899 10.925 13.7548
O 8.74008 15.9449 0.900309
O 8.45442 10.2014 14.8557
Si 12.4907 14.8757 13.5638
Si 12.3337 9.09318 10.5434
Si 11.0426 17.6558 16.842
Si 14.0545 11.0548 0.473245
Si 12.32 10.0773 13.7717
Si 13.6912 12.5081 14.993
O 10.5027 16.7991 15.7898
O 13.3451 9.6783 0.729324
O 12.8364 8.68436 14.5399
O 1.23024 17.408 15.8511
O 12.7053 9.67085 12.1528
O 15.1455 13.241 14.4691
O 13.6375 11.141 14.0808
O 12.3021 14.2127 12.231
O 12.7542 13.6057 14.4563
O 15.377 10.5665 16.2786
O 11.6363 17.7801 1.25522
O 13.1245 11.7755 16.445
324
 Atoms. Timestep: 15000
Si 0.266735 4.61087 16.7964
Si 4.78989 15.9942 16.0206
Si 4.91186 7.12734 4.58855
Si 3.81192 2.10419 6.19016
Si 2.25873 0.967066 3.86511
Si 4.56937 4.79297 2.50534
O 4.71959 6.20333 5.90152
O 4.63419 1.39778 9.26385
O 2.94885 1.65801 5.00427
O 6.47408 8.7376 15.8964
O 2.82259 1.60457 2.57352
O 2.78383 4.99134 2.88862
O 1.38125 4.9064 0.821473
O 2.0286 7.07026 0.0924833
O 4.92336 6.13035 3.37508
O 4.84461 0.86042 6.2822
O 3.48024 8.1611 4.38999
O 4.4531 3.60806 5.88787
Si 2.5186 5.87446 1.29512
Si 7.91986 17.5001 0.804876
Si 7.90697 4.80566 4.87682
Si 9.17828 2.92889 2.90664
Si 6.43189 -0.0165422 3.36603
Si 8.93439 5.79783 2.18972
O 6.73071 4.83455 5.95757
O 6.52614 1.07504 4.47345
O 8.48435 4.13117 2.0318
O 12.0858 4.83819 1.0297
O 6.83691 0.304439 -0.0393702
O 9.11137 5.58802 0.465856
O 5.15091 0.627832 2.39366
O 9.05991 8.73846 0.548187
O 7.82602 5.71388 3.50217
O 10.6473 3.26462 2.5104
O 6.00189 8.35647 4.61046
O 10.4095 5.72787 2.73406
Si 8.64309 5.65511 16.047
Si 0.607098 0.644871 15.593
Si 13.0697 4.65618 5.33639
Si 14.9589 1.55903 2.83941
Si 13.9823 1.95116 -0.109891
Si 13.0797 5.82524 0.225955
O 12.7431 4.33396 3.7575
O 13.8796 1.65361 4.03585
O 13.9414 1.91001 1.59648
O 12.9352 7.20974 0.766296
O 12.5458 2.31081 16.2774
O 14.7785 3.37927 16.811
O 14.633 5.56358 0.509698
O 12.7581 6.42223 15.8225
O 14.6495 4.80249 4.79155
O 0.632772 1.5412 3.87018
O 15.3933 6.98104 5.87887
O 13.4337 3.37744 6.01947
Si 0.96763 15.2128 1.6604
Si 1.81672 10.2507 16.3553
Si 2.73333 15.9414 4.06302
Si 3.89045 12.2689 2.63507
Si 1.00784 11.9509 1.72893
Si 4.54712 15.1471 1.80272
O 14.4136 14.1458 7.28252
O 2.78266 10.0349 5.84111
O 2.17179 11.9207 3.068
O 5.97428 14.7804 2.36923
O 1.70573 11.273 0.467367
O 3.31922 15.9088 15.5432
O 1.07874 13.5437 1.57186
O 4.4299 16.0489 0.37536
O 3.99647 16.1607 3.10849
O 5.14408 11.8027 1.87468
O 3.03193 1.80318 7.55094
O 4.54616 12.4986 4.00666
Si 9.02232 13.4776 12.691
Si 7.84565 9.51556 16.4657
Si 6.82395 15.0016 3.88293
Si 8.46347 11.3161 4.04149
Si 6.8352 11.4545 1.55047
Si 9.40401 15.0459 2.24636
O 5.80368 14.4184 4.94738
O 8.05977 10.0979 5.26814
O 7.79232 12.5592 0.790381
O 9.24014 12.6802 4.35905
O 6.95837 10.27 0.510208
O 9.83298 13.7231 1.51316
O 9.01878 11.9975 13.4896
O 7.71497 0.236412 2.30605
O 8.35157 14.6401 3.28131
O 9.27742 10.2452 3.08178
O 6.55249 16.5053 3.77487
O 7.38416 11.4408 3.04466
Si 9.49084 12.4533 0.486999
Si 12.3265 7.77747 15.1545
Si 11.629 17.1041 2.42288
Si 12.4237 8.65921 0.828951
Si 9.70376 9.62799 1.66298
Si 14.3913 16.7704 3.20307
O 11.8801 11.8732 7.04572
O 0.674416 9.14008 7.80892
O 11.1585 9.03186 1.81915
O 1.78003 15.3404 2.92664
O 11.5664 8.56589 16.4006
O 15.1779 15.5485 2.34901
O 10.0161 10.9604 0.794457
O 15.0542 18.074 2.49404
O 10.6405 15.8113 2.44592
O 15.0982 11.7286 1.40595
O 11.7369 17.9419 3.72948
O 13.0505 16.4329 2.5372
Si 13.491 2.81525 7.59187
Si 3.20873 0.915621 8.86331
Si 0.245079 5.85099 9.38555
Si 5.84568 2.07376 10.1114
Si 13.8798 17.6475 7.348
Si 3.3357 5.275 9.26691
O 14.8414 4.87052 10.0201
O 5.86702 0.819175 11.1644
O 2.32547 1.38742 10.2178
O 6.21501 7.60507 8.95804
O 0.997367 15.5638 9.33396
O 4.45197 4.78471 8.07079
O 14.3715 1.08533 7.37464
O 1.76093 5.76797 9.8324
O 3.12635 3.76587 9.92565
O 7.33659 2.49563 9.49127
O 15.5859 7.39047 9.66279
O 5.34048 3.30974 11.2588
Si 5.19256 4.86606 6.5222
Si 6.53138 0.775314 6.18724
Si 5.65453 8.75687 9.97221
Si 9.24372 4.95935 9.18915
Si 8.24889 2.44982 8.01746
Si 7.5633 7.37223 8.19008
O 4.15748 5.75818 10.5191
O 10.2416 17.2976 13.5144
O 8.61119 3.92655 8.0831
O 8.61084 8.35787 8.78527
O 7.68441 2.01644 6.55898
O 7.87208 5.95931 9.01977
O 8.80593 3.58266 4.40614
O 8.76568 5.54691 5.84456
O 7.15272 8.07216 6.80906
O 10.22 6.29444 9.63762
O 6.62201 10.132 9.7096
O 8.75405 4.24217 10.4945
Si 11.6484 4.6953 2.62139
Si 12.7008 0.668209 4.71463
Si 9.54884 9.34029 9.65029
Si 1.14891 1.76087 11.0798
Si 10.9108 1.35443 6.91067
Si 15.4374 5.23273 6.50838
O 10.7835 8.93175 10.6024
O 11.7367 16.7841 10.5917
O 12.0034 2.10223 7.7325
O 0.391691 5.88716 7.80333
O 10.997 17.7446 7.1173
O 14.1309 2.6986 9.07393
O 9.64335 1.82026 7.95537
O 14.3059 11.8163 8.32274
O 13.6893 5.41803 6.96551
O 13.0442 17.7408 8.71068
O 10.0862 10.2063 8.33783
O 0.105842 2.89451 11.0546
Si 15.1101 12.8241 7.21268
Si 2.24857 8.76815 5.04924
Si 14.2975 14.2614 11.328
Si 4.13272 15.0307 10.979
Si 0.341015 9.01237 9.4754
Si 1.13167 16.6311 8.05039
O 5.56469 15.2667 14.668
O 1.99201 9.28239 9.65864
O 4.0343 10.6841 8.08987
O 2.00185 15.374 7.21639
O 1.90615 7.69391 6.17007
O 3.34589 14.6233 4.8303
O 0.782861 13.321 8.0192
O 2.36249 17.5105 8.62879
O 15.4212 15.1052 12.3158
O 2.85475 14.3924 9.98554
O 15.2475 17.0114 7.81167
O 3.52451 11.2936 13.0286
Si 4.54912 13.6038 5.27515
Si 6.7384 9.2225 5.6418
Si 6.6257 15.4998 9.553
Si 10.3625 11.8395 7.79608
Si 4.06868 10.6918 6.5052
Si 7.7642 15.9875 6.81474
O 5.40775 14.7156 10.0494
O 8.83455 10.5404 10.5136
O 12.2267 12.4544 4.54523
O 11.5678 1.56513 5.43196
O 5.52619 10.1113 6.14762
O 7.81906 14.4982 6.29482
O 4.12519 12.3283 6.28248
O 6.88151 17.2171 6.11176
O 7.00767 16.1505 8.19111
O 9.99837 12.6818 8.95562
O 6.75018 16.6084 10.7403
O 9.45335 12.4254 6.69874
Si 9.34748 13.6596 5.7312
Si 15.5871 8.33837 6.51389
Si 10.9299 15.8954 6.92312
Si 14.0708 11.4666 9.86931
Si 12.7962 11.8282 5.58416
Si 12.5701 16.1697 9.31328
O 9.20275 16.3225 6.81807
O 12.779 10.2747 9.80672
O 0.591562 9.26887 5.08101
O 13.3857 15.0627 10.0401
O 14.1489 12.5514 5.88509
O 2.11271 17.4003 4.36013
O 10.8758 14.596 6.07588
O 13.6553 17.7665 5.71659
O 11.0019 15.5236 8.45258
O 15.2247 10.4059 10.0122
O 10.98 0.683832 15.3269
O 14.2689 12.7514 10.6067
Si 14.2939 3.46518 10.4745
Si 6.39151 0.587457 15.5981
Si 1.73813 7.27231 15.6068
Si 4.12696 1.79071 1.6567
Si 4.21218 2.63925 15.9075
Si 4.04923 5.40717 14.4592
O 0.740739 5.877 15.733
O 5.18828 17.4319 15.5693
O 3.7893 2.49968 0.280198
O 5.4068 6.19092 14.469
O 2.07878 2.30678 12.2813
O 3.75792 5.17677 12.85
O 0.440333 1.44921 13.981
O 4.24944 9.69279 10.1139
O 3.04396 6.49092 15.0796
O 6.73233 16.5931 13.0501
O 2.21154 8.75784 15.7502
O 4.10442 5.34756 0.93588
Si 4.10317 4.24917 11.5679
Si 5.95898 17.381 11.7904
Si 6.21898 7.31562 15.234
Si 11.4145 2.35547 15.23
Si 8.43052 2.91482 14.6507
Si 7.45901 7.35709 12.2651
O 7.28719 6.58096 16.1494
O 9.10173 0.0682228 17.0526
O 7.7627 1.34237 15.0453
O 9.06486 7.68766 12.5154
O 9.96867 2.78443 14.8146
O 7.40166 5.83537 12.3833
O 5.61776 2.13848 15.6754
O 6.40055 8.06507 11.2408
O 7.10827 7.76043 13.7645
O 12.301 2.24408 13.881
O 4.6295 3.17293 2.36588
O 8.21085 4.17312 15.7608
Si 8.2465 4.58443 12.1674
Si 11.0576 17.147 12.0169
Si 10.1297 6.47882 13.4149
Si 15.3033 17.9534 13.169
Si 12.8232 1.57835 12.6154
Si 11.9189 6.04194 9.81975
O 9.05799 6.16395 14.4741
O 14.5912 0.982745 16.0088
O 15.1763 17.2576 14.7093
O 4.15312 3.96746 15.1763
O 12.4169 16.4437 12.8477
O 12.0671 5.00333 10.7768
O 9.63264 5.34018 12.5293
O 12.5605 7.34811 10.3724
O 13.3556 2.66675 11.5654
O 13.8417 0.526834 13.1557
O 11.1767 7.47758 14.0554
O 0.389646 0.574337 11.8148
Si 0.811354 14.1812 13.3475
Si 3.18316 10.5744 9.42246
Si 1.72732 15.9602 15.6327
Si 4.35943 11.9607 11.7952
Si 1.84756 11.3831 13.2908
Si 2.9488 1.18469 13.3711
O 1.42587 15.3664 -0.0243868
O 1.64748 11.2037 14.9812
O 5.84636 11.5671 11.767
O 2.67273 17.8854 13.2873
O 0.327285 11.2328 12.6907
O 8.1877 3.37395 13.2073
O 1.8683 12.986 12.9407
O 4.6098 16.4163 11.5007
O 1.44951 15.3298 14.2885
O 9.28728 13.0682 11.2823
O 3.23624 1.81215 14.8711
O 4.55047 13.7333 12.0341
Si 2.06973 14.2095 8.57457
Si 7.35473 11.1102 10.6068
Si 6.99373 15.3 13.8595
Si 9.79083 11.4883 14.8655
Si 8.87981 13.4694 9.67157
Si 9.83001 16.1163 14.488
O 3.68271 13.7368 2.1333
O 10.8566 15.0749 13.8571
O 7.46723 14.147 12.8279
O 9.34093 12.6116 16.0652
O 7.59273 12.5421 9.68485
O 8.16908 14.8445 9.87878
O 3.50284 11.7548 10.4574
O 11.7484 0.648938 12.0692
O 8.24012 15.7643 14.6662
O 11.1426 10.7702 14.642
O 8.71689 16.1239 1.21173
O 8.4733 10.4575 15.2477
Si 12.6004 15.0226 13.672
Si 12.3753 8.96488 10.8171
Si 10.7927 17.9048 16.7254
Si 14.6295 10.8977 0.0351119
Si 12.1143 10.3274 13.5018
Si 13.9988 12.6653 14.6653
O 10.3744 16.3875 16.0256
O 13.2545 9.94368 0.618833
O 13.0468 9.1191 14.3657
O 1.85043 17.6552 15.4359
O 12.4855 9.84357 12.1273
O 15.2853 13.2534 13.8837
O 13.249 11.3969 13.9234
O 12.9196 14.019 12.2225
O 12.9738 14.0251 14.7249
O 0.21565 9.90161 16.7941
O 11.5944 17.9604 0.960931
O 13.9959 11.9506 16.1763
324
 Atoms. Timestep: 15500
Si 0.294699 4.65915 16.6644
Si 4.87865 16.5506 15.9534
Si 4.75878 7.02262 4.35406
Si 3.66593 2.08733 6.21357
Si 1.72057 0.874483 3.905
Si 4.48627 4.53215 2.57205
O 4.7435 6.13722 5.79563
O 4.50836 1.48059 9.57865
O 2.50913 1.80282 5.06549
O 6.20171 8.54216 16.3466
O 2.34911 1.20468 2.57816
O 2.8081 4.76541 3.30647
O 0.935907 4.66813 1.06943
O 2.20779 6.91194 0.708553
O 4.98638 5.98197 3.17736
O 5.00105 1.28258 5.89277
O 3.51651 7.85368 4.57528
O 4.2387 3.61942 5.75326
Si 2.10332 5.58109 1.66569
Si 7.7919 17.9607 0.470049
Si 7.92524 4.6768 4.67323
Si 9.53715 2.92303 2.82868
Si 6.22823 18.0276 3.02346
Si 8.97039 5.66553 1.83601
O 6.62391 4.54008 5.53974
O 6.78312 0.998718 4.23874
O 8.90773 4.00947 1.69359
O 12.4925 4.80296 1.38981
O 6.99631 0.955523 16.724
O 8.82424 5.9313 0.271968
O 4.90448 0.90749 2.58009
O 8.4806 9.00981 1.2042
O 8.09333 5.54154 3.21691
O 10.9063 3.57365 2.86047
O 5.866 8.10707 4.73148
O 10.712 5.68999 2.36105
Si 8.36132 5.52661 15.7922
Si 15.3071 17.8776 15.8505
Si 13.37 4.25151 5.46264
Si 14.6332 1.2677 2.53259
Si 13.8981 2.29898 16.936
Si 12.8881 5.64867 -0.0257464
O 12.8506 5.16029 4.15608
O 13.4593 1.05064 3.68898
O 13.9424 2.19888 1.43584
O 13.0293 6.99092 0.859691
O 12.9159 3.01218 15.9278
O 15.2251 3.10088 16.3752
O 14.3515 5.1055 -0.0599344
O 13.5008 6.74523 15.8271
O 15.097 4.67921 5.17924
O 0.176258 1.11681 3.545
O 0.204449 7.22287 5.9956
O 13.7281 3.24075 6.52745
Si 1.12387 14.828 1.42763
Si 1.73841 10.0086 15.8328
Si 2.42592 15.722 3.96381
Si 3.91563 12.6743 2.0773
Si 1.15202 11.4569 1.20593
Si 4.44755 15.5 1.62368
O 13.6794 13.7252 8.14138
O 3.81663 10.2034 5.74731
O 2.58837 11.851 1.93828
O 5.97239 14.9256 2.29802
O 1.71247 11.3728 16.8123
O 3.48574 15.8816 15.4687
O 0.692467 13.2267 1.10012
O 4.89169 16.279 0.305147
O 3.63833 15.6623 2.91746
O 5.19338 11.8187 2.00336
O 3.01104 1.86141 7.82798
O 3.87769 12.9229 3.77731
Si 8.97644 13.1235 13.296
Si 7.50683 9.14987 16.9869
Si 6.57527 15.1234 3.81944
Si 8.47481 11.0222 4.32247
Si 6.85059 11.542 1.77066
Si 8.86191 15.4316 1.67871
O 5.51768 14.3013 4.54262
O 7.72565 10.0693 5.31847
O 7.82601 12.3568 0.702332
O 8.99112 12.4471 5.0902
O 6.78616 10.3236 0.787181
O 9.47767 13.8138 1.61344
O 8.40155 11.9563 14.0891
O 7.47836 0.364358 2.02851
O 8.0968 15.5469 3.14004
O 9.74808 10.1964 3.51644
O 6.27256 16.6565 3.89296
O 7.75943 11.4443 3.08194
Si 9.42702 12.6277 0.747631
Si 12.7713 7.91798 15.0223
Si 11.5037 17.1205 1.80936
Si 12.3459 8.46056 0.70664
Si 9.91196 9.81749 1.99313
Si 14.3032 16.3455 2.30944
O 11.8637 11.8788 7.0432
O 0.461774 9.01233 8.05424
O 11.383 9.4639 1.44669
O 1.32761 14.9271 3.10347
O 11.5862 8.10948 16.334
O 15.2897 15.7212 1.25338
O 9.72116 11.3116 1.35347
O 14.4397 17.8061 1.70431
O 10.3471 16.2134 1.97462
O 15.3413 10.8863 0.670014
O 11.696 17.4282 3.39341
O 12.8461 15.9014 1.80853
Si 13.3965 2.44104 7.96268
Si 3.11258 0.90588 8.98603
Si 0.717985 6.17396 9.6125
Si 5.85944 1.55241 10.5023
Si 14.0678 17.7207 7.10365
Si 3.87773 5.33213 8.97835
O 0.0205824 4.88888 10.4259
O 5.67183 0.523526 11.6359
O 1.80175 1.20891 9.77527
O 6.51259 7.4756 8.97396
O 0.795725 16.2459 9.22977
O 4.81603 5.1436 7.79298
O 14.1529 1.08429 7.69939
O 2.28241 5.6825 9.37992
O 3.67551 4.01048 10.2437
O 6.83227 1.40281 9.35758
O 0.27213 7.61043 10.0872
O 5.6894 3.11047 10.879
Si 5.28977 4.75749 6.42705
Si 6.42651 0.95681 5.87393
Si 5.8995 8.51481 10.2219
Si 9.05472 4.83218 9.16757
Si 8.00682 1.83972 8.36134
Si 7.83506 7.33576 8.23039
O 4.67924 5.99508 10.2882
O 10.3318 16.6402 12.7273
O 8.42048 3.32335 8.67172
O 8.89659 8.41619 8.7619
O 7.30489 1.85376 6.78039
O 8.06499 5.75707 8.3607
O 8.80963 3.48241 4.12298
O 8.98833 5.65583 5.36751
O 7.46447 8.03291 6.74076
O 10.5864 5.23558 9.19337
O 6.5778 10.0001 9.70494
O 8.47492 4.79679 10.6396
Si 11.9321 4.74439 2.89604
Si 12.3753 0.359182 4.43536
Si 9.48596 9.81988 9.53011
Si 1.30015 1.68568 11.4088
Si 10.899 1.05332 6.99698
Si 15.347 5.80917 6.77848
O 10.6264 9.80758 10.8102
O 12.16 16.794 10.3974
O 11.8323 2.05266 7.86222
O 15.3925 6.05355 8.22665
O 11.0853 17.3501 7.37771
O 14.3286 3.36738 8.86414
O 9.39377 1.35409 7.75372
O 14.5674 11.5992 8.85341
O 13.5861 5.75553 6.34558
O 13.4509 16.8324 8.31205
O 9.92655 10.8892 8.24391
O 0.0585929 2.40353 10.6292
Si 14.8939 12.7133 7.92162
Si 2.90676 9.19609 5.10346
Si 14.1295 14.0217 11.4834
Si 4.26804 14.9532 10.3309
Si 0.488905 9.12036 9.61716
Si 1.51685 17.0337 7.45245
O 6.05869 15.5745 15.1887
O 2.00298 9.54024 10.3043
O 4.11879 10.5371 8.20806
O 1.80632 15.3266 7.40819
O 2.25742 8.43451 6.67344
O 2.9753 14.7275 5.15183
O 0.616672 13.3691 8.6059
O 2.90815 17.4639 8.23635
O 0.316933 14.3585 11.9066
O 2.94572 14.6835 9.31571
O -0.00782472 17.1 7.05322
O 3.84432 11.8724 12.876
Si 4.21826 13.5712 5.09726
Si 6.64829 8.99748 5.70523
Si 7.09648 15.3143 9.65874
Si 10.9354 12.3151 8.27265
Si 4.81458 11.0844 6.75007
Si 7.21735 15.8959 6.70419
O 5.86952 14.2961 9.92796
O 8.60093 10.4934 10.7301
O 12.3736 13.6042 5.48813
O 10.9116 1.11109 5.33343
O 5.91034 9.97352 6.65574
O 7.9841 14.3996 6.55274
O 4.88686 12.4903 6.08846
O 6.66974 17.4096 6.38992
O 6.76659 15.876 8.23379
O 10.4758 12.5511 9.89871
O 6.75181 16.6447 10.7782
O 9.88499 13.2372 7.4943
Si 9.38076 13.7159 6.01614
Si 0.500566 8.64209 6.56572
Si 10.2965 15.9099 7.49274
Si 14.21 11.3019 10.504
Si 12.6883 12.2682 5.79351
Si 12.9327 15.7153 9.25335
O 8.86261 16.3182 7.18668
O 12.8835 10.4221 10.3194
O 0.919247 9.699 5.31371
O 14.0773 14.8645 10.114
O 14.2752 11.9938 6.36569
O 1.81668 17.2347 3.92705
O 10.549 15.051 5.94134
O 12.9257 17.9298 5.88838
O 11.5345 15.2605 8.42417
O 15.1909 10.0994 10.6159
O 11.107 1.46746 15.9133
O 13.283 12.7692 10.5542
Si 14.7674 3.62645 10.2665
Si 6.15717 1.12514 15.3211
Si 2.21365 6.75837 15.9198
Si 3.58413 1.54015 1.65917
Si 3.72757 2.86542 16.1312
Si 4.25774 5.16114 14.3036
O 0.870694 6.04121 15.988
O 5.17625 17.8531 15.362
O 3.24758 1.727 0.172998
O 5.30924 6.35347 14.1397
O 2.69558 1.69939 12.1052
O 4.06431 4.95212 12.7721
O 0.0974361 0.941601 14.5446
O 4.34415 8.82314 10.0598
O 2.73352 6.21928 14.5623
O 6.32344 15.8505 13.0661
O 2.02536 8.37115 15.7793
O 3.56254 5.17274 1.2113
Si 4.94633 4.526 11.4123
Si 5.80532 17.0224 12.0933
Si 5.98557 7.54813 14.9866
Si 11.5529 2.78645 15.1289
Si 8.36372 2.94648 14.4589
Si 7.86096 7.98452 12.5094
O 7.11127 6.43543 15.6659
O 9.30646 0.433407 0.144018
O 7.231 1.75139 14.2393
O 9.2837 7.97239 13.3315
O 10.0634 2.84884 14.2994
O 7.74846 6.44277 12.3875
O 5.10781 2.27005 15.765
O 6.81328 8.36919 11.4194
O 6.91601 8.25318 13.9874
O 12.2908 2.37852 13.8531
O 4.04917 3.11926 1.9774
O 7.73861 4.00395 15.6673
Si 8.29121 5.02669 12.2265
Si 11.5161 17.4789 11.958
Si 10.378 6.6557 13.8071
Si 15.0972 0.0686947 13.0976
Si 12.8438 2.1774 12.4233
Si 11.5851 6.17305 9.93638
O 9.54764 6.22287 15.1622
O 14.0845 0.868335 16.3692
O 14.3902 17.0858 14.6082
O 4.46765 4.3472 15.8849
O 12.6244 16.9036 12.6986
O 12.0749 5.46693 11.0496
O 9.76421 5.54243 12.7157
O 11.3183 7.60815 10.5618
O 13.5362 3.17077 11.1176
O 14.1219 1.23968 12.6197
O 11.8417 7.25281 14.0153
O 0.584365 0.5471 12.0122
Si 0.552974 13.8807 13.519
Si 3.43125 9.99121 9.47323
Si 1.94825 15.6872 15.7726
Si 4.51121 12.2903 11.5185
Si 2.26953 11.3887 13.2362
Si 3.49368 1.52772 13.5264
O 1.82689 15.485 0.22793
O 2.68459 10.4857 14.6167
O 6.06057 12.091 10.9407
O 3.44155 0.150152 13.6493
O 0.898466 10.711 13.2158
O 8.24509 3.9421 13.361
O 1.83248 12.8897 13.6859
O 4.59174 16.3695 11.3397
O 0.935499 14.9082 14.6563
O 9.0936 12.697 11.8158
O 2.80023 2.30984 14.6923
O 4.04309 13.6849 11.274
Si 1.4827 14.6476 9.03302
Si 7.15457 11.223 10.4828
Si 6.98114 14.8593 14.0436
Si 9.25106 10.9713 15.3494
Si 9.27191 13.4484 10.4503
Si 9.85203 16.0705 14.1177
O 4.10964 13.9431 1.05854
O 11.0611 14.7022 14.0948
O 7.69661 13.9593 12.8455
O 9.76745 12.3011 16.2821
O 7.93671 12.3467 9.61682
O 8.45288 14.7611 10.4035
O 3.98874 11.0214 10.5515
O 11.9016 1.1706 11.8858
O 8.29263 15.9159 14.1901
O 10.5719 10.6692 14.5784
O 7.99668 16.3253 0.712685
O 8.15166 10.3106 16.0959
Si 12.6946 15.4702 13.7952
Si 12.0771 9.24283 10.934
Si 10.5131 0.0781298 16.3084
Si 14.4737 10.4969 16.5541
Si 11.9486 10.5382 13.6388
Si 13.5428 12.8174 14.7742
O 10.1282 17.2597 14.9788
O 13.6746 9.22071 0.129522
O 12.8567 9.44707 14.73
O 0.928373 16.9485 15.8384
O 12.3515 9.60459 12.5144
O 15.0717 13.0018 14.0464
O 12.5363 12.076 13.8782
O 13.067 14.4021 12.655
O 13.1403 14.2731 15.1735
O 0.0347099 10.0133 15.5877
O 11.3646 17.5088 0.240316
O 14.1333 11.9073 15.9648
324
 Atoms. Timestep: 16000
Si 0.442729 4.56721 16.7965
Si 4.64696 16.6489 15.6106
Si 4.82128 6.92621 4.94826
Si 3.34992 2.09935 5.80102
Si 1.73678 0.782432 3.54441
Si 3.95119 4.6435 3.22252
O 4.98726 5.81708 6.11632
O 4.942 1.45414 8.8944
O 2.32384 1.50688 4.77359
O 6.52061 8.01546 16.5868
O 2.59481 1.16476 2.31836
O 2.0867 5.16729 2.85974
O 1.79776 4.64805 0.473219
O 2.50084 6.78663 0.0161647
O 4.5189 5.97566 3.72667
O 4.78267 1.53443 5.83252
O 3.3559 7.80226 4.85002
O 3.86188 3.62992 5.87346
Si 2.40843 5.85554 1.37732
Si 7.7451 17.934 0.459405
Si 7.82938 4.29474 4.63764
Si 9.83847 2.64308 3.26105
Si 6.27194 0.525846 2.93621
Si 9.23671 5.43969 2.1532
O 6.45873 4.14654 5.20594
O 6.69046 0.839996 4.5124
O 9.56316 3.77612 2.08632
O 12.8276 4.97007 1.99374
O 6.84346 1.09748 16.9444
O 7.84122 5.47487 1.14823
O 5.28735 1.18606 1.95378
O 9.03768 8.86198 1.12585
O 8.1632 5.31164 3.53822
O 11.053 3.48137 3.74406
O 5.95325 8.14224 5.2931
O 10.5716 5.772 2.98794
Si 8.45628 5.36766 16.4854
Si 0.00580541 0.277749 15.7346
Si 13.6447 4.68909 5.81694
Si 14.4798 0.832633 2.67256
Si 13.7879 2.33149 17.0637
Si 13.4944 5.73799 0.831122
O 12.8008 5.22301 4.59175
O 13.4247 0.928137 3.70967
O 14.2186 1.59398 1.26802
O 13.613 7.22898 1.53805
O 12.5634 3.22223 16.1091
O 15.138 3.30553 16.5905
O 15.0404 5.33438 0.707201
O 12.8843 5.88429 16.5812
O 15.3245 4.61957 5.42738
O 0.247493 1.14804 3.29328
O 15.2715 7.70093 6.05603
O 13.4903 3.69662 7.15298
Si 0.730471 14.3309 1.10788
Si 1.29626 10.0223 15.5668
Si 2.44912 15.9249 3.23237
Si 4.04723 12.2913 2.43127
Si 1.41227 11.3779 1.2341
Si 4.45887 15.1585 1.12519
O 13.2817 14.3525 8.78687
O 3.49652 10.4448 5.16223
O 2.73403 11.4681 2.26252
O 5.88354 15.0986 1.9149
O 1.94845 10.7689 16.7828
O 3.21611 16.0831 15.0472
O 1.29817 12.8204 1.13949
O 4.75576 16.2447 17.148
O 3.56705 16.1079 2.16263
O 5.54741 12.0735 1.83105
O 2.75521 2.04822 7.25594
O 3.8407 12.9267 3.86822
Si 8.79077 12.8926 13.859
Si 7.64336 8.82901 0.40975
Si 6.504 15.582 3.31704
Si 8.69256 11.5363 4.30784
Si 6.82285 11.3234 1.95999
Si 8.96912 15.4322 1.63919
O 5.78765 14.5451 4.22777
O 8.02329 10.6759 5.60988
O 7.9688 11.6638 0.81204
O 8.64486 12.9442 4.88689
O 6.50441 9.80914 1.12407
O 9.01702 13.9325 0.799864
O 8.41474 11.3187 14.0903
O 7.63127 0.343309 2.17336
O 8.00723 15.3688 3.03916
O 9.54166 10.3626 3.71701
O 5.96097 17.0707 3.25224
O 7.53346 11.3377 3.29395
Si 9.22745 12.4234 0.412192
Si 12.7875 7.31931 15.694
Si 11.5549 17.1096 1.60802
Si 12.4028 8.46653 1.31428
Si 9.7899 10.1275 2.01662
Si 14.0115 15.8072 2.41168
O 11.7138 12.0508 7.11055
O 15.3517 9.00541 8.09248
O 11.1749 9.4806 1.86243
O 1.3994 15.1163 2.19996
O 12.0437 8.17379 16.8871
O 14.9408 15.2612 1.29384
O 10.2578 11.7977 1.81379
O 14.7654 17.2824 2.65344
O 10.4663 15.9578 1.62346
O 15.5574 10.7312 1.15924
O 11.5101 17.6978 3.18745
O 12.8185 16.2182 1.59789
Si 13.3861 2.31404 7.86859
Si 3.31734 1.17731 8.54762
Si 0.769942 5.85718 9.41169
Si 6.05665 1.50737 10.0273
Si 14.2228 17.5054 7.06743
Si 3.68064 5.07222 9.00734
O 15.3855 4.90398 10.3391
O 5.33012 0.358021 11.0705
O 2.54691 1.35028 9.80963
O 6.35369 7.57959 9.033
O 1.18206 16.5928 9.05714
O 4.76761 4.18047 7.83669
O 14.1225 1.0636 7.33721
O 2.37554 5.64694 9.79504
O 3.46327 3.80849 10.2489
O 7.56529 1.69383 9.45083
O 0.530817 7.39998 9.88562
O 5.70813 3.0101 10.5022
Si 5.32334 4.2329 6.44626
Si 6.10674 0.88752 5.97719
Si 5.74257 8.68575 9.96211
Si 9.11594 5.09671 9.35028
Si 8.14367 2.28596 8.10519
Si 7.61788 7.54247 8.03078
O 4.97088 5.67452 10.0186
O 10.3851 17.6793 12.0456
O 8.69247 3.7858 8.37049
O 8.80369 8.57273 8.79042
O 7.25746 1.71489 6.87866
O 8.2662 6.08668 8.5256
O 8.71838 2.99036 4.45469
O 8.60559 4.97701 5.883
O 7.38034 8.78791 7.05767
O 10.4735 5.89108 9.61213
O 6.37052 10.1287 9.32662
O 8.78457 4.78503 10.8019
Si 11.9256 4.83428 3.29632
Si 12.377 17.9629 4.55726
Si 9.53173 9.54758 9.71155
Si 1.62256 1.53106 11.0922
Si 10.879 1.34346 6.73583
Si 0.223125 6.06922 6.50973
O 10.8795 9.10519 10.1478
O 12.2782 16.8706 10.2445
O 11.9171 1.98275 7.70214
O 0.445312 5.41948 7.81398
O 10.9504 17.7966 7.42819
O 13.7105 2.62596 9.39889
O 9.41351 1.70393 7.42413
O 14.3005 12.1723 9.31907
O 13.8216 5.98947 6.99959
O 13.3144 16.3773 7.83707
O 9.90206 10.6842 8.67539
O 0.451547 2.52043 10.452
Si 14.6572 13.3833 8.3454
Si 2.55281 9.1185 4.90393
Si 13.969 13.6655 11.4998
Si 4.45074 14.6933 10.0857
Si 0.896935 8.90323 9.45848
Si 1.56374 17.338 7.08924
O 5.80087 15.6891 15.0019
O 1.93962 9.7338 8.78859
O 3.7048 11.1747 7.69134
O 2.29413 15.5055 6.93282
O 1.94469 8.66929 6.77687
O 3.27494 15.3643 4.48027
O 0.415413 13.9981 8.88617
O 2.93663 17.6516 7.85667
O 14.5114 14.2415 13.0141
O 2.9237 14.8905 9.54556
O -0.00586807 16.9809 6.85915
O 3.61558 11.3663 12.5089
Si 4.30989 14.0001 4.92
Si 6.848 9.40523 5.7771
Si 7.34272 15.2571 9.61065
Si 10.5344 12.3506 8.19359
Si 4.4534 11.2625 6.2154
Si 7.49157 16.2279 6.77838
O 5.97472 14.1714 9.99439
O 8.38985 10.277 10.6801
O 12.6565 13.3918 5.15236
O 11.315 0.911077 5.31978
O 5.63698 10.2152 6.51264
O 7.77381 14.4985 6.48864
O 4.73027 12.8167 6.00875
O 6.37451 17.364 6.40963
O 6.76652 15.8885 8.12032
O 10.4941 13.0816 9.75874
O 6.93073 16.5355 10.5537
O 9.6352 13.088 7.20282
Si 9.25138 14.0592 5.81813
Si 0.393468 9.24795 6.55227
Si 10.4288 16.1622 7.6085
Si 14.3792 10.9502 10.3602
Si 12.9419 12.4043 6.02636
Si 12.7391 15.6802 9.26196
O 8.90387 16.393 7.56752
O 13.3111 9.97567 10.7326
O 0.944708 9.52031 4.8022
O 14.4947 15.0553 10.7438
O 14.0284 12.7675 7.06184
O 1.52187 17.1677 3.48658
O 10.4696 15.1632 6.25462
O 13.312 17.4111 5.72154
O 10.8347 15.3163 8.81515
O 0.218699 9.94714 10.2828
O 10.8357 1.70336 16.3549
O 14.5261 12.0696 11.7362
Si 14.8386 3.37576 10.3154
Si 6.1654 1.21573 15.4582
Si 2.10392 7.01939 15.672
Si 3.67955 2.00126 1.62204
Si 3.6546 3.09717 15.8153
Si 3.93781 5.43373 13.8599
O 0.927093 5.98317 15.8054
O 5.0652 0.0454791 15.3678
O 3.17449 2.65813 0.3373
O 5.03208 6.24781 14.6936
O 2.46459 2.35938 12.2772
O 4.4896 4.9361 12.4704
O 0.730788 0.940603 14.1967
O 4.29714 9.1235 9.31629
O 2.82774 6.54014 14.3134
O 5.97253 16.1808 12.8852
O 1.23526 8.49425 15.4972
O 4.08684 5.12282 1.54032
Si 5.01149 4.34524 11.155
Si 5.9229 16.9766 11.635
Si 6.06851 7.15515 15.2681
Si 11.4088 2.77087 15.2461
Si 8.42114 3.0889 14.4544
Si 7.31542 8.04646 12.7484
O 7.35104 6.28191 15.4744
O 9.01026 17.9749 16.7524
O 7.39331 1.95295 14.6743
O 8.77988 8.08952 13.5726
O 9.99342 3.06545 14.5695
O 7.38583 6.44571 12.3351
O 5.26752 2.44714 15.7168
O 6.39229 8.48143 11.3199
O 6.30351 8.14246 14.102
O 12.082 2.15919 13.7692
O 3.59447 3.16111 2.60025
O 7.90683 4.02226 15.9137
Si 8.46745 5.32921 12.3279
Si 12.1563 17.6454 11.8093
Si 9.9725 7.01792 14.249
Si 15.5042 0.0613707 13.013
Si 13.2191 2.14004 12.5665
Si 12.1779 6.13962 10.2454
O 9.58665 6.07707 15.6376
O 14.2226 1.19287 15.9612
O 14.5935 17.3764 14.4472
O 3.6877 4.41788 14.9668
O 12.5972 16.2576 12.4635
O 12.2805 5.11729 11.1478
O 9.8084 6.1056 12.9311
O 12.5406 7.45722 11.0715
O 14.0173 3.38048 11.7371
O 14.3786 1.26518 13.195
O 11.6432 7.03075 14.229
O 0.851865 0.442289 11.9085
Si 0.0255961 13.4749 13.9709
Si 3.43117 10.4499 9.05195
Si 1.83897 15.567 15.6612
Si 4.59539 11.9813 11.5217
Si 2.02721 11.3333 12.9611
Si 3.61384 1.6367 13.2139
O 1.59905 14.9083 16.9949
O 1.98376 10.5371 14.2937
O 6.19137 12.003 11.2595
O 3.59215 0.286927 12.8858
O 1.41317 10.3129 12.0744
O 8.02734 4.10153 13.2669
O 1.30667 12.6355 13.4599
O 4.56969 15.9642 11.0483
O 0.84118 14.7768 14.6725
O 9.0401 12.9342 12.3707
O 3.01973 2.04839 14.8854
O 4.009 13.3382 11.2184
Si 1.87485 14.9486 8.49924
Si 7.2351 11.3099 9.92563
Si 6.95503 15.2844 13.8923
Si 9.38497 10.3524 15.2716
Si 9.33203 13.2955 10.8263
Si 9.59538 16.8543 13.0593
O 3.97751 13.6264 1.50712
O 10.5352 15.5088 13.4314
O 7.38946 13.7042 14.0868
O 9.7815 11.5365 16.3054
O 8.24495 12.5747 10.026
O 8.93369 14.9884 10.3346
O 4.26627 11.2495 10.207
O 12.5742 1.12676 11.5463
O 8.25195 16.3295 14.0176
O 10.8315 9.89386 14.7806
O 7.94232 16.2697 0.737198
O 8.06501 9.85538 16.3145
Si 11.9356 14.9892 13.2454
Si 12.2593 8.97843 11.0166
Si 10.658 0.0757136 15.9668
Si 14.2824 10.3725 0.106348
Si 12.4238 9.89919 14.0047
Si 13.0638 12.5231 15.3935
O 10.105 17.7773 14.4863
O 13.4135 9.65614 1.1078
O 13.2618 8.62974 14.8426
O 0.801274 17.0052 15.7088
O 11.9143 9.17409 12.7455
O 14.5984 12.9196 14.9888
O 13.0589 11.209 14.4033
O 12.4409 14.0033 12.0516
O 12.5341 13.9472 14.5369
O 15.2928 10.5403 15.8216
O 11.6287 17.5875 0.0361082
O 13.5146 11.7724 16.9107
324
 Atoms. Timestep: 16500
Si 0.290167 4.83015 0.0447422
Si 4.8074 16.4562 15.4239
Si 4.99779 7.38753 5.00115
Si 3.39639 2.34601 5.7202
Si 2.07185 0.76421 3.27271
Si 4.29862 5.53377 2.53791
O 4.48498 6.20223 5.97708
O 4.60328 1.78224 8.97974
O 2.37047 1.56249 4.62838
O 6.55888 8.01145 16.6794
O 2.94183 1.49585 2.10566
O 2.7394 6.43066 2.58005
O 1.55946 4.99062 1.07876
O 2.83441 6.93375 16.4715
O 4.83038 6.6946 3.4741
O 4.86144 1.38492 5.85079
O 3.85851 8.46451 4.86689
O 4.12584 3.76837 5.91125
Si 2.3881 6.63073 0.920149
Si 7.70486 17.9594 0.301497
Si 8.20619 4.39098 5.27487
Si 9.77839 2.61164 3.38665
Si 6.39381 0.481002 2.89374
Si 9.00305 5.40938 2.56418
O 6.71191 4.66281 5.83684
O 6.93967 1.06315 4.3174
O 9.60377 3.81554 2.10884
O 12.7007 4.80018 2.36684
O 6.70712 0.706384 16.602
O 8.58093 5.9184 0.913544
O 5.70401 1.93551 2.13478
O 9.24287 8.45491 1.15889
O 7.88922 5.28848 3.87063
O 11.1228 3.3161 3.77181
O 6.26913 8.32541 5.17565
O 10.251 5.50709 3.45985
Si 8.18607 5.60306 16.3819
Si 0.384174 0.135022 15.536
Si 13.3856 5.02707 6.34345
Si 14.672 0.694714 2.05061
Si 14.1692 2.35532 16.8375
Si 13.4175 5.71962 1.31925
O 12.6896 4.73053 4.93978
O 13.9596 0.768378 3.63627
O 13.5846 1.71305 1.12287
O 13.076 7.24564 1.90454
O 12.9641 2.98944 16.2422
O 15.3088 3.22539 0.467816
O 14.8819 5.75132 0.818387
O 12.4528 5.8956 -0.0191385
O 15.0638 5.2104 5.29973
O 0.64693 0.58042 2.73948
O 15.1936 7.75119 5.80978
O 13.975 3.60451 6.73467
Si 0.595724 14.1415 1.02554
Si 1.00763 9.99943 15.9568
Si 2.24563 15.7148 3.25037
Si 3.91144 12.4384 1.84869
Si 1.26147 11.2753 1.43438
Si 4.51743 15.2074 1.02071
O 13.1551 14.6077 8.86662
O 2.86292 10.6011 5.30308
O 2.64302 11.5543 2.52172
O 5.72441 15.0693 1.94885
O 1.54804 10.1105 0.244436
O 3.29971 15.7958 15.3146
O 1.36876 12.8272 0.727694
O 5.01673 16.358 16.9751
O 3.3908 15.6372 2.00575
O 5.26592 11.3514 1.80355
O 2.62961 1.86882 7.00116
O 4.30076 13.0491 3.21415
Si 8.75374 13.0919 13.8122
Si 8.06726 8.5194 0.062775
Si 6.52375 15.3416 3.30951
Si 8.37983 11.063 4.44811
Si 6.84935 11.2157 1.68633
Si 8.87906 15.3079 1.32984
O 5.56732 14.8835 4.44638
O 7.94238 10.1268 5.61058
O 7.84789 12.107 0.726156
O 9.05143 12.4514 4.96404
O 7.22503 9.77992 1.04002
O 9.52555 13.8757 0.926789
O 8.36 11.5317 14.2356
O 7.58385 0.495674 1.81529
O 7.98489 15.2835 2.59496
O 9.56891 10.264 3.54488
O 6.36552 16.9579 3.28874
O 7.55243 11.2679 3.07832
Si 9.44318 12.4057 0.816573
Si 11.9719 7.30528 16.2438
Si 11.4035 16.8072 1.86794
Si 12.6081 8.70748 1.68547
Si 9.80514 9.63898 2.14653
Si 14.281 15.9666 2.43411
O 11.578 12.6154 7.26686
O 15.4617 9.3115 7.61145
O 11.3215 8.99361 2.56668
O 1.26249 14.4216 2.54065
O 11.4776 8.40465 0.271408
O 14.749 14.7023 1.47665
O 9.86085 10.8722 1.11989
O 14.55 17.2629 1.59252
O 10.0375 16.0847 2.14869
O 15.2847 11.2765 1.26447
O 11.7246 17.5044 3.2536
O 12.6932 15.7243 2.1665
Si 13.6669 2.33042 7.66133
Si 3.21252 0.857946 8.32142
Si 0.693822 5.78041 9.16158
Si 6.05466 1.86564 9.82137
Si 14.2809 17.3984 6.73909
Si 3.5546 4.96635 9.19048
O 15.2802 4.79939 9.8266
O 5.83125 0.594062 10.8502
O 2.11596 1.36804 9.30487
O 6.30629 7.44085 9.36266
O 1.23783 15.5892 9.35526
O 4.92672 4.58738 8.04972
O 14.4202 1.00336 6.95343
O 2.12252 5.4698 9.79267
O 3.49775 3.70312 10.4291
O 7.47309 1.98417 9.3128
O 0.802743 7.52904 9.09183
O 5.82517 3.0422 10.8697
Si 5.23871 4.9049 6.6108
Si 6.39698 1.16796 5.78133
Si 5.38447 8.35575 10.4564
Si 9.27499 5.25215 9.17249
Si 8.23569 2.54192 7.96121
Si 7.71785 7.7569 8.52642
O 4.65924 5.55026 10.4977
O 10.3868 17.5898 12.4554
O 8.85464 3.96463 8.39273
O 8.73153 8.65323 9.20198
O 7.28352 2.05691 6.85748
O 8.62027 6.49976 8.2133
O 9.07129 3.24634 4.66838
O 9.22412 5.42951 5.6466
O 7.21662 8.46701 7.26351
O 10.8641 5.65789 9.531
O 6.24917 9.92375 10.117
O 8.6758 5.25703 10.6387
Si 11.8267 4.87896 3.76638
Si 12.6468 0.245902 4.26298
Si 9.48377 9.79235 10.0337
Si 1.38409 1.49434 10.6664
Si 11.0588 1.48063 6.48205
Si 0.146928 6.29906 6.2923
O 10.4972 9.0738 11.0271
O 12.4211 16.3565 10.4533
O 12.0851 1.90271 7.63967
O 0.995203 5.32783 7.41945
O 11.2299 17.7452 6.82296
O 14.4324 2.7887 9.04056
O 9.68882 2.09122 7.33164
O 13.7975 12.1058 9.04839
O 14.3863 5.883 7.26232
O 13.3966 16.8751 7.85455
O 9.98278 10.7819 8.82582
O 0.515215 2.71207 10.8638
Si 14.4215 13.7336 8.63772
Si 2.50159 9.23125 4.51425
Si 13.9887 13.6743 11.6292
Si 4.69402 14.6285 9.83094
Si 0.5632 9.19155 8.85391
Si 1.30346 16.443 7.99204
O 5.67154 15.263 14.7854
O 2.07057 9.76491 8.71511
O 4.09461 10.9451 7.78561
O 2.13798 15.1426 7.21243
O 1.79925 8.82709 6.10765
O 2.87914 14.755 4.35692
O 0.345011 13.803 8.25034
O 2.67044 17.2779 8.02652
O 14.89 14.2278 12.8358
O 3.4296 14.4258 8.89534
O -0.00490558 16.6508 7.0549
O 3.36803 11.8208 12.8644
Si 4.2533 13.9877 4.70392
Si 6.60142 9.52051 6.2903
Si 7.57434 15.3978 9.47744
Si 10.0888 12.3081 8.00618
Si 4.03537 11.233 6.13499
Si 7.53486 16.2078 6.51519
O 6.31508 14.5442 9.68329
O 8.36734 10.4934 10.8846
O 12.1918 12.7552 4.95039
O 12.0668 1.24658 5.34943
O 5.47873 10.6637 5.94169
O 7.87798 14.7166 5.98293
O 4.20802 12.8282 5.73748
O 6.55034 17.7391 6.39819
O 6.94529 16.1514 8.08141
O 10.2744 12.9594 9.40562
O 7.4745 16.7866 10.2909
O 8.8719 13.3547 7.30013
Si 9.10974 13.7826 5.64963
Si 0.1118 9.26502 5.93883
Si 10.6982 16.2627 6.62779
Si 14.0649 11.0458 10.2217
Si 12.6693 12.5001 6.224
Si 12.5278 16.0742 8.98434
O 9.14161 16.5724 6.72394
O 12.8968 10.1364 10.3862
O 0.806655 9.20138 4.08246
O 14.8186 13.6586 10.3483
O 14.0224 13.1039 6.547
O 2.63477 17.286 3.77169
O 10.5435 14.9335 5.96712
O 13.3046 17.2401 5.49131
O 11.1834 15.9757 8.23591
O 15.4478 10.2804 10.0185
O 11.7439 1.1695 15.5438
O 13.9096 11.9339 11.7033
Si 14.7651 3.48907 10.4049
Si 6.42419 1.13869 15.1217
Si 1.59559 7.00688 15.2858
Si 4.19308 2.52985 1.81134
Si 4.0236 2.56797 15.713
Si 3.81452 5.32729 14.1887
O 0.820395 5.66272 16.0015
O 5.39511 17.7758 14.7422
O 3.98752 2.70656 0.139161
O 4.764 6.38991 14.7012
O 2.59176 2.01987 11.7902
O 3.97669 4.5049 12.8114
O 0.847584 1.08932 14.225
O 4.16178 8.95502 9.48236
O 2.40862 6.15712 14.1332
O 5.98661 16.2034 12.6364
O 1.05595 8.425 15.3666
O 4.44254 6.06821 0.94107
Si 4.82176 4.12063 11.5266
Si 6.00439 17.0335 11.22
Si 5.78364 7.15727 15.6004
Si 11.8449 2.81578 15.0708
Si 8.75403 3.03154 15.0285
Si 7.35621 7.54974 12.7032
O 6.55875 5.80129 16.2501
O 9.37337 0.559558 16.8389
O 8.04577 1.55714 14.8522
O 8.96578 7.99969 12.8987
O 10.279 2.82214 14.6106
O 7.27262 5.88257 12.697
O 5.77569 2.68695 15.4221
O 6.18596 8.11086 11.8077
O 6.92346 7.40972 14.3972
O 12.6193 3.11407 13.668
O 3.93965 3.89114 2.50299
O 8.34021 4.11257 16.0207
Si 8.59746 4.84931 12.3369
Si 11.9727 17.3753 11.7616
Si 9.85383 6.91899 14.1245
Si 15.2993 0.00165161 12.9595
Si 13.1965 2.08155 12.5782
Si 12.1667 5.84802 10.5529
O 8.55301 6.29805 15.0402
O 14.8585 1.27445 15.9279
O 14.8346 17.3248 14.2337
O 3.41911 4.00162 15.1656
O 12.45 16.8118 13.2467
O 12.1018 4.93249 11.5313
O 9.79191 5.55045 13.2248
O 12.1691 7.46954 11.0367
O 13.8913 3.0863 11.5677
O 14.3818 1.32509 13.2455
O 10.7719 6.71037 15.4255
O 0.672095 0.24904 11.6283
Si 15.4482 13.6688 14.2095
Si 3.64338 10.3541 9.23663
Si 1.77095 15.4995 15.6998
Si 4.24305 12.1051 11.6818
Si 1.95401 11.4585 13.6396
Si 3.75796 1.42359 12.9505
O 1.41328 15.192 0.145546
O 2.32788 10.6804 14.8763
O 5.83427 11.7179 11.8009
O 3.45405 0.0566552 12.9525
O 1.48679 10.1035 12.8953
O 8.37103 3.85243 13.672
O 0.606143 12.3838 13.7992
O 4.64967 16.1737 10.5799
O 0.573968 14.7558 14.9295
O 8.87122 12.9587 12.2824
O 3.39939 1.77236 14.4442
O 4.39463 13.651 11.0857
Si 2.07841 13.9187 8.67681
Si 6.9442 11.1066 10.9377
Si 6.78907 15.2412 13.5513
Si 9.36548 10.7729 15.3455
Si 9.12065 13.2315 10.7849
Si 9.71858 16.7397 13.6674
O 4.27514 13.6425 0.825708
O 10.487 15.2763 13.4594
O 7.51657 13.8418 14.032
O 9.52628 12.098 16.3251
O 7.7515 12.4765 10.245
O 8.54001 14.6227 10.5022
O 3.71201 11.4266 10.4645
O 12.4592 0.959004 11.691
O 8.1676 16.169 13.778
O 10.5935 10.2824 14.5199
O 8.49103 16.5882 0.276302
O 8.61068 9.52851 15.8821
Si 12.1331 15.0944 13.6645
Si 12.1235 9.03636 11.331
Si 10.7462 0.112895 16.2173
Si 14.1188 10.842 0.212384
Si 12.134 9.70706 14.3579
Si 12.706 12.5397 15.2544
O 10.3729 17.2755 14.9862
O 13.5406 9.63753 0.914799
O 12.4491 8.56634 15.4251
O 1.36295 16.9082 15.3632
O 12.2188 9.28028 12.7763
O 14.1862 13.0896 14.9899
O 12.9235 11.1958 14.2881
O 12.6141 14.0131 12.4133
O 12.1169 13.8871 14.6975
O 15.098 10.6923 16.1297
O 11.4595 17.7206 0.616788
O 13.2018 12.1725 16.8417
324
 Atoms. Timestep: 17000
Si 0.338156 5.07914 0.436266
Si 4.95247 16.302 15.2419
Si 4.89389 7.39075 4.5571
Si 3.77362 2.20108 5.88607
Si 2.44921 0.890572 3.45037
Si 4.84771 5.38102 2.24858
O 4.73148 6.04362 5.50224
O 4.65456 1.17005 9.34318
O 3.34367 1.60089 4.43971
O 6.54827 7.83543 16.7067
O 3.10428 1.42517 2.1498
O 3.14768 6.04092 2.6276
O 1.6778 5.53357 1.02212
O 2.47402 7.39729 16.745
O 5.34969 6.72538 3.14136
O 5.29156 1.63294 6.10169
O 3.66312 8.31032 4.7515
O 3.9825 3.76193 6.02338
Si 2.76406 6.75425 1.21597
Si 8.30097 -0.0217394 0.709148
Si 7.77762 5.24658 5.01891
Si 9.06889 2.91878 3.75417
Si 6.28974 0.778361 2.70159
Si 8.60062 5.25339 2.06871
O 6.80503 4.98179 6.1671
O 6.95326 1.08535 4.34098
O 8.46836 3.52665 2.36743
O 12.5015 4.74232 2.25456
O 7.34005 0.130407 16.7063
O 8.10325 5.21499 0.60349
O 5.70541 2.00503 1.93898
O 8.83456 9.19971 1.45772
O 7.98366 5.70912 3.50347
O 10.645 3.45368 3.55962
O 5.70605 8.3503 5.54119
O 10.1395 5.45456 2.53675
Si 7.71123 5.20544 16.1328
Si 0.438974 0.245528 15.2808
Si 13.3678 4.47185 5.48043
Si 15.0911 1.10461 2.40997
Si 14.4245 2.32484 16.6451
Si 13.068 5.77695 1.00637
O 12.3962 5.24092 4.62887
O 14.1291 1.25987 3.60167
O 15.4155 1.69774 1.00626
O 13.5428 7.41476 1.22356
O 13.4208 2.86226 15.4594
O 15.4015 4.00108 16.7011
O 14.6651 5.36292 1.15133
O 12.9027 6.04093 16.5132
O 15.0464 4.76262 4.75519
O 0.939707 1.37286 3.36863
O 0.21952 7.43878 5.55449
O 14.0923 3.4288 6.64419
Si 0.893959 14.4578 0.891653
Si 0.550163 9.84907 16.0999
Si 2.7172 15.6235 3.18244
Si 4.01455 12.2221 1.93248
Si 1.02469 11.4754 1.44004
Si 4.67979 15.1831 1.01514
O 12.1992 14.6003 8.74065
O 3.53824 10.7302 5.58138
O 2.49604 11.7746 2.04917
O 5.9931 15.0069 1.8485
O 1.16805 10.2463 0.577001
O 3.3995 15.6181 14.8236
O 0.954502 12.9167 0.647687
O 5.16672 15.7894 16.6533
O 3.72123 16.0721 2.07019
O 5.48716 11.9307 1.40159
O 3.05164 1.7157 7.32782
O 4.37567 12.742 3.39201
Si 8.97966 13.0592 13.6543
Si 7.76678 8.72366 0.331164
Si 6.59776 15.6349 3.24932
Si 8.04897 10.9653 4.49015
Si 6.83189 11.1948 1.56554
Si 9.22347 15.3402 1.92934
O 6.07428 14.3084 3.9895
O 7.63923 10.566 5.97857
O 8.00756 12.2957 1.35768
O 8.7226 12.4436 4.93051
O 6.5772 9.56375 1.16817
O 9.6947 14.1769 1.07358
O 8.496 11.7344 14.3355
O 7.83504 0.804868 2.00075
O 8.08985 15.0944 2.88402
O 9.13223 9.97807 3.82777
O 6.43425 17.2659 2.70296
O 6.92789 11.0765 3.25567
Si 9.56872 12.5192 0.847332
Si 12.55 7.43507 15.5526
Si 11.8706 16.8558 2.1659
Si 12.1456 8.55586 1.1343
Si 9.78905 10.0669 2.28132
Si 14.5509 15.9866 2.5296
O 11.5618 11.7617 8.06041
O 15.7973 9.25916 7.67936
O 11.2204 8.84683 2.41647
O 1.60932 14.986 2.25441
O 11.5973 8.08974 16.8811
O 15.048 15.2346 1.21292
O 10.4368 11.791 2.19891
O 15.1641 17.5463 2.49699
O 10.5782 15.9601 2.37048
O 14.9943 11.3317 1.58798
O 11.9698 17.9467 3.39588
O 13.0682 15.9228 2.28093
Si 13.8845 2.50134 7.83735
Si 3.45128 0.580054 8.48858
Si 0.746963 6.25581 9.32783
Si 5.99315 1.94498 9.90779
Si 14.2593 17.417 7.04538
Si 3.69379 5.56044 9.1232
O 0.123708 5.00208 10.1937
O 6.15208 0.764723 11.0409
O 2.28966 0.97486 9.52632
O 6.37888 7.62371 9.3577
O 1.38895 15.2118 9.16445
O 4.39681 5.22907 7.78473
O 14.6484 1.04484 7.30025
O 2.49431 6.63384 9.53078
O 3.04892 4.19883 10.218
O 7.18242 1.71427 8.90328
O 15.4703 7.7055 9.57829
O 5.41603 3.1351 10.7528
Si 5.00436 4.84365 6.34066
Si 6.73174 1.14647 5.976
Si 5.46579 8.39661 10.4246
Si 9.09702 4.87384 9.36824
Si 8.58944 2.02843 8.17732
Si 7.70768 7.54286 8.55311
O 4.8433 5.67422 10.1978
O 10.1531 17.2995 12.7048
O 8.54466 3.68586 8.54087
O 8.57863 8.32052 9.82432
O 7.78441 2.04335 6.80109
O 8.33113 6.192 8.7582
O 8.66922 3.95712 4.82715
O 8.77507 6.03212 5.95865
O 7.54472 8.56316 7.38221
O 10.5258 5.57612 9.12728
O 6.31195 9.86672 10.6159
O 8.90977 4.41865 10.8853
Si 11.3124 4.97641 3.3763
Si 12.9353 0.645628 4.38876
Si 9.27764 9.68369 10.4141
Si 1.42785 1.65303 10.5599
Si 11.2237 1.34851 6.6782
Si -0.0745617 5.92882 6.08245
O 10.4851 9.16142 11.1135
O 11.6419 16.5942 10.235
O 12.3944 1.93111 7.65335
O 0.522995 5.97156 7.68642
O 10.8845 17.8979 6.31007
O 14.9501 2.97008 8.99456
O 10.0697 1.91607 7.54716
O 13.6486 12.1303 9.27164
O 13.8795 6.02568 6.59432
O 13.0332 17.205 8.21592
O 9.65596 10.3562 8.97203
O 0.400567 2.78284 11.1544
Si 14.0893 13.5253 8.60819
Si 2.77281 9.51562 4.92344
Si 14.2065 13.8004 11.5533
Si 4.26244 14.8117 9.87435
Si 0.200726 9.19068 9.46149
Si 1.42504 16.6276 7.74661
O 5.7955 15.2832 14.3313
O 1.81551 9.64191 9.40671
O 3.04056 11.1481 7.80622
O 1.96776 15.1252 6.7097
O 2.24956 8.78131 6.66215
O 3.75175 14.9542 4.18054
O 0.313582 13.6648 8.0088
O 2.67364 17.38 7.90986
O 0.274629 13.7013 12.3921
O 3.43746 14.3798 8.45825
O 15.4841 16.8311 7.84328
O 3.17804 12.1027 13.0635
Si 4.69139 13.713 4.4884
Si 6.53872 9.39075 6.51653
Si 7.32524 15.4382 9.26181
Si 9.89717 11.7358 8.27978
Si 4.30488 11.4411 6.66037
Si 7.37662 16.1118 6.30106
O 5.99857 14.6001 9.48733
O 8.26936 10.1909 11.7113
O 11.8312 12.6992 5.63832
O 11.8888 1.66945 5.09614
O 5.53438 10.3738 7.01373
O 7.82289 14.5422 6.31097
O 4.80838 12.9664 5.96263
O 6.85711 17.6345 6.24041
O 6.86905 15.9755 7.78853
O 9.83603 12.9648 9.60711
O 6.96412 16.7087 10.1619
O 9.48626 12.8086 7.21042
Si 9.1406 13.8185 5.74075
Si 0.421893 8.87344 6.14203
Si 10.4717 16.3606 6.32801
Si 13.7649 11.0773 10.6064
Si 12.4572 11.8966 6.58768
Si 12.0856 16.1789 8.84918
O 8.86399 16.8174 6.38556
O 12.3498 10.3052 10.3071
O 1.08775 9.90769 4.97507
O 14.51 14.0874 10.0457
O 13.9117 12.6217 6.87386
O 2.36872 17.2335 3.45378
O 10.3854 14.8939 5.90947
O 13.3795 17.4929 5.54511
O 10.7 16.2684 7.91936
O 14.9862 10.2985 10.0567
O 11.6573 1.20152 15.6931
O 14.3004 12.1083 11.6577
Si 14.7717 3.72944 10.3725
Si 6.90157 0.768823 15.3623
Si 1.38677 6.95766 15.5944
Si 4.14601 2.46943 1.53317
Si 4.23413 2.50322 15.4779
Si 3.63143 5.20517 14.2333
O 0.261351 6.30922 16.4806
O 5.69859 17.6351 14.9117
O 3.76992 2.15745 16.8689
O 4.36973 6.4233 14.8142
O 2.47825 1.49374 11.817
O 4.08307 4.89562 12.6829
O 0.99519 0.713451 13.554
O 4.31274 8.69867 9.35652
O 2.06638 5.62318 14.6997
O 6.39676 16.5288 12.4884
O 0.633611 8.4067 15.7179
O 4.52133 6.17958 0.785532
Si 4.47365 4.1978 11.4299
Si 5.87307 17.2714 11.1153
Si 5.6097 7.15399 15.5513
Si 11.9896 2.61824 15.1163
Si 9.00607 2.67848 14.6717
Si 7.29003 7.61359 12.8273
O 6.08557 5.44431 15.8909
O 9.66773 0.506587 0.080352
O 8.76618 0.790039 14.7401
O 8.79033 7.74171 13.3927
O 10.4234 3.0736 14.8542
O 7.56866 5.94313 12.5895
O 5.94881 2.08324 15.2379
O 6.24024 7.88596 11.7282
O 6.41566 7.59156 14.2071
O 12.0447 1.81865 13.6398
O 4.35099 3.97697 1.59142
O 8.27718 3.67452 15.7218
Si 8.59951 4.77135 12.3991
Si 11.5234 17.3272 11.8331
Si 9.6511 6.62416 14.3772
Si 15.44 0.153369 12.601
Si 12.9575 1.87625 12.3198
Si 11.8895 5.98305 9.95045
O 8.96796 6.08123 15.6829
O 15.4636 1.70528 15.7526
O 14.7044 17.5485 14.2645
O 4.41268 4.09019 15.1039
O 12.4777 16.3452 12.5487
O 11.6932 5.63075 11.2533
O 9.83104 5.24778 13.2468
O 12.075 7.73012 10.0519
O 13.5263 2.78075 11.0208
O 14.3504 1.40069 12.8261
O 11.178 6.95384 14.6784
O 0.477268 0.290903 11.0155
Si 0.215736 13.4709 13.939
Si 3.41371 10.1545 9.23798
Si 1.92674 15.4653 15.3028
Si 4.00787 12.1441 11.5192
Si 2.18904 11.3358 14.027
Si 3.63861 1.03716 12.9332
O 1.84854 15.065 16.8047
O 1.63117 10.6938 15.3159
O 5.45071 11.7353 11.8921
O 3.59858 17.7012 13.1559
O 1.10038 10.7977 13.21
O 8.62058 3.20325 13.2492
O 1.55911 12.81 14.5809
O 4.70424 16.0282 10.9098
O 0.291541 14.883 14.9867
O 9.41575 12.7688 12.1633
O 3.35355 1.77193 14.1971
O 4.08188 13.6749 10.9166
Si 1.94981 13.9863 8.24037
Si 6.81879 11.0313 11.5717
Si 6.95993 15.2665 13.2384
Si 9.17728 10.7961 15.5637
Si 8.80855 13.2392 10.7009
Si 9.78945 16.2578 14.0978
O 3.79935 13.8364 1.23617
O 10.869 14.999 14.1029
O 7.56335 13.794 13.6081
O 9.72888 11.9672 16.442
O 7.63703 12.1713 10.6017
O 8.17604 14.5779 10.1784
O 3.51935 11.3016 10.2125
O 12.2744 0.806447 11.4802
O 8.15164 15.9983 14.1673
O 10.3787 10.1708 14.8608
O 8.59547 16.4583 0.756284
O 8.13483 10.076 16.4872
Si 12.5101 15.0626 13.5855
Si 11.9721 8.79438 11.2811
Si 10.9909 17.8773 16.3452
Si 13.7379 11.2265 0.564589
Si 11.7202 9.912 14.1666
Si 13.2773 12.4127 14.9996
O 10.2142 17.2786 15.0998
O 12.8496 9.97078 0.926227
O 12.6493 8.98925 15.1022
O 1.41189 17.0786 15.0343
O 12.0432 9.48944 12.7412
O 14.802 12.2817 14.1979
O 12.2165 11.4201 14.358
O 12.4958 14.0537 12.4035
O 12.9942 14.1187 14.8394
O 14.7029 10.4767 16.5753
O 11.8489 17.0836 0.536395
O 13.1113 12.3067 16.622
324
 Atoms. Timestep: 17500
Si 0.244387 5.0387 0.268784
Si 5.08502 16.1449 15.1016
Si 4.78153 7.15173 4.73978
Si 3.71142 2.20217 6.1049
Si 2.44514 0.916943 3.31761
Si 4.60248 4.58092 2.92938
O 3.7355 6.17915 5.78334
O 4.91004 1.18333 9.06351
O 2.82468 1.49586 4.71689
O 6.09955 8.20457 16.5264
O 2.98441 1.71961 2.0248
O 2.96703 4.88434 3.14849
O 1.59256 5.02135 1.10184
O 2.99772 7.0174 0.210271
O 5.00975 6.00195 3.71436
O 4.89613 1.20596 5.7242
O 3.79893 8.33817 4.2417
O 4.10143 3.65461 6.01715
Si 2.88266 5.95665 1.43056
Si 8.56921 17.5395 0.555111
Si 7.63361 5.61006 5.10597
Si 9.26405 3.28123 4.10214
Si 6.52271 0.477157 2.66996
Si 8.43614 5.41596 2.24745
O 6.16166 5.01996 5.66888
O 6.80041 1.17408 4.26215
O 8.70489 3.83844 2.80411
O 12.0146 5.159 1.76496
O 7.7054 0.144569 16.4678
O 7.94581 4.96452 0.579817
O 5.42826 0.922899 1.6618
O 8.37713 8.7647 1.22994
O 7.47657 5.68606 3.49684
O 10.7185 3.91518 3.99724
O 5.95641 8.39775 5.4446
O 9.9271 5.6896 2.67537
Si 8.34615 4.99091 16.1119
Si 0.519798 0.319981 15.1638
Si 13.652 4.42947 4.99811
Si 15.1614 1.70478 2.37629
Si 14.5321 2.47852 16.6517
Si 12.9546 5.6895 0.673906
O 12.9763 5.31277 3.90391
O 14.0019 1.58057 3.56398
O 14.531 2.18203 1.07002
O 12.8734 7.19632 1.41914
O 13.372 2.93589 15.8453
O 0.2261 3.61309 16.6403
O 14.4128 5.09177 0.82593
O 13.0502 6.25839 16.2338
O 15.28 4.75291 5.05185
O 0.908789 1.62319 3.17662
O 15.3022 7.50716 5.71179
O 13.7186 3.43731 6.1805
Si 1.20201 14.7722 1.47892
Si 0.544081 10.0483 16.3118
Si 3.43519 16.065 3.19618
Si 3.62175 12.5237 2.21504
Si 0.7288 11.741 1.74454
Si 5.27441 14.9425 0.841125
O 12.8608 14.255 8.16088
O 3.17779 10.4763 5.97751
O 2.18308 11.7546 2.39007
O 6.60306 15.2015 1.71047
O 1.28235 10.989 0.342975
O 3.64682 15.4853 15.2446
O 0.856931 13.3103 1.35611
O 5.42963 15.6471 16.5033
O 4.33171 16.1015 1.74694
O 4.73862 11.3033 2.54037
O 2.94257 2.15169 7.60351
O 3.54645 13.2619 3.64219
Si 9.33478 12.7666 13.3727
Si 7.37465 9.16439 17.1038
Si 6.77124 15.3477 3.37003
Si 8.10627 11.264 4.37304
Si 6.46166 11.4582 1.82986
Si 9.57096 15.4448 2.42139
O 5.70825 14.187 4.13182
O 7.67667 10.3808 5.66739
O 7.63317 12.2292 1.08881
O 9.01166 12.4218 5.06349
O 6.57733 10.3435 0.605975
O 9.57394 13.89 1.66472
O 8.86966 11.529 14.0945
O 7.85258 0.149358 1.85377
O 8.38845 15.3851 3.32431
O 9.31133 10.2074 3.77109
O 6.2113 17.0779 3.26944
O 7.07778 11.6987 3.32939
Si 9.04019 12.5411 0.631622
Si 12.5457 7.77672 15.5635
Si 12.0087 17.1675 2.24729
Si 12.133 8.55352 1.33529
Si 9.37331 9.93001 2.07437
Si 14.9754 16.879 2.71338
O 11.0094 11.9411 7.37681
O 0.469323 9.00802 7.68946
O 10.7595 9.16547 1.90956
O 2.27275 15.0969 2.62964
O 11.6337 8.21699 16.9214
O 0.118421 16.0451 1.46949
O 9.80891 11.4416 1.63999
O 15.181 0.159181 2.0118
O 11.1661 15.6572 2.55883
O 14.8222 11.6269 1.39254
O 12.0751 17.9662 3.57276
O 13.4714 16.5877 2.17783
Si 13.7579 2.43255 7.56319
Si 3.40021 0.636643 8.5417
Si 0.528245 6.02288 9.33123
Si 6.13939 1.74841 10.1742
Si 14.2038 17.4844 6.96725
Si 3.56731 5.55973 9.38621
O 15.3375 4.69643 10.1654
O 6.01698 0.45086 11.3091
O 2.48479 1.03473 9.65219
O 6.30411 8.05036 9.3694
O 0.492963 16.0722 8.74758
O 4.18964 4.84292 8.13907
O 14.2937 0.898931 7.57946
O 2.00518 5.81929 9.02336
O 3.10302 4.14176 10.2536
O 7.18021 2.20222 9.25043
O 0.275624 7.53852 9.49868
O 5.49984 3.04222 10.9306
Si 4.69125 4.98894 6.68954
Si 6.34883 0.838601 5.80157
Si 5.48126 8.7378 10.5955
Si 8.93527 4.7444 9.32549
Si 8.1851 2.0964 8.06223
Si 7.35578 7.17863 8.50165
O 5.25854 5.54444 10.7023
O 10.1944 17.3944 12.8811
O 8.63339 3.65597 8.22829
O 8.55414 7.89571 9.22814
O 7.21814 2.01571 6.85291
O 7.52623 5.70988 9.15321
O 8.50465 4.31627 5.06162
O 7.88836 6.72815 6.16685
O 7.30065 8.53152 7.38053
O 10.1796 5.99378 9.32185
O 6.04481 10.203 10.3639
O 8.81841 4.29531 10.7684
Si 11.2903 5.28854 3.18601
Si 12.8209 1.08162 4.55121
Si 9.21377 9.16788 10.0156
Si 1.64043 1.70526 10.8081
Si 11.0059 1.4559 6.7076
Si 15.1513 6.22256 6.55455
O 10.312 8.71048 10.9673
O 11.8503 16.4441 10.3347
O 11.9983 2.21834 7.60852
O 15.4914 5.6656 7.91776
O 10.9152 17.9729 6.79707
O 13.7298 3.21174 8.96916
O 9.62077 1.59712 7.57547
O 13.9148 11.8401 9.06571
O 13.5646 6.08663 6.25359
O 13.0835 16.7326 7.72381
O 9.40904 10.296 8.94386
O 0.459772 2.43845 9.89602
Si 14.0993 13.333 8.25028
Si 2.68738 9.32655 4.76411
Si 14.4651 13.6787 11.6338
Si 3.80226 14.7255 10.5733
Si 0.275985 8.97707 9.27875
Si 1.43128 16.7565 6.98444
O 6.19283 15.1178 14.2823
O 1.63296 9.76884 9.89204
O 3.81071 10.9289 8.29617
O 1.89461 15.2964 6.86034
O 2.07618 8.15749 5.79237
O 3.74075 15.2944 4.67983
O 15.591 14.024 7.82297
O 2.57606 17.5089 7.75422
O 15.5041 13.5819 12.8638
O 2.49673 14.7577 9.48373
O 15.6087 17.1089 6.49128
O 3.70194 11.4347 13.1874
Si 4.33637 13.7593 4.85707
Si 6.72015 9.40191 6.24333
Si 6.59155 14.8185 9.25183
Si 9.70736 11.7371 8.17894
Si 4.34399 11.1564 6.81252
Si 7.3462 16.0362 6.39169
O 5.1106 14.4657 9.57873
O 8.03268 9.71437 10.9609
O 11.9761 11.2632 5.1474
O 11.6655 1.74355 5.36215
O 5.55561 10.2591 6.68433
O 7.89492 14.6481 5.84873
O 4.60732 12.5077 5.8391
O 6.39889 17.3822 6.28908
O 6.7232 15.3677 7.69418
O 10.043 12.6002 9.53081
O 6.41787 16.51 9.93532
O 8.9848 12.9464 7.36013
Si 9.24377 13.7314 5.90774
Si 0.350988 8.97652 6.08071
Si 10.4208 16.5338 6.67712
Si 13.5475 11.0339 10.3773
Si 12.2949 11.5556 6.42096
Si 12.2363 15.9752 8.80086
O 8.86767 16.6676 6.77517
O 12.2965 9.91312 10.2075
O 0.907857 10.101 4.93471
O 14.3304 14.0247 10.0536
O 12.9926 13.008 6.12699
O 2.73691 17.5206 3.04365
O 10.3366 14.9211 5.9678
O 13.4384 0.0946473 5.67034
O 10.7885 15.8766 7.99526
O 14.716 9.7596 10.2542
O 12.3351 0.792423 15.5551
O 14.0267 12.1558 11.5522
Si 14.7454 3.34227 10.2195
Si 6.70498 0.742036 15.3587
Si 1.84569 7.12891 16.0588
Si 4.30698 1.93215 1.27752
Si 4.70917 2.97083 15.326
Si 3.43103 5.57215 14.2429
O 0.815677 5.97267 16.297
O 5.4543 17.7405 15.1774
O 3.81992 2.69147 16.9628
O 4.63264 6.66382 14.6709
O 2.80285 1.95039 11.9434
O 3.67455 5.44056 12.6259
O 0.473396 1.33103 13.7286
O 4.0447 9.01593 9.88657
O 2.27341 6.76452 14.5232
O 6.58168 16.2059 12.2331
O 1.03875 8.58979 16.2811
O 4.35184 5.27101 1.23491
Si 4.64529 4.46499 11.6043
Si 5.57028 17.0213 11.1857
Si 5.92819 7.11696 15.3349
Si 11.7543 2.44099 15.1732
Si 8.94964 2.47127 14.4616
Si 7.49801 7.62228 12.8618
O 6.96816 5.71428 15.6622
O 9.92548 0.394856 0.344193
O 7.63866 1.35916 14.2804
O 9.04499 7.67946 13.4479
O 10.2564 2.09496 15.1846
O 7.73095 6.07908 12.3372
O 5.93492 2.11229 15.6699
O 6.24812 8.19697 11.8767
O 6.73415 7.51176 14.1173
O 12.4752 2.48679 13.5365
O 4.80016 3.02949 2.32629
O 8.18296 3.61867 15.526
Si 8.63487 4.56254 12.2674
Si 11.4901 17.2629 11.7959
Si 10.0074 6.40044 14.1214
Si 15.5405 18.0118 12.4813
Si 12.9542 1.86058 12.1226
Si 11.9482 5.96286 9.45064
O 9.31829 5.92468 15.3121
O 14.6925 1.08865 15.7359
O 15.0677 17.3539 14.1236
O 4.37397 4.52732 15.1821
O 12.6989 16.7473 12.6025
O 12.1501 4.89854 10.3796
O 10.1412 5.41705 12.6268
O 12.492 7.38408 10.1197
O 13.843 3.0111 11.4859
O 14.1189 0.607648 12.0871
O 11.3206 7.1241 14.8306
O 0.793628 0.56383 11.4165
Si 0.975072 13.7841 14.0836
Si 3.13997 10.1811 9.46085
Si 2.14826 15.9636 16.0034
Si 4.35293 11.9882 11.9162
Si 2.50742 11.1472 14.0637
Si 3.90061 1.34119 12.9597
O 1.93687 15.1228 0.130958
O 1.37861 10.6523 15.0207
O 5.92836 11.9356 11.8605
O 3.30797 0.0875224 13.035
O 1.5238 10.4902 12.5915
O 8.84219 3.14316 13.0781
O 1.94794 12.5028 14.0238
O 4.14597 16.3125 10.626
O 1.28212 15.3732 14.7106
O 9.5721 12.6109 11.8411
O 3.74802 2.12852 14.1869
O 3.54526 13.3907 11.4708
Si 1.28988 14.5573 8.50379
Si 7.13571 11.0959 11.3746
Si 7.30607 15.1673 13.3148
Si 9.3426 10.6506 15.4702
Si 8.96185 13.4081 10.4269
Si 9.95195 16.4616 14.1858
O 4.79883 13.5445 1.57764
O 11.1493 15.4022 13.6758
O 8.05161 13.7026 13.3276
O 9.29647 11.7837 16.4881
O 7.77716 12.1316 10.3158
O 8.11913 14.61 9.87626
O 3.63073 11.151 10.6702
O 11.7042 0.978547 11.8809
O 8.52306 16.0103 13.9495
O 10.7574 10.3362 14.7302
O 9.1574 16.2506 1.13061
O 8.10311 9.67223 15.7148
Si 12.8381 15.2339 13.4331
Si 11.9844 8.63552 11.0592
Si 11.3992 17.9643 16.6229
Si 13.6316 11.1188 0.408612
Si 12.13 10.096 13.8984
Si 13.9176 12.6273 15.0217
O 10.6499 16.9582 15.5138
O 13.0197 9.8918 1.27179
O 12.8794 9.08423 14.8956
O 1.19622 17.3678 16.1414
O 12.1873 9.12185 12.6087
O 15.3266 13.3288 15.3408
O 12.8892 11.4787 14.182
O 13.0078 14.358 11.9127
O 13.1844 14.0916 14.7244
O 14.656 10.0634 16.5968
O 12.0924 0.0837768 0.912091
O 13.5423 12.5645 16.6025
324
 Atoms. Timestep: 18000
Si 0.0750083 4.90829 16.925
Si 5.44657 16.29 15.8452
Si 4.67661 6.95448 4.79436
Si 3.67904 2.49008 5.8953
Si 2.05916 1.11423 3.47181
Si 4.68043 4.59008 2.85988
O 4.72552 6.29487 6.30574
O 4.41541 1.3322 9.14951
O 2.78353 2.1576 4.68403
O 6.1959 8.28499 15.9985
O 2.87836 1.21346 2.1038
O 2.89758 4.60276 2.97967
O 1.64332 4.36146 0.494782
O 2.32563 6.89547 0.925532
O 5.11018 5.98604 3.62734
O 4.92969 1.46289 5.58732
O 3.50394 7.98091 4.7736
O 4.67068 3.83299 6.06561
Si 2.43877 5.40887 1.54359
Si 8.15392 17.5686 0.421129
Si 7.53617 5.14703 4.92104
Si 9.46863 3.11141 3.56392
Si 6.73697 17.9146 3.2592
Si 8.71367 5.71422 2.19766
O 6.67669 5.02635 6.41137
O 7.18783 0.874794 4.36472
O 8.90508 3.9935 2.39488
O 11.9682 4.56898 1.85832
O 7.16306 0.496471 16.8686
O 9.23561 5.4116 0.672685
O 5.64369 0.699744 2.48277
O 8.6881 8.89002 0.436671
O 7.78755 5.60184 3.53358
O 10.9144 3.97089 3.65514
O 5.86731 8.01647 4.83757
O 10.0949 6.36246 2.74114
Si 8.90681 5.39408 16.1428
Si 0.344463 0.0133704 16.0231
Si 13.1353 4.71381 5.6796
Si 14.7825 1.76594 2.80755
Si 13.9717 2.46768 16.9972
Si 13.0315 5.73675 0.824374
O 12.7496 5.50613 4.2966
O 13.81 1.54752 3.94804
O 14.7552 2.32318 1.24129
O 12.7823 7.11448 1.47369
O 12.9217 2.73146 15.8873
O 15.0569 3.54412 16.455
O 14.4969 5.61868 0.558345
O 12.4377 6.03215 16.4932
O 14.908 5.16326 5.57066
O 0.677803 1.75765 3.14612
O 14.6424 8.02623 5.93177
O 12.9824 3.62807 6.62877
Si 0.999118 15.2287 1.29725
Si 1.03077 10.1767 16.1731
Si 3.07317 16.2125 3.4556
Si 3.78996 12.3818 2.7651
Si 0.98887 11.9382 1.58906
Si 4.80568 14.9084 1.31601
O 12.2712 14.615 8.74342
O 3.24212 10.4695 5.44838
O 2.30379 11.7148 2.55708
O 5.83874 14.3552 2.32428
O 1.38226 11.2636 0.220333
O 3.85315 16.2575 15.4621
O 0.769286 13.581 1.32345
O 5.3787 15.5268 0.0491617
O 4.24123 16.3213 2.36787
O 5.0548 11.8687 1.96287
O 3.08416 1.50167 6.95095
O 3.8366 13.39 3.94766
Si 9.21872 13.2214 12.9174
Si 7.34912 9.34702 16.6593
Si 6.93522 14.766 3.54839
Si 8.05579 10.9246 4.14285
Si 6.42809 11.4316 1.63987
Si 9.41777 15.0548 1.53189
O 5.85693 14.2786 4.63093
O 7.36545 10.0493 5.34941
O 7.58011 12.4499 0.976693
O 8.50776 12.2853 4.47113
O 6.57156 10.0912 0.704874
O 9.62974 13.8019 0.717999
O 9.3032 11.8927 13.6375
O 7.82654 0.187595 2.06758
O 8.2613 14.5286 2.50117
O 9.00416 9.74993 3.38519
O 6.59563 16.355 3.38865
O 6.87317 10.9601 3.03269
Si 9.09191 12.2943 0.452571
Si 12.3906 7.59331 15.6513
Si 11.8502 16.7694 2.17717
Si 12.2038 8.6397 1.27879
Si 9.38799 9.62653 1.76605
Si 14.7515 16.6829 2.8491
O 11.3864 11.5223 6.82783
O 0.470067 9.88787 7.12235
O 10.847 8.9212 1.87744
O 1.93878 15.3892 2.51669
O 11.785 8.38634 16.852
O 15.2606 15.9853 1.47819
O 9.56705 10.9308 0.996955
O 14.5389 0.0891259 2.24701
O 10.5986 15.7193 2.14899
O 15.1515 11.4877 1.57833
O 11.47 17.7126 3.4072
O 13.1621 16.1308 2.79524
Si 13.207 2.21314 7.70328
Si 3.11601 1.29876 8.43631
Si 0.49886 5.8307 9.3161
Si 5.61346 1.6608 10.0506
Si 14.4654 17.8503 6.50068
Si 3.58467 5.46347 9.45012
O 14.6794 4.91577 10.0526
O 5.39545 0.414858 11.1948
O 1.96697 1.172 9.55647
O 6.26649 7.69408 9.5491
O 0.909681 16.4925 8.78273
O 4.31695 4.4765 8.30273
O 14.2702 1.34671 6.95519
O 2.01127 5.37029 9.11237
O 3.32702 4.02412 10.6394
O 6.84538 1.77796 8.95899
O 0.980992 7.50838 9.12386
O 5.61509 3.14543 10.735
Si 5.29032 4.85626 7.04605
Si 6.5071 1.00929 5.93564
Si 5.72478 8.61741 10.739
Si 9.16861 5.30878 8.88892
Si 8.05705 2.47418 8.14212
Si 7.54884 7.8973 8.35115
O 5.14424 5.50279 10.2584
O 10.2362 17.0756 12.0113
O 8.70395 3.81277 8.50638
O 8.26159 9.00277 9.20276
O 7.49503 2.19179 6.70471
O 8.40846 6.52605 8.08306
O 8.60223 3.72219 4.76108
O 8.5272 6.11092 5.76935
O 6.62738 8.56437 7.18089
O 10.429 6.13518 9.25387
O 6.59481 10.0332 10.144
O 8.5784 5.41028 10.3869
Si 11.4486 5.35135 3.19128
Si 12.5066 0.602472 4.49215
Si 9.46458 9.61265 9.83359
Si 1.59505 1.4561 11.0479
Si 10.4968 1.12706 6.9549
Si 14.8142 6.60736 6.74792
O 10.5066 8.9261 10.7581
O 12.5547 17.1604 9.86506
O 11.7306 1.25625 7.96649
O 15.1953 5.96577 8.0524
O 10.0394 17.6384 6.34727
O 14.1105 2.85228 8.95755
O 9.20845 1.32985 7.82265
O 13.9553 11.5117 9.32905
O 12.9945 6.16284 6.76099
O 13.7281 16.9714 7.77639
O 10.1278 10.7452 8.94412
O 0.784976 2.79284 11.1279
Si 14.0837 13.3462 8.6166
Si 2.51843 9.27388 4.81028
Si 14.2863 12.9071 11.8073
Si 3.48034 14.9871 10.5276
Si 0.863934 9.07816 8.55117
Si 1.5999 16.8547 7.50992
O 6.10522 15.2538 14.7094
O 2.01622 9.90654 9.2642
O 3.6782 10.8662 7.96609
O 1.85864 15.053 7.29145
O 1.39174 8.45645 5.80002
O 3.66961 15.6296 4.87093
O 15.5717 13.9918 8.09091
O 3.13427 17.3321 8.20169
O 15.2063 13.7821 12.7203
O 2.19371 14.8487 9.71447
O 0.233355 17.0226 6.52499
O 3.61789 11.5555 12.935
Si 4.33867 14.1385 5.26206
Si 6.0432 9.34432 5.87836
Si 6.13257 15.1412 9.02494
Si 9.90841 11.8659 7.83631
Si 4.01357 11.4314 6.42857
Si 7.33332 16.0905 6.32256
O 4.70559 14.4685 9.34715
O 8.88163 10.5445 11.2401
O 13.1592 11.505 5.24531
O 11.3393 1.33536 5.35377
O 5.34374 10.5828 6.46783
O 7.88714 14.4833 6.06961
O 4.38177 12.9508 6.32845
O 7.14124 17.6428 6.3178
O 6.30536 15.7313 7.5032
O 9.5923 13.1322 8.80295
O 6.55229 16.7732 9.87421
O 8.69128 12.1269 6.70528
Si 8.95662 13.4785 5.70389
Si 15.5395 9.4283 5.71445
Si 10.2464 16.1188 6.88168
Si 14.145 10.2166 10.2349
Si 13.0055 11.4091 6.65542
Si 12.7161 16.1244 8.69832
O 8.62388 16.0311 7.57346
O 12.7327 9.53828 10.4261
O 0.922839 10.2047 4.442
O 14.3911 13.8506 10.5143
O 13.5424 12.6968 7.23021
O 2.23286 17.6373 3.63312
O 10.2478 14.5041 6.61525
O 13.4728 17.6779 5.26968
O 11.2193 16.4875 8.13161
O 15.2486 9.51164 9.60587
O 11.3089 0.955551 15.4228
O 14.5399 11.3919 11.7088
Si 14.961 3.24051 10.3275
Si 6.69113 0.945538 15.398
Si 2.13691 7.13716 16.408
Si 4.41749 1.68257 1.87451
Si 4.33765 2.8278 16.0245
Si 3.95081 5.49669 14.557
O 0.799445 6.1604 16.4886
O 5.79976 17.6057 15.1822
O 4.25183 2.25913 0.27368
O 5.12995 6.45706 15.0061
O 2.65872 2.09204 12.3038
O 4.32575 5.26481 12.9196
O 1.0393 1.09801 14.5964
O 4.33568 9.22534 10.0096
O 2.83591 6.45635 15.1667
O 7.07871 16.1932 12.3391
O 1.723 8.73611 16.4364
O 4.38459 5.45064 1.41705
Si 4.91448 4.33776 11.5954
Si 5.90361 16.844 11.5029
Si 6.62248 6.92703 15.1006
Si 11.5502 2.39309 15.0626
Si 8.7393 2.91399 14.2747
Si 8.0518 7.65361 12.5734
O 7.35277 6.0008 16.2976
O 9.54925 17.828 16.8405
O 8.11326 1.55997 14.6699
O 9.6479 7.42614 12.8652
O 10.5835 2.94913 14.0396
O 7.70352 6.1077 12.6247
O 5.86968 2.30131 15.5614
O 6.68994 8.07552 11.862
O 7.6477 7.7411 14.1205
O 12.6574 2.1525 13.7342
O 4.43206 3.0476 2.44091
O 8.62318 3.89074 15.661
Si 8.4717 4.71597 11.9917
Si 11.7067 17.2945 11.3511
Si 10.4419 6.12212 13.5493
Si 0.0849197 0.1271 13.2731
Si 13.2714 1.59075 12.4444
Si 11.9026 6.48766 9.36028
O 9.45765 5.85168 14.8561
O 14.5983 1.1063 16.2533
O 14.9086 17.2769 15.0324
O 3.98087 4.44892 15.7808
O 12.7795 16.479 12.4823
O 12.4551 5.28596 9.66293
O 9.96849 4.92017 12.725
O 12.0956 7.18481 10.8136
O 13.9948 2.74814 11.4884
O 14.3657 0.786016 13.0749
O 11.3957 7.08401 14.4092
O 0.881368 0.247839 11.9115
Si 0.543642 13.9996 13.9972
Si 3.45768 10.1793 9.35876
Si 2.40682 15.8975 15.775
Si 4.25898 12.2484 11.6504
Si 2.08569 11.2769 13.5461
Si 3.52861 1.43719 13.3683
O 2.0487 15.3089 17.124
O 1.63001 10.3231 14.7768
O 5.78722 11.6424 11.6982
O 3.06277 0.170116 13.6759
O 1.52694 10.6293 12.2752
O 8.01749 3.86466 13.2986
O 1.47603 12.7119 13.8288
O 4.34668 16.1275 11.3977
O 1.6337 15.1321 14.7847
O 9.27543 12.9252 11.39
O 3.46694 2.33284 14.5854
O 3.39674 13.8263 11.4712
Si 1.36874 14.3824 8.5616
Si 7.25917 11.1162 11.1618
Si 7.22121 15.2099 13.6398
Si 9.46972 11.0055 14.8976
Si 8.47208 13.5236 9.82488
Si 9.99847 16.3974 13.6752
O 3.72961 13.7994 1.5577
O 10.9647 14.9891 13.2816
O 7.74231 13.7113 13.1711
O 9.27018 12.1541 16.0506
O 7.42453 12.2818 9.98546
O 7.69297 14.7108 9.30698
O 3.47126 11.3132 10.6576
O 12.0238 0.748825 11.9628
O 8.6439 15.9161 14.1302
O 11.0628 10.6906 14.9963
O 8.48071 15.9943 0.573123
O 8.28758 10.0795 15.4581
Si 12.5832 15.0711 13.2377
Si 11.9508 8.74836 11.5839
Si 10.9052 17.5861 16.237
Si 14.0676 10.8655 0.365664
Si 12.4134 10.2627 14.233
Si 13.445 12.9503 15.0921
O 10.7264 16.5825 15.1638
O 13.2671 9.92064 1.39756
O 13.0298 8.92279 14.8236
O 1.84519 17.5031 15.9216
O 11.9351 9.7246 12.7719
O 15.2966 13.5019 15.0896
O 13.3507 11.6928 14.1206
O 12.9918 13.7235 12.4416
O 12.8136 14.3371 14.6682
O 15.0342 9.98603 16.5911
O 11.7661 16.7087 0.30426
O 13.6437 12.015 16.3426
324
 Atoms. Timestep: 18500
Si 0.214642 4.96699 16.9081
Si 5.07562 16.3422 15.8189
Si 4.70934 7.20376 4.64341
Si 4.12664 2.28601 5.99205
Si 1.93323 1.00335 4.01426
Si 4.47816 4.65955 3.02402
O 4.14682 6.31078 6.06595
O 4.83031 1.2356 9.3371
O 2.87536 1.95091 5.05727
O 6.6393 8.08774 16.7298
O 2.71432 1.57375 2.56751
O 2.54442 4.83693 3.10819
O 1.60718 4.34837 0.947302
O 2.90258 6.9838 0.626438
O 4.70359 6.05448 3.56465
O 5.29442 1.26111 6.1751
O 3.39048 7.78093 4.18202
O 4.62808 3.7441 5.87565
Si 2.3264 5.65445 1.70258
Si 8.16947 17.8957 0.34601
Si 7.87134 4.90182 4.77084
Si 9.28724 2.73815 3.17074
Si 6.61781 0.289221 3.0126
Si 8.88337 5.54357 2.12558
O 6.75941 4.97186 5.82796
O 6.83196 1.39362 4.18348
O 8.67434 3.85004 2.12157
O 12.6615 5.0367 1.96504
O 6.97322 0.754159 16.992
O 8.90799 5.89557 0.654332
O 5.50012 0.989285 2.27828
O 8.36085 9.32909 1.15369
O 8.07605 5.71524 3.36999
O 10.7027 3.37785 3.62881
O 5.86176 8.26804 5.02099
O 10.4294 5.53489 2.73612
Si 9.03501 5.60869 16.1345
Si 0.133183 0.139795 15.9906
Si 12.6461 4.5593 6.16046
Si 14.7859 0.958454 2.46898
Si 14.0105 2.4642 17.0934
Si 13.0737 5.67181 0.567836
O 11.8988 5.05069 4.66131
O 13.5869 1.13269 3.59348
O 13.7617 1.66058 1.28293
O 13.16 7.33716 1.0946
O 12.8224 2.95606 16.1578
O 15.2417 3.54421 16.8496
O 14.7482 5.43784 0.754883
O 13.1781 6.12926 16.0991
O 14.0658 4.94344 5.52312
O 0.498724 0.958663 3.35297
O 14.4325 7.54065 6.01427
O 13.2604 3.54246 7.04754
Si 0.923309 14.9642 1.57013
Si 1.10324 9.89312 16.1227
Si 2.61013 16.1718 3.7929
Si 3.98139 12.7267 2.33528
Si 1.37924 11.8652 1.21178
Si 4.53413 15.5041 1.49134
O 13.3297 14.3457 8.64243
O 3.13972 9.84037 5.48785
O 2.65124 11.9372 1.99044
O 5.84684 14.9636 2.28721
O 1.77851 11.1648 17.067
O 3.66683 15.9789 15.0954
O 0.903027 13.3709 1.56525
O 4.69191 16.1788 0.191627
O 3.77558 16.1461 2.70328
O 4.99796 11.7526 1.4482
O 3.48338 2.2368 7.51482
O 3.45022 13.4121 3.66988
Si 9.31273 13.5 13.0912
Si 7.39555 9.36977 17.0534
Si 6.73131 15.2664 3.55686
Si 7.94075 11.2032 3.90208
Si 6.58328 11.7335 1.21615
Si 9.04748 15.1517 1.51048
O 5.53269 14.7667 4.63598
O 7.48312 10.1537 4.99313
O 7.85207 12.2449 0.557862
O 8.26274 12.5386 4.65954
O 6.33834 10.4077 0.0937362
O 9.97537 13.9255 0.958402
O 9.10486 11.8841 13.3474
O 8.00011 0.0376395 1.995
O 8.25875 14.8237 2.89098
O 9.15612 10.8812 3.02213
O 6.40539 16.9434 3.47382
O 7.0095 11.1551 2.66371
Si 9.38107 12.4922 0.406309
Si 12.8806 7.35912 15.2278
Si 11.5162 16.9945 1.83735
Si 12.1854 8.49131 0.668954
Si 9.75432 9.95695 1.83214
Si 14.2118 16.1034 2.44634
O 11.8694 11.8469 7.02138
O 0.654885 9.05669 7.36346
O 11.0216 9.00217 1.58887
O 1.59104 15.1458 2.85974
O 11.5958 7.84838 16.362
O 15.05 15.3017 1.07065
O 10.0188 11.0649 0.723735
O 14.477 17.5526 2.17285
O 10.2082 16.137 2.08369
O 15.4572 11.0173 1.67122
O 11.5613 17.7944 3.24858
O 12.6635 15.9372 2.2456
Si 13.6252 2.1604 7.89865
Si 3.30158 1.05562 8.71399
Si 0.597322 5.86695 9.36606
Si 6.05406 1.88525 10.0674
Si 14.0486 17.4785 6.63987
Si 3.68828 5.33352 9.24782
O 15.5342 4.64177 10.3499
O 6.27455 0.645652 11.1441
O 2.49381 1.19077 10.1687
O 6.41352 7.80145 9.15842
O 0.590434 16.7608 9.07654
O 4.76388 4.88443 8.13007
O 14.4024 0.995234 7.1993
O 2.16609 5.70267 8.99825
O 3.36314 3.8264 9.93497
O 7.48539 2.59104 9.37947
O 0.324787 7.35656 9.18146
O 5.50863 3.03914 10.7555
Si 5.08341 5.07684 6.58108
Si 6.83267 1.06165 5.87128
Si 5.64884 8.69545 10.1651
Si 9.00792 5.07462 8.92663
Si 8.47975 2.29665 7.96457
Si 7.95136 7.87055 8.4136
O 4.47837 5.65375 10.9349
O 10.6003 17.6024 12.7401
O 8.51346 4.13085 7.83337
O 8.89739 8.58073 9.42461
O 7.28739 2.073 7.05262
O 8.27213 6.34325 8.30977
O 8.45225 3.34083 4.39629
O 9.0556 5.47405 5.53064
O 7.93354 8.91719 7.05155
O 10.5102 5.74207 9.25622
O 6.24843 10.2618 9.91014
O 8.49307 4.55055 10.4095
Si 11.5407 4.69525 3.18012
Si 12.3967 0.579926 4.40012
Si 9.54595 9.88623 9.97532
Si 1.75675 1.72663 11.7478
Si 11.0162 1.04497 7.00874
Si 14.8035 6.18661 6.75867
O 10.7743 9.6269 11.0053
O 11.6128 16.0347 10.2344
O 11.9808 1.66323 7.9634
O 15.1754 5.35562 7.99849
O 10.8129 17.5417 7.30075
O 14.082 2.86601 9.25521
O 9.67766 1.93062 6.94971
O 14.2238 11.5928 9.10125
O 12.8634 6.00836 6.96729
O 13.0367 16.8853 7.91948
O 9.8128 10.8105 8.59149
O 0.631908 2.55902 10.8478
Si 14.4491 13.152 8.54512
Si 2.26636 8.95008 4.48761
Si 14.5945 13.0819 11.8462
Si 3.49234 15.0462 10.7266
Si 1.04259 8.74812 8.92223
Si 1.22705 17.427 7.45797
O 6.34472 15.7288 15.0287
O 1.95483 10.0357 9.08133
O 4.01878 11.1896 7.78272
O 1.79656 15.6984 7.49714
O 1.29528 7.85218 5.323
O 3.30465 15.3301 4.89736
O 0.711245 13.6773 8.31705
O 2.84349 17.87 7.99526
O 15.2237 14.0683 12.8715
O 2.11576 14.9299 10.13
O -0.019719 16.8833 6.64441
O 3.66293 11.1887 12.8976
Si 4.03445 13.9278 5.1317
Si 6.70085 9.09629 5.86947
Si 6.11129 15.2459 9.20337
Si 10.5011 12.0949 7.94026
Si 4.13751 11.0618 6.15318
Si 7.32606 15.8346 6.46127
O 4.68023 14.5661 9.4707
O 8.47971 10.4139 11.0621
O 12.6603 12.3292 4.80173
O 11.383 1.0769 5.3768
O 5.50718 10.0894 6.47498
O 7.61941 14.1148 6.30865
O 4.46249 12.4833 5.61274
O 6.92988 17.404 5.76942
O 6.292 15.6549 7.71638
O 9.82087 13.3749 8.8267
O 6.20495 16.6017 9.88841
O 9.53921 12.3211 6.66857
Si 9.30259 13.5019 5.57041
Si 15.5487 8.92216 5.92572
Si 10.2813 16.0139 6.77296
Si 14.4199 10.6178 10.2026
Si 13.1653 11.9743 6.04571
Si 12.3796 15.6871 8.77548
O 8.71827 16.1639 7.22967
O 13.2982 9.47689 10.803
O 0.732109 10.0514 4.85863
O 14.7425 13.8558 10.5318
O 14.3045 12.8082 6.80633
O 2.33419 17.5916 4.369
O 9.9288 14.8156 5.85663
O 12.9766 17.526 5.33961
O 11.2656 15.2552 7.75484
O 15.463 9.52476 9.60174
O 11.6668 0.903735 15.6007
O 14.6284 11.1769 11.6759
Si 14.9086 3.24816 10.6027
Si 6.46813 0.957759 15.3246
Si 2.2766 7.18039 16.2169
Si 4.17501 1.82355 2.12892
Si 4.09777 2.63223 16.1346
Si 4.18374 5.22464 14.5024
O 1.01065 6.18215 16.2946
O 5.32494 17.8126 15.4968
O 4.06992 2.4128 0.601095
O 5.53457 5.92198 14.3412
O 2.92493 1.67416 12.6836
O 3.60951 4.61238 13.0796
O 0.829053 0.789947 14.6113
O 4.35954 9.08993 9.59776
O 3.31689 6.2223 15.4469
O 6.00212 16.3284 12.613
O 2.13431 8.78097 16.4365
O 3.91332 5.09786 1.20504
Si 4.41315 4.10643 11.5053
Si 5.78257 17.3189 11.2687
Si 6.43246 7.12679 15.1675
Si 11.5076 2.4887 15.3161
Si 8.47935 3.13203 14.6179
Si 7.78963 7.61076 12.599
O 7.68456 6.33689 15.7198
O 9.48584 0.262951 16.6679
O 7.76895 1.78841 14.6833
O 9.45105 7.72197 12.97
O 9.98983 2.62317 14.7789
O 7.89612 5.9649 12.3541
O 5.62997 2.25473 15.7168
O 6.76667 8.24603 11.6258
O 7.10914 7.90423 13.9576
O 12.1578 2.46208 13.8254
O 4.34423 3.19191 2.89769
O 8.72274 4.13126 15.8015
Si 9.0114 4.66296 11.8853
Si 11.9923 17.0567 11.7346
Si 10.511 6.72235 13.4581
Si 15.3107 0.152812 13.2467
Si 12.9548 1.96975 12.4707
Si 11.779 6.55851 9.85448
O 10.0698 5.98835 14.8554
O 14.6123 1.23657 16.2224
O 14.8563 17.2554 14.6977
O 3.87703 3.94431 15.5185
O 12.4592 15.9504 13.0017
O 12.6946 5.47269 9.94785
O 10.2879 5.54839 12.3758
O 11.7225 7.34751 11.2223
O 13.5565 3.09223 11.5174
O 14.5166 1.49123 13.1722
O 12.3403 6.91203 13.7578
O 0.994736 0.412529 12.1349
Si 0.498463 13.6984 14.2543
Si 3.4614 10.5153 9.17871
Si 2.13285 15.7829 15.749
Si 4.30332 12.0564 11.685
Si 2.08649 11.2716 13.368
Si 3.72755 0.885715 13.6682
O 1.73796 15.2519 17.1084
O 1.52242 10.7822 14.8816
O 5.77718 11.8739 11.6425
O 3.28044 17.597 13.66
O 1.14966 10.3011 12.4479
O 8.60528 3.98773 13.2363
O 1.39294 12.7789 13.2016
O 4.07737 16.593 11.0064
O 0.976967 15.0851 14.9915
O 9.40786 13.9614 11.5688
O 3.50725 1.21284 15.3977
O 3.53494 13.6819 11.8548
Si 1.1436 15.0727 8.9304
Si 7.15058 11.2465 11.0601
Si 6.96847 15.6085 13.5372
Si 9.16894 10.9737 14.7053
Si 8.7596 13.6588 10.0855
Si 9.81137 16.4024 13.4263
O 3.85544 14.0972 1.28368
O 10.8362 14.0406 13.5873
O 8.07737 14.4791 13.5871
O 9.32528 12.0898 15.9133
O 7.63624 12.527 10.0313
O 7.8257 14.7045 9.5982
O 3.81713 11.6568 10.1501
O 12.4563 0.5503 11.7816
O 8.19619 16.7453 13.614
O 10.5349 10.1832 14.9862
O 8.32635 16.2379 0.620518
O 8.14285 10.121 15.7333
Si 12.2772 14.5093 13.3876
Si 11.9128 9.02993 11.7258
Si 10.8538 17.6874 16.1324
Si 14.2598 10.8031 0.487535
Si 12.083 10.3251 14.5442
Si 13.5655 12.8088 15.6024
O 10.2425 16.7648 14.9112
O 13.126 9.83446 0.1876
O 12.7062 8.92532 14.8418
O 1.6042 17.2855 16.0521
O 11.9126 10.0686 12.9183
O 15.0011 12.5048 14.7457
O 12.6834 11.7538 14.7971
O 13.0757 13.2613 12.5231
O 12.8563 14.1308 14.8895
O 15.2694 10.364 16.4808
O 11.5001 17.5594 0.46433
O 14.0656 12.1481 16.9999
324
 Atoms. Timestep: 19000
Si 0.532902 4.58154 0.159732
Si 4.67158 16.2601 15.5949
Si 4.65372 7.32868 4.61335
Si 3.62922 2.16261 6.01244
Si 2.15704 0.64908 3.87821
Si 4.6652 4.72301 2.75703
O 4.39558 6.16344 5.61452
O 4.91757 1.69353 9.26685
O 2.62029 1.5618 5.14024
O 6.66616 8.51779 15.8282
O 3.20686 0.942722 2.65822
O 2.85822 5.16759 3.0619
O 1.71072 4.83613 1.1019
O 2.93628 6.48887 17.0235
O 5.06893 6.3603 3.31321
O 4.97236 1.27856 6.05197
O 3.64817 8.52061 4.22614
O 4.00286 3.73943 5.99672
Si 2.81738 6.08219 1.5356
Si 8.4505 0.259498 0.742856
Si 7.95916 4.49441 5.02254
Si 9.26729 2.71152 2.74606
Si 6.50564 0.530309 3.26702
Si 8.89582 5.72746 2.20883
O 6.3877 4.44239 5.51846
O 7.02207 0.773911 4.66458
O 8.75122 3.94603 2.06249
O 12.6551 4.85663 1.43851
O 7.17759 0.748084 16.9272
O 8.7458 5.87383 0.608474
O 5.61349 1.31394 2.12071
O 8.58824 9.32294 0.934015
O 8.48521 5.6433 3.89597
O 10.8142 3.15674 2.79429
O 5.83551 8.04838 5.1436
O 10.3886 5.43386 2.57719
Si 8.74251 5.47268 16.3367
Si -0.0175252 17.8759 15.6692
Si 13.3035 3.87518 5.53166
Si 14.8782 1.1263 2.58186
Si 14.1935 2.3191 16.9509
Si 13.5047 5.90045 0.623634
O 12.3672 4.39605 4.1816
O 13.5703 1.04526 3.63273
O 14.2173 1.73599 1.30249
O 13.0883 7.34004 1.41867
O 12.8042 2.77753 16.0214
O 15.1348 3.72637 16.5945
O 15.2261 5.50649 1.04955
O 13.6656 6.37677 16.1498
O 14.8447 4.21663 5.11062
O 0.607582 1.00308 3.35649
O 15.5211 7.01479 5.75487
O 13.7542 2.73441 6.73362
Si 0.519444 14.3578 1.44815
Si 1.0368 9.7061 15.8661
Si 2.63758 15.826 3.6144
Si 3.9448 12.7868 2.0525
Si 1.28565 11.4669 1.22883
Si 4.53468 15.7807 1.29779
O 13.0348 14.3055 8.74903
O 3.21489 10.1834 5.98055
O 2.84087 11.7612 1.46659
O 5.84599 15.1585 2.20651
O 1.52291 10.6097 17.0729
O 3.1256 15.7486 15.2218
O 0.266847 12.8608 0.722764
O 5.01441 15.567 17.0246
O 3.54248 16.3252 2.38352
O 5.29544 12.0614 1.45073
O 3.1177 1.99219 7.56044
O 4.45383 12.6693 3.5744
Si 9.23197 13.5005 13.3309
Si 7.39918 9.43086 16.6922
Si 6.48969 15.6218 3.56898
Si 8.04468 11.1197 3.92668
Si 6.77628 11.7841 1.21373
Si 8.97948 15.6126 1.64019
O 5.80847 14.5865 4.45945
O 7.43025 9.84042 4.64956
O 7.70651 12.7095 0.436301
O 8.72359 12.5075 4.35397
O 6.79505 10.7208 -0.0276063
O 9.34825 14.3268 0.910303
O 8.57038 12.1785 14.2758
O 7.85418 0.452927 2.21606
O 8.04135 15.506 2.90921
O 9.35679 10.2646 3.23918
O 5.88297 17.1552 3.50947
O 7.14441 11.455 2.83554
Si 9.25428 12.9249 0.196993
Si 12.6385 7.40552 15.1881
Si 11.7734 17.1528 2.06888
Si 11.9903 8.41492 0.834616
Si 9.74482 10.2006 1.62021
Si 14.3993 16.2407 2.80924
O 11.7571 12.0876 7.19172
O 0.638954 8.68612 7.55124
O 10.9405 9.23791 1.76542
O 1.35532 14.7485 2.91996
O 11.9231 8.03316 16.4607
O 15.0676 15.3583 1.68648
O 10.1526 11.8315 1.48655
O 14.8006 17.7116 2.19769
O 10.4727 16.2313 2.10967
O 15.3574 10.6968 1.455
O 11.7433 17.4987 3.7049
O 12.9217 16.1019 2.32538
Si 13.2441 2.06807 8.11933
Si 3.49259 1.04587 8.91897
Si 0.399315 6.15165 9.33548
Si 6.19647 2.06063 10.3317
Si 14.1477 17.5244 7.09481
Si 3.48057 5.20618 9.0263
O 15.1583 4.93608 10.0399
O 5.66064 0.888976 11.4355
O 2.34084 1.56276 9.98437
O 6.84487 7.97246 9.15902
O 0.587257 17.0556 9.25426
O 4.66598 4.87947 8.00405
O 14.0709 0.815501 7.98427
O 1.87839 5.71919 9.30546
O 3.25038 3.78568 9.96883
O 7.50769 1.69525 9.49317
O 0.264304 7.56278 9.77261
O 5.93982 3.50715 10.7341
Si 5.17791 4.64058 6.36097
Si 6.51959 1.08573 6.16238
Si 6.0298 8.79767 10.11
Si 9.29072 5.09167 9.4568
Si 8.29723 2.44002 8.24522
Si 8.09064 7.69998 8.20494
O 4.35521 5.68526 10.5336
O 10.2229 16.7139 12.5202
O 8.41378 4.1547 8.51447
O 8.97112 8.94003 8.60792
O 7.25428 2.2128 6.94765
O 8.53882 6.45882 9.2273
O 8.79461 3.24114 4.27991
O 9.19071 4.83477 5.99827
O 7.55841 8.31582 6.88516
O 10.8043 5.66335 9.33924
O 6.39976 10.4709 9.97347
O 9.19611 4.99917 11.0837
Si 11.6908 4.59692 2.72892
Si 12.5106 0.502502 4.60494
Si 9.65149 9.96819 9.44499
Si 1.2784 1.70397 11.2955
Si 10.5749 1.08408 6.68634
Si 15.155 5.59736 6.16678
O 10.9526 10.4822 10.0531
O 11.9047 16.6541 10.6056
O 11.8676 1.48802 7.63561
O -0.0435961 5.75996 7.74059
O 10.6776 17.6145 7.15453
O 14.4799 2.96112 8.77749
O 9.44207 1.36336 7.76396
O 13.894 11.9305 8.75411
O 13.159 5.41579 6.337
O 13.2346 16.5627 7.91287
O 9.42448 11.281 8.52227
O 0.411166 2.62039 10.5172
Si 14.2703 13.4632 8.07249
Si 2.49317 9.52673 4.83963
Si 14.6635 13.7584 11.7415
Si 3.62579 14.8401 10.5141
Si 0.791715 8.94096 9.04203
Si 1.58618 17.2833 7.70952
O 5.9775 15.4449 14.784
O 2.30479 9.12829 9.77254
O 4.35995 11.0519 7.98222
O 1.68894 15.719 7.74995
O 1.88932 8.19706 5.71319
O 3.21388 14.5369 4.54159
O 0.0252271 14.0493 8.72857
O 3.04064 17.6754 8.56528
O 15.4032 14.0408 13.0984
O 2.11599 14.7041 10.6175
O 0.0815797 17.4437 6.76392
O 3.67755 11.5354 13.01
Si 4.57273 13.6243 4.79026
Si 6.70612 9.03548 5.8458
Si 6.57119 15.4988 9.54001
Si 10.178 12.4945 7.76561
Si 4.56328 11.0421 6.40158
Si 7.35957 16.2148 6.70235
O 4.98103 15.1143 9.62677
O 8.76351 10.4196 10.7452
O 11.9611 13.6052 5.31155
O 11.2525 1.0947 5.37453
O 5.93817 10.3447 6.40833
O 7.78461 14.9027 5.89159
O 5.03448 12.7505 6.01416
O 6.93252 17.799 6.9632
O 6.55593 15.2562 7.90418
O 10.0081 13.4915 9.07302
O 6.50083 16.9079 10.3809
O 8.93298 13.0641 6.80636
Si 8.99704 13.9136 5.49579
Si 0.15515 8.61331 6.03835
Si 10.2478 16.0106 7.23778
Si 14.4927 11.0242 9.80628
Si 12.5487 12.428 5.81386
Si 12.5033 15.8046 9.19221
O 8.76405 16.2653 7.50365
O 13.3181 10.0716 10.3817
O 0.756133 10.0893 5.43955
O 15.5259 15.0811 11.0342
O 14.0007 13.019 6.52015
O 2.19358 17.2104 4.2166
O 10.0671 15.1684 5.79789
O 13.3889 17.6781 5.63199
O 11.0056 15.4869 8.52826
O 0.244551 10.4392 9.40886
O 11.9543 0.643527 15.5532
O 14.7067 12.0337 11.1779
Si 14.5519 3.39106 10.3381
Si 6.18631 1.02405 15.611
Si 1.92249 6.76758 15.7943
Si 4.11232 1.82409 1.70652
Si 3.77901 2.65736 16.0412
Si 3.95592 5.31028 14.1673
O 0.87738 5.68907 16.0725
O 5.21993 17.7986 15.8393
O 3.12622 2.00499 0.249649
O 5.10931 5.70578 15.095
O 2.13391 2.02194 12.6508
O 4.71647 4.9186 12.8428
O 0.593984 0.70547 14.0581
O 4.58926 8.90923 9.29777
O 2.67175 6.08233 14.6167
O 6.1415 16.988 12.8131
O 1.26619 8.12038 16.4279
O 4.31319 5.26591 1.16462
Si 4.53 4.27719 11.3002
Si 5.30703 17.3559 11.4335
Si 6.02239 7.05675 15.46
Si 11.7223 2.13615 14.9675
Si 8.7043 2.65558 14.7133
Si 7.13594 7.5522 12.7094
O 7.3361 6.1966 15.7321
O 9.78734 0.457877 16.894
O 7.45843 1.91374 15.0524
O 8.23003 7.59016 13.7746
O 10.1093 1.93286 14.7102
O 7.29297 5.92911 12.3995
O 5.19482 2.08471 16.2354
O 6.50205 8.19869 11.5435
O 5.99245 7.46432 13.7746
O 12.6254 2.46967 13.7674
O 4.24459 3.13993 2.6399
O 8.92834 4.01935 15.6463
Si 8.52825 4.79535 12.5605
Si 11.8605 17.0765 12.0331
Si 9.87449 7.0474 14.0717
Si 15.3495 17.8119 12.9476
Si 13.0383 1.73137 12.3763
Si 12.0237 6.45093 10.006
O 9.69049 6.56327 15.5831
O 14.9964 1.22833 16.0494
O 14.6381 16.7578 14.1993
O 4.00624 3.84948 14.8444
O 12.5047 16.223 13.2973
O 12.4066 5.90578 11.2065
O 9.49521 5.62677 13.4171
O 11.8029 8.01775 10.1534
O 13.5848 2.53168 11.1581
O 14.4664 0.899165 12.7748
O 11.4139 6.91346 14.1725
O 0.657008 0.345203 11.6006
Si 0.532946 13.1305 14.1424
Si 3.60388 10.0123 9.03376
Si 1.59564 15.5003 15.8232
Si 4.52311 12.1543 11.5317
Si 2.33987 10.7698 13.2486
Si 3.33538 1.12188 13.3679
O 1.31983 14.9805 0.188235
O 2.23312 9.90933 14.5795
O 6.04023 12.0533 11.6663
O 2.93773 17.9085 13.25
O 1.86069 10.8559 11.8819
O 8.34438 3.32845 13.2577
O 1.43785 11.9259 13.7151
O 4.34022 16.0222 11.4653
O 1.47569 14.1446 15.0189
O 8.61478 13.8984 11.9629
O 3.1951 1.47874 15.0733
O 4.17555 13.5367 11.2623
Si 0.652786 15.2804 9.54068
Si 7.37368 11.2998 10.9446
Si 6.90456 15.7435 13.5187
Si 9.41336 11.1648 15.153
Si 8.91826 13.8316 10.3711
Si 9.71697 16.3951 13.8805
O 3.84188 14.2777 1.28562
O 10.6503 14.0496 13.2185
O 8.19635 14.6747 14.3051
O 9.91448 12.1061 16.2665
O 7.95158 12.6326 10.1084
O 7.93487 14.8856 9.9152
O 3.76348 11.1185 10.3283
O 11.8907 0.507863 12.3439
O 8.16533 16.8277 13.9751
O 10.8889 10.7195 14.5522
O 8.42648 16.7484 0.433106
O 8.62338 9.89881 15.7092
Si 12.2384 14.4777 13.4881
Si 12.1078 9.48666 10.973
Si 11.0235 17.7238 16.3889
Si 14.2723 10.6245 0.241999
Si 12.2354 9.97639 13.9308
Si 13.4352 12.5025 15.3175
O 10.5801 16.7011 15.2053
O 13.0143 9.62097 0.550217
O 13.0039 8.66747 14.4256
O 1.24819 17.0317 15.7746
O 11.6948 9.89549 12.4968
O 14.9954 12.9174 15.0752
O 13.3937 11.1619 14.4046
O 13.2046 13.9497 12.3935
O 12.7919 13.5999 14.5991
O 15.0824 9.98527 16.2388
O 11.8259 17.1788 0.446875
O 13.5513 11.915 16.9617
324
 Atoms. Timestep: 19500
Si 0.108071 4.57885 -0.0779112
Si 4.87928 16.7439 15.6117
Si 5.49251 6.97421 4.58188
Si 3.51864 1.89955 5.90831
Si 1.96721 0.466673 3.68875
Si 4.45793 4.99046 2.54192
O 5.0026 6.09484 5.96276
O 4.72839 1.45436 9.08995
O 2.60033 1.09688 4.9331
O 6.99708 8.32842 16.3077
O 2.79875 0.976676 2.47957
O 2.73269 5.63352 2.56663
O 1.6331 4.7282 0.627538
O 2.32862 6.47828 16.5518
O 5.33452 6.20415 3.23501
O 4.88689 1.05646 6.20093
O 4.00388 7.80896 4.75461
O 4.33589 3.44365 5.74461
Si 2.52139 6.1061 0.820888
Si 8.07525 0.173538 0.849324
Si 7.81658 4.26253 4.89581
Si 9.63071 2.61245 2.95351
Si 6.1677 0.64886 3.27875
Si 8.91536 5.5424 2.29828
O 6.53427 4.49313 6.03734
O 6.3487 1.52275 4.55813
O 9.02325 3.79036 2.11307
O 12.1836 4.59005 1.37879
O 6.96408 0.98183 0.132191
O 8.13208 5.82801 0.956803
O 5.02078 1.25218 2.27002
O 9.25699 9.33546 0.612642
O 7.61409 5.324 3.53739
O 10.941 3.40312 3.16465
O 6.24729 8.31355 5.01733
O 10.4693 5.75259 2.68928
Si 8.04991 5.30958 16.6377
Si 15.1893 17.5289 15.3221
Si 14.129 4.03018 4.82837
Si 14.9374 0.915672 2.69464
Si 14.4024 1.94112 16.7948
Si 12.9878 5.62475 0.476053
O 12.9688 4.68025 4.05505
O 13.995 1.12348 3.89261
O 14.5288 1.56422 1.22487
O 12.7576 6.97087 1.3982
O 12.9654 2.49995 16.4523
O 15.4722 3.10151 16.8133
O 14.4621 4.95247 0.480209
O 12.5151 6.04408 16.1911
O 0.148947 4.74203 4.6962
O 0.6077 1.31872 3.50787
O 0.349425 7.14083 5.83548
O 13.562 3.09749 6.02878
Si 1.08119 14.2458 0.987618
Si 1.05367 9.37944 15.8782
Si 2.30692 15.4735 3.41524
Si 3.94583 12.6897 1.61332
Si 1.31932 11.2144 1.10168
Si 4.70787 15.5374 1.20081
O 12.5434 14.8391 8.79676
O 3.32223 10.2608 5.92923
O 3.13212 11.2525 1.57381
O 5.87757 15.218 2.16233
O 1.58195 10.0869 17.2122
O 3.33471 16.6314 15.3123
O 1.57985 12.6652 0.431215
O 4.84414 16.7713 0.0419169
O 3.56375 15.9419 2.268
O 5.31139 12.0987 1.37074
O 2.93865 1.69377 7.46069
O 3.82149 12.8037 3.26884
Si 9.40277 13.8107 13.0097
Si 8.12412 9.3613 16.7473
Si 6.58616 15.6564 3.55566
Si 8.21838 11.5454 4.14841
Si 6.94298 11.7101 1.24552
Si 9.08526 15.3665 1.86651
O 5.71954 14.5836 4.58363
O 7.5137 10.3766 5.06472
O 7.98024 12.4388 0.499696
O 8.03227 13 4.7429
O 7.12034 10.2499 0.536289
O 9.78781 14.3729 0.907951
O 9.30197 12.2196 13.7277
O 7.51806 0.659708 2.23304
O 8.03601 15.3225 3.22166
O 9.40851 10.7411 3.20381
O 5.99708 17.1956 3.28979
O 7.36007 11.4725 2.71384
Si 9.53727 12.9178 0.200618
Si 12.3769 7.68382 15.6351
Si 11.7953 16.9307 2.08651
Si 12.3802 8.47562 1.35027
Si 10.0718 10.2221 1.8744
Si 14.5879 15.7531 2.64176
O 11.0385 12.6583 6.74625
O 0.223414 9.39031 7.5779
O 11.6599 9.9452 2.06316
O 1.75032 14.496 2.38025
O 11.6492 8.38626 16.9604
O 15.2759 15.0909 1.42374
O 10.2393 11.6857 1.04664
O 15.1133 17.3173 2.69168
O 10.4543 16.1285 2.28171
O 15.3714 11.1355 1.10722
O 12.0378 17.9628 3.46876
O 13.1565 16.0478 1.92597
Si 13.4298 2.72887 7.62496
Si 3.37606 0.865025 8.7698
Si 0.24824 6.1202 9.43188
Si 5.9114 1.86585 10.2712
Si 14.1499 17.9376 7.26861
Si 3.38512 5.1592 8.83115
O 15.1034 4.77342 9.93022
O 6.09827 0.713222 11.2574
O 2.47569 1.76703 9.91953
O 6.92991 7.64598 9.14653
O 0.515137 16.1594 9.46978
O 4.79146 4.62376 8.19468
O 14.3941 1.4386 7.38415
O 1.85224 5.7758 9.40383
O 3.20903 3.79599 10.0663
O 7.36724 2.44881 9.6215
O 0.231009 7.61529 9.58203
O 5.18128 3.24266 11.0954
Si 4.9763 4.71419 6.42066
Si 6.49937 1.27941 6.12449
Si 6.10945 8.34232 10.1905
Si 9.63192 4.89306 9.43964
Si 8.345 2.36791 8.38576
Si 8.21629 7.56505 8.24559
O 4.16988 5.90083 10.2678
O 10.1982 17.1156 12.7556
O 9.42022 3.60857 8.55385
O 9.22914 8.57055 8.84224
O 7.35008 2.17136 7.13621
O 8.82263 6.0851 8.68353
O 8.81548 3.1872 4.31545
O 8.76597 5.1282 5.70635
O 7.86359 8.33135 6.9722
O 11.1889 5.44016 9.62739
O 6.56918 9.92869 10.1594
O 9.06935 5.00366 10.8456
Si 11.7621 4.76782 3.04228
Si 12.806 0.681426 4.64881
Si 9.94103 9.92799 9.25876
Si 1.53982 1.8442 11.2108
Si 10.8491 1.38937 7.02574
Si 0.163317 5.5977 6.2598
O 11.167 9.69894 10.3055
O 11.8174 16.3834 10.3903
O 12.0525 2.14078 7.71369
O -0.180954 5.81527 7.87889
O 11.0209 18.045 6.88289
O 13.6536 2.43643 9.36759
O 9.51773 1.2332 8.06781
O 14.0367 12.4345 8.85296
O 14.1682 5.64011 5.87282
O 13.0031 17.3998 8.32132
O 9.81652 10.9154 8.03916
O 0.069047 2.48802 10.6336
Si 13.893 13.8887 8.06922
Si 2.97066 8.97623 4.89722
Si 14.7945 14.0903 11.9278
Si 3.539 14.5528 11.2046
Si 0.620528 9.15573 9.10117
Si 1.17146 17.0118 8.0439
O 5.67793 15.7287 14.6816
O 2.23909 9.29064 8.85019
O 4.04589 10.8384 8.1934
O 1.98333 15.3258 7.65141
O 2.26985 8.26848 6.44974
O 3.27492 14.762 4.43654
O 15.3501 14.3632 8.29856
O 2.42197 17.7162 8.60733
O 15.4983 13.9855 13.3146
O 2.20996 14.3185 10.2437
O 15.3084 16.8693 7.332
O 3.80168 11.0177 13.0803
Si 4.24942 13.5996 4.68442
Si 6.98686 9.22977 6.00497
Si 5.77207 15.2194 9.23278
Si 9.95667 12.651 8.03564
Si 4.49537 10.9282 6.71917
Si 7.33861 16.6204 6.97293
O 4.65694 14.4311 9.94713
O 8.81367 10.5252 10.3404
O 11.8456 13.8638 4.8103
O 11.5597 1.67589 5.48876
O 5.72419 9.79608 6.83061
O 7.44011 15.1273 6.14643
O 4.49512 12.1912 5.68235
O 7.55384 -0.102785 6.1552
O 6.2583 15.9791 7.92384
O 9.32692 13.1744 9.33827
O 5.73252 16.6399 9.99901
O 8.77356 13.2539 7.10594
Si 8.6289 14.1534 5.65503
Si 0.544165 8.6746 6.0947
Si 10.2125 16.5495 6.5959
Si 14.8113 11.6639 9.89533
Si 12.2444 12.9973 5.86052
Si 12.1099 16.3542 8.85255
O 8.85163 16.8625 7.62985
O 13.5873 10.6597 10.2666
O 1.15745 9.10834 4.57985
O 15.0556 15.4479 11.231
O 13.2342 13.9432 6.61533
O 2.04215 17.018 3.7301
O 9.83056 15.1661 5.93013
O 13.3138 17.9276 5.91996
O 10.7839 16.0698 8.10345
O 0.114878 10.4415 9.6758
O 11.4746 0.869064 15.7499
O 14.8315 12.5986 11.3383
Si 14.5739 3.36879 10.5237
Si 6.72473 1.17378 15.6493
Si 1.15382 6.41571 15.1736
Si 3.78923 2.09578 1.73076
Si 4.18239 2.63893 15.9903
Si 3.77663 5.16697 14.2199
O 0.129251 5.13426 15.3702
O 5.85516 -0.135554 15.3117
O 4.05688 1.92858 0.186241
O 4.55967 6.26873 15.1311
O 2.42889 1.97214 12.4783
O 3.52228 4.26611 12.8341
O 0.447952 0.494013 13.9081
O 4.61641 8.6786 9.61939
O 2.27771 5.94093 14.2174
O 6.51744 16.3979 12.3066
O 1.04862 7.99236 15.1825
O 4.22156 5.53479 0.732819
Si 4.27905 4.436 11.3861
Si 5.51793 17.2606 11.5278
Si 5.89201 7.11464 15.6922
Si 11.8188 2.36271 15.4012
Si 8.91504 3.02136 14.8432
Si 7.35134 7.57094 12.9391
O 6.65474 5.75971 16.0313
O 9.63083 0.757882 0.167263
O 8.09286 1.80524 15.1044
O 8.62035 8.01125 13.6069
O 10.4667 3.22422 15.474
O 7.58888 5.98746 12.4965
O 5.65255 2.46189 15.7227
O 6.81778 8.13071 11.5976
O 6.27879 7.54343 14.1633
O 12.2631 2.24576 13.7484
O 3.84764 3.55766 2.29571
O 8.24001 3.83474 16.2145
Si 8.55191 4.73595 12.4657
Si 11.4967 16.8104 11.8855
Si 9.77879 6.70011 14.3941
Si 15.2972 -0.203045 12.6981
Si 12.9441 1.82328 12.2218
Si 12.3079 6.0928 10.5995
O 8.98854 6.25298 15.7019
O 15.1371 0.810321 16.1046
O 14.1267 17.4816 14.0639
O 3.62681 4.02438 15.3053
O 12.5445 16.2404 12.9964
O 12.2177 5.80107 11.9098
O 9.54298 5.47774 13.4775
O 12.5222 7.71164 10.4028
O 13.3984 3.38842 11.7599
O 14.4057 1.36555 12.4843
O 10.7423 7.68815 14.9557
O 0.796699 0.280975 11.4353
Si 0.613274 13.2559 14.5333
Si 3.55414 9.94328 9.42042
Si 2.07714 15.6902 15.6222
Si 4.61463 11.7987 11.8689
Si 2.19548 10.9334 13.4496
Si 3.54537 1.07918 13.4217
O 1.91914 15.1086 -0.0869718
O 2.11659 9.91095 14.8426
O 6.05401 11.3925 12.0939
O 3.23064 17.848 13.2077
O 1.58462 9.89037 12.4059
O 8.0241 3.84724 13.7823
O 1.33239 12.2341 13.6804
O 4.27021 16.1154 11.7659
O 1.75147 14.3673 14.7954
O 9.2646 13.7419 11.4996
O 3.55498 1.54859 14.9694
O 3.96675 13.35 12.0716
Si 0.990837 14.5329 9.05806
Si 7.40102 11.0259 11.1429
Si 6.96573 15.6417 13.5927
Si 9.68666 11.0969 14.8907
Si 8.1535 13.7158 10.1471
Si 9.63227 16.5128 14.0983
O 4.22789 14.0921 0.687474
O 10.8181 14.2326 13.5811
O 8.14707 14.6241 13.4783
O 9.97217 12.4172 15.9432
O 7.20781 12.2998 10.2186
O 7.05711 14.7458 10.1005
O 3.97413 10.9844 10.5807
O 12.0741 0.417751 12.1187
O 8.14636 17.088 14.1899
O 10.8923 10.1115 14.6332
O 8.36579 16.8362 1.17515
O 8.59762 10.358 15.7444
Si 12.422 14.7512 13.6623
Si 12.5951 9.34322 10.6153
Si 10.6796 17.7486 16.682
Si 14.315 10.3512 0.0957858
Si 12.1278 9.87473 13.6983
Si 13.3054 12.252 15.0201
O 10.2392 16.5788 15.6178
O 13.6593 9.28179 1.05568
O 12.9161 8.80871 14.7257
O 0.809976 16.6907 15.3447
O 12.2624 9.4175 12.2385
O 14.8237 12.3663 14.7389
O 12.8439 11.2586 13.9411
O 13.1009 14.1406 12.3453
O 12.7308 13.7434 14.9522
O 15.119 9.62633 16.1829
O 11.8882 17.6831 0.536158
O 13.2968 11.3775 16.42
324
 Atoms. Timestep: 20000
Si 15.4511 4.35686 17.0774
Si 4.93659 16.6918 15.6929
Si 5.27569 6.92899 4.16235
Si 3.74425 2.18197 5.90193
Si 2.15432 0.886294 3.55715
Si 3.88511 4.78989 2.68032
O 4.61502 6.26963 5.46709
O 4.93267 1.06047 9.41426
O 3.21188 1.38583 4.60694
O 6.91841 8.36849 16.124
O 2.85163 0.959974 2.0497
O 2.37633 5.48497 3.0283
O 0.597144 5.30677 1.09147
O 2.00045 6.49436 16.9365
O 4.72625 6.14115 2.8486
O 5.0214 1.30297 6.27598
O 3.81735 8.06815 4.00064
O 4.06446 3.67361 5.64584
Si 1.83141 6.18048 1.48671
Si 8.03382 17.8245 0.636803
Si 8.12793 4.49262 5.20221
Si 9.69728 2.69323 3.76257
Si 6.28324 0.358474 3.04924
Si 8.61187 5.06124 2.19318
O 6.39883 4.33657 5.63857
O 7.09246 0.964511 4.42226
O 9.1663 3.53804 2.5034
O 11.9306 4.96941 1.97465
O 6.91753 0.845894 16.9684
O 8.8595 5.13609 0.711251
O 5.5477 1.78676 2.38842
O 9.48817 9.60679 0.676706
O 7.92018 5.10849 3.71607
O 10.8764 3.7643 3.90234
O 6.08542 7.96356 5.16987
O 10.0662 5.82723 2.83964
Si 8.17791 5.46873 16.3714
Si 15.4219 17.1111 15.262
Si 13.5786 4.42584 5.49405
Si 14.9364 0.566094 2.83476
Si 14.4082 1.57128 17.0878
Si 12.7759 5.63334 0.756708
O 12.8656 5.13653 4.15575
O 13.8357 0.749913 4.05294
O 14.3724 1.12897 1.49224
O 13.115 7.00343 1.55219
O 13.5036 2.07025 15.7111
O -0.00411634 2.66491 0.193437
O 14.054 4.44689 0.591636
O 12.2738 6.29904 16.6219
O 15.2462 4.39272 5.70787
O 0.654686 1.14263 3.26029
O 0.251033 7.35538 5.52649
O 13.3735 3.38989 6.56052
Si 1.16277 14.76 1.06019
Si 1.24408 9.61325 15.9392
Si 2.73201 15.9953 3.13448
Si 4.12374 12.3125 1.90703
Si 1.37607 11.7232 0.88432
Si 4.71121 15.1971 1.13132
O 12.9704 14.8987 8.95036
O 3.57015 10.7911 5.21626
O 2.3881 12.0888 2.16842
O 5.84251 15.1199 2.26205
O 1.96437 10.5344 -0.0789968
O 3.5736 16.2782 15.0745
O 0.802704 13.4207 0.044273
O 5.05301 16.3614 0.0168733
O 3.6212 16.1893 1.69562
O 5.5505 11.7234 0.947418
O 3.22262 2.08358 7.50132
O 4.94855 12.6837 3.32648
Si 8.76315 13.5646 13.0543
Si 8.06465 9.117 16.8167
Si 6.48891 15.4877 3.63373
Si 8.37438 11.2646 3.90896
Si 6.96447 11.4167 1.27476
Si 9.08145 15.1136 1.69937
O 5.54626 14.561 4.52141
O 8.04666 10.3858 5.21506
O 7.99491 12.4684 0.7572
O 9.12275 12.7784 4.34801
O 7.28087 10.2967 0.351656
O 9.65335 14.0802 0.828588
O 8.57475 11.9896 13.4371
O 7.52639 0.215078 2.12434
O 7.94826 15.469 3.02591
O 9.53396 10.5551 3.08003
O 5.76874 16.8919 3.68703
O 7.01046 11.5288 2.87924
Si 9.55905 12.7183 -0.0396669
Si 12.0296 7.79462 16.0119
Si 11.5179 16.7821 2.05052
Si 12.7509 8.59336 1.83674
Si 10.3546 10.3614 1.72436
Si 14.2813 15.4463 2.34472
O 11.6233 12.607 7.4344
O 0.495195 8.69955 7.4422
O 11.6342 9.62435 2.25628
O 1.52265 15.8463 2.18095
O 11.7203 8.44459 0.314284
O 15.1992 15.1929 0.879357
O 10.6208 11.913 0.91973
O 14.7602 16.9526 2.50189
O 10.2599 15.8697 2.19052
O 15.6707 11.1835 1.41929
O 11.9056 17.5563 3.43334
O 12.7825 15.6637 1.79418
Si 13.4492 2.42283 7.9266
Si 3.32379 1.03544 8.73649
Si 0.657407 6.23642 9.49182
Si 5.92207 1.68879 10.4639
Si 14.2787 17.7018 7.11973
Si 3.68869 5.47437 9.08365
O 15.2299 5.23145 10.1095
O 5.52688 0.496683 11.6166
O 2.15866 1.43947 9.89114
O 6.68437 7.92772 8.89335
O 0.848081 16.272 9.24167
O 4.46947 4.90396 7.93563
O 14.4379 1.32201 7.35942
O 2.16834 6.02119 10.0548
O 3.205 3.94541 10.0859
O 7.3517 1.71467 9.55007
O 0.651376 7.96017 9.65643
O 5.61521 3.16932 10.6654
Si 5.02068 4.85846 6.36856
Si 6.58066 1.19656 5.8189
Si 5.96106 8.42449 10.2088
Si 9.15834 5.03835 9.37297
Si 7.98111 2.49039 8.31253
Si 7.95904 7.7402 8.12095
O 5.02762 5.46708 10.0775
O 10.529 17.6104 13.4114
O 7.96867 4.10877 8.57848
O 8.93702 8.66285 9.13242
O 7.36439 1.85148 6.98312
O 8.40848 6.28436 8.75732
O 8.89118 3.20946 4.93929
O 9.26993 5.3879 6.02936
O 7.69618 8.76945 7.02377
O 10.5264 5.78306 9.80285
O 6.89099 9.65089 10.6484
O 8.33151 5.03075 10.8978
Si 11.3676 5.24015 3.44956
Si 12.5763 0.201081 4.65884
Si 9.83178 9.90318 9.73329
Si 1.38603 1.9853 11.0575
Si 10.6161 1.32123 6.8165
Si -0.0265402 6.03499 6.54028
O 11.0706 9.11912 10.2922
O 12.3899 16.9563 10.5371
O 12.0428 1.65802 7.7938
O 0.521525 5.73148 7.94888
O 10.4132 17.8399 7.13848
O 14.5221 3.14338 8.82715
O 9.61904 1.95734 8.04077
O 13.8142 12.3534 9.26271
O 13.9762 5.89671 6.74806
O 13.3245 17.5109 8.47759
O 10.3481 10.9892 8.86448
O 0.578497 3.16889 10.559
Si 14.0974 13.7899 8.7177
Si 3.05804 9.16403 4.83054
Si 14.2583 13.8244 11.7122
Si 3.63762 14.4457 10.9009
Si 0.771008 9.29794 8.98293
Si 1.42112 17.0781 7.75652
O 5.98459 15.5678 15.1022
O 2.19474 9.92607 8.85074
O 3.97981 11.0592 7.52133
O 2.04298 15.4602 7.34323
O 2.59266 8.71065 6.42969
O 3.29786 14.5996 3.69059
O 0.0499425 14.0458 8.60371
O 2.75055 17.6066 8.39124
O 15.2811 14.2081 12.7487
O 2.28243 14.6262 10.2417
O -0.026504 16.8683 6.67727
O 3.52664 10.8401 12.6331
Si 4.28357 13.7437 4.56072
Si 6.96351 9.1854 5.64076
Si 6.0561 15.3333 9.32724
Si 10.1213 12.169 7.78315
Si 4.82749 11.2864 6.21925
Si 7.04908 16.1362 6.6785
O 4.56025 14.659 9.5583
O 8.91239 10.2637 11.2634
O 11.9975 13.216 5.13101
O 11.4995 1.13652 5.37839
O 5.89009 10.3019 5.76372
O 7.72291 14.4857 6.37259
O 4.90199 12.8452 5.84126
O 6.56917 17.5749 6.4129
O 6.14329 15.7656 7.84624
O 9.79226 13.3465 9.07564
O 5.89555 16.7082 10.1333
O 9.33564 12.8547 6.60099
Si 9.07622 14.0067 5.6402
Si 0.665756 8.89353 5.94131
Si 10.0037 16.2597 7.35543
Si 14.2485 11.1952 10.147
Si 12.7022 12.8845 6.30311
Si 12.471 16.3643 9.0654
O 8.44124 16.5353 7.60928
O 12.7656 10.5917 10.7372
O 1.41602 9.46437 4.45035
O 14.4968 15.1199 10.695
O 13.9721 13.8224 6.9075
O 2.33245 17.3819 3.80711
O 10.0816 15.1875 6.20389
O 12.8966 17.399 6.03848
O 11.1242 15.9387 8.3321
O 15.3423 10.3966 9.36468
O 11.2479 0.964689 15.4792
O 14.7656 12.3778 11.2766
Si 14.8412 3.78371 10.3991
Si 6.63665 1.33893 15.4066
Si 1.09327 6.59803 15.5896
Si 4.1347 1.87786 1.60087
Si 4.35655 3.20128 15.8875
Si 3.76438 5.62524 14.1986
O 0.0552903 5.36135 15.7708
O 5.46227 0.0740113 15.2408
O 4.25754 2.40664 0.0826127
O 4.61082 6.83704 14.9565
O 2.21958 2.21174 12.2784
O 4.41686 5.37647 12.5901
O 0.688515 0.302645 14.0934
O 4.77496 9.27202 9.51078
O 2.21512 6.03839 14.6068
O 6.17707 16.339 12.5069
O 1.56758 8.14254 15.4939
O 3.59328 5.29366 1.09383
Si 4.58048 4.23997 11.3035
Si 5.04194 16.9897 11.5785
Si 6.06785 7.47619 15.272
Si 12.1421 2.43076 15.2112
Si 9.1588 3.03153 15.1465
Si 7.56626 7.41717 12.5561
O 6.60222 6.07812 16.2029
O 9.54963 0.433816 0.31462
O 8.27406 1.73821 14.9815
O 9.06036 7.76873 13.1933
O 10.7411 3.34784 15.7211
O 7.46211 5.64549 13.1165
O 5.93764 2.81335 15.5559
O 6.48652 7.35125 11.3718
O 6.64667 7.69042 13.7929
O 12.1768 2.5353 13.7401
O 3.68579 3.20648 2.30199
O 8.16626 3.99151 15.9345
Si 8.65999 4.63625 12.387
Si 11.4613 17.1917 11.9312
Si 9.95518 6.80333 14.1251
Si 15.3084 0.0429826 12.8071
Si 13.0392 1.96082 12.3373
Si 12.0657 5.82513 10.3854
O 8.98029 6.1062 15.1748
O 15.046 0.321711 16.3001
O 14.2783 17.1351 14.1282
O 4.32222 4.4032 14.8756
O 12.1969 16.1062 12.7159
O 12.0199 5.33653 11.7239
O 9.72689 5.6713 13.0467
O 12.4201 7.36628 10.4909
O 13.8037 2.62593 11.0897
O 14.2023 1.14796 13.2443
O 10.5593 7.87123 15.5994
O 0.265822 0.859073 11.5997
Si 0.508822 13.4208 13.9001
Si 3.68101 10.3507 8.9812
Si 2.34926 15.2109 15.4571
Si 4.49609 11.6344 11.5832
Si 1.83336 10.6884 13.0983
Si 3.22302 1.3956 13.5137
O 1.861 15.4528 16.9811
O 2.1753 10.1851 14.7119
O 6.06831 11.5628 11.8073
O 2.82036 0.0988274 13.6364
O 0.965948 9.41647 12.9368
O 8.96359 3.66943 13.687
O 1.39334 12.1592 13.0911
O 4.01258 15.9703 11.3968
O 1.65105 13.6457 14.9678
O 9.11543 13.6423 11.5438
O 3.61361 2.21125 14.837
O 4.03831 13.2398 11.7227
Si 1.49154 14.5616 8.8991
Si 7.34626 10.9337 11.2294
Si 6.99305 15.7775 13.6548
Si 8.88601 11.0695 14.6629
Si 8.5327 13.5874 9.89163
Si 9.83014 16.3732 14.2932
O 3.85512 13.7939 1.44353
O 10.4113 14.2373 13.4243
O 7.27538 14.2723 13.2466
O 9.78787 11.9131 15.8323
O 7.85141 12.2052 10.2619
O 7.43985 14.6678 9.85971
O 3.52229 11.3145 10.2701
O 12.1887 0.498417 12.1046
O 8.43537 16.7297 13.6691
O 10.4259 10.4697 14.105
O 8.56892 16.4212 0.752789
O 8.4225 9.84183 15.489
Si 12.0785 14.7011 13.5262
Si 12.3988 9.03527 11.1052
Si 10.8104 0.0867668 16.7183
Si 14.3634 10.4367 0.134348
Si 12.0501 10.1358 13.9501
Si 13.3787 12.4682 15.3188
O 10.1681 16.9827 15.7479
O 13.7998 9.30147 1.04563
O 12.7274 8.99714 14.934
O 1.1131 16.1777 14.9556
O 11.9776 9.38255 12.5727
O 14.773 12.8393 14.8663
O 12.7932 11.4826 14.1903
O 12.6424 13.7131 12.4368
O 12.7231 13.8098 14.9099
O 15.3163 9.61777 16.49
O 11.7485 17.4008 0.532784
O 13.5058 11.2972 16.4094
324
 Atoms. Timestep: 20500
Si 0.138086 4.37382 0.372261
Si 4.65096 16.3201 15.3127
Si 4.75479 7.48555 4.7909
Si 3.65356 2.44501 5.60836
Si 1.88185 1.00791 3.55655
Si 4.46976 4.82365 3.03349
O 4.7069 6.66735 6.34791
O 4.52558 2.14022 8.89307
O 2.53631 1.57312 4.92527
O 7.24149 8.00426 16.7728
O 2.91387 1.4848 2.46682
O 2.6782 4.80837 3.25386
O 1.51894 4.67479 1.27577
O 2.05336 6.75762 0.542395
O 4.95732 6.0183 4.09205
O 4.82243 1.20417 5.95983
O 3.61676 8.31358 4.32583
O 4.53204 3.64086 6.06019
Si 2.20449 5.93091 1.89637
Si 8.13271 0.125378 0.357592
Si 7.75853 5.24648 5.02961
Si 9.37547 3.09229 3.65234
Si 6.88029 0.560873 3.01164
Si 8.7149 5.50484 2.14525
O 6.43245 4.83256 5.95773
O 6.92038 0.836246 4.70182
O 8.8334 3.84385 2.28724
O 12.3063 4.75514 2.27265
O 6.91959 0.701978 16.5951
O 8.18339 5.37327 0.546597
O 5.39173 1.34739 2.35854
O 9.09283 9.43984 1.06799
O 7.61886 5.58102 3.55506
O 10.661 4.005 3.90893
O 5.9461 8.41915 4.85292
O 10.1204 5.79526 2.73779
Si 8.07499 5.1727 16.1953
Si 0.491753 17.8061 15.419
Si 13.0076 4.84902 6.16046
Si 14.6171 0.462217 2.50412
Si 14.3063 1.75559 16.7791
Si 13.0591 5.54942 0.966012
O 12.1021 5.5665 4.98508
O 13.5041 1.16278 3.50365
O 14.4335 1.19191 1.10009
O 13.2031 7.00869 1.68634
O 12.8798 2.71313 16.6276
O 15.3657 2.98742 16.9951
O 14.5907 5.16609 1.11061
O 12.8209 5.99116 16.5211
O 14.6154 4.88139 5.53608
O 0.343526 0.835261 3.14148
O 15.4088 7.59297 5.7057
O 13.2757 3.70439 7.13665
Si 0.852149 14.6454 1.26755
Si 1.48881 9.86363 16.0572
Si 2.68212 15.9575 3.36415
Si 4.05247 12.822 2.16275
Si 1.40924 11.5367 1.35586
Si 4.68472 15.6507 1.17647
O 13.5057 14.4397 9.16716
O 3.68579 10.7026 5.16696
O 2.88358 11.5202 1.689
O 6.10036 15.3083 1.73287
O 1.8749 11.0133 16.9539
O 3.68004 15.016 15.0363
O 1.16503 13.1676 1.09478
O 4.81429 16.1587 16.8766
O 4.13406 16.2696 2.48442
O 5.18897 11.936 1.6656
O 2.89988 2.19155 7.21232
O 3.48164 12.9912 3.66286
Si 9.23073 13.5774 13.1771
Si 7.93647 9.46177 16.9505
Si 6.77662 15.604 3.28582
Si 8.47349 11.1634 3.99101
Si 6.90612 11.7366 1.4087
Si 9.117 15.5629 1.51547
O 5.67539 14.6084 4.1482
O 8.40658 9.65763 4.94015
O 8.23309 12.4137 0.644437
O 9.00097 12.5583 4.76794
O 6.8528 10.2739 0.569039
O 9.73927 14.2411 0.606
O 9.08402 11.9592 13.38
O 8.20993 0.743965 1.90685
O 8.20669 15.3413 2.64498
O 9.75765 10.5814 3.33072
O 6.36861 17.0616 3.39318
O 7.56039 11.28 2.76407
Si 9.63194 12.7388 0.0803119
Si 12.4961 7.39846 15.5403
Si 11.6959 17.365 1.89877
Si 12.4732 8.36372 1.39059
Si 10.2338 10.205 1.76477
Si 13.9501 15.5935 2.69378
O 11.5255 11.7466 6.83609
O 15.5395 9.30358 7.46414
O 11.4081 9.18858 2.09269
O 1.64748 15.1585 2.39059
O 11.7352 8.23993 16.9606
O 14.8893 15.0322 1.39472
O 10.2644 11.6613 0.798631
O 14.6536 17.0779 2.91098
O 10.3776 16.4872 1.88992
O 15.5121 11.0708 1.19453
O 11.7135 17.8121 3.54016
O 12.8006 16.1408 1.8941
Si 13.5677 2.26642 7.88862
Si 3.31856 1.3239 8.45236
Si 0.819248 5.97606 9.44787
Si 5.91603 1.96315 9.65785
Si 14.2375 17.3711 7.45882
Si 3.92902 5.5511 9.46177
O 15.2873 5.14466 10.152
O 5.56852 0.825974 10.7821
O 2.41147 1.14985 9.68812
O 6.50773 7.85197 9.21617
O 1.17758 16.4054 9.1472
O 4.89727 5.01518 8.30458
O 14.1878 0.91484 7.96589
O 2.25462 5.99565 9.84009
O 3.50226 4.04882 10.4551
O 7.47175 2.32229 9.45107
O 0.47906 7.60076 9.15233
O 5.61775 3.22069 10.8621
Si 4.97422 4.99105 6.55047
Si 6.23548 0.753482 6.09961
Si 5.54706 8.60369 10.4427
Si 9.06968 5.11327 8.99124
Si 8.3481 2.25304 8.04245
Si 7.84685 7.7432 8.40479
O 5.11244 5.67421 10.6608
O 10.4025 16.9911 12.3316
O 8.59858 3.88602 8.09992
O 9.28239 8.25411 9.12135
O 7.09002 1.79525 6.91064
O 8.22263 6.26589 8.17476
O 8.57362 3.70662 4.87328
O 8.85492 6.02779 5.58973
O 7.55392 8.33369 6.82131
O 10.3449 6.14338 8.91625
O 6.34459 10.1075 10.3509
O 8.58185 5.10372 10.5187
Si 11.3744 5.38412 3.46156
Si 12.6018 0.388664 4.64131
Si 9.49714 9.87258 9.96675
Si 1.66754 1.80272 10.9608
Si 10.9786 1.07785 7.03252
Si 15.3869 6.26983 6.65955
O 10.7824 9.49156 10.6705
O 12.147 16.8515 10.5478
O 11.8237 2.01847 8.00693
O 0.897457 5.57688 7.74752
O 10.7263 17.538 7.19385
O 14.1269 2.71957 9.44752
O 9.71658 1.96045 6.91925
O 14.7861 11.8987 9.18128
O 13.8327 6.23895 7.40966
O 13.0598 16.8558 8.31907
O 9.8516 10.8186 8.82502
O 0.858172 2.9373 10.2708
Si 14.4803 13.3799 8.56269
Si 2.61647 9.68083 4.58565
Si 14.1134 13.5257 11.6343
Si 3.68579 14.6158 10.9236
Si 0.583352 9.22378 8.83272
Si 1.55211 17.1694 7.53928
O 6.01574 15.7735 14.4995
O 2.02078 9.69797 9.00258
O 3.81434 10.1446 7.37698
O 2.00134 15.4319 7.05778
O 2.041 8.98706 5.94161
O 3.3082 15.2187 4.63056
O 0.107996 14.2765 8.52603
O 3.51467 17.7004 8.24566
O 14.9551 13.3958 12.9249
O 3.01363 14.8913 9.3529
O 0.125413 17.144 7.16279
O 3.03861 10.7781 12.5309
Si 4.46229 13.8973 4.80281
Si 6.97739 9.29803 5.74902
Si 6.15908 15.0051 9.37687
Si 10.5227 11.9771 8.01719
Si 4.61184 11.2598 6.35799
Si 7.3825 15.9391 6.68917
O 5.31364 14.4515 10.467
O 8.37572 10.1682 10.9789
O 12.4735 13.3279 5.25091
O 11.7489 1.38305 5.55884
O 5.93539 10.5027 5.92281
O 7.90701 14.4412 6.17958
O 5.00998 12.6168 5.67282
O 6.64937 17.362 6.55711
O 6.42869 15.4744 7.98487
O 9.90549 13.0339 9.11507
O 6.20702 16.5645 10.1232
O 9.2589 12.5462 7.07385
Si 9.15503 13.6462 5.95185
Si 0.209641 9.16976 5.93824
Si 10.3196 16.1023 7.31041
Si 13.9069 10.7743 9.98654
Si 12.863 12.2762 6.10496
Si 12.4284 15.6886 9.40782
O 8.84579 16.2779 7.8014
O 13.0428 9.41593 10.2909
O 0.795517 9.32584 4.23161
O 14.9143 14.7148 11.0018
O 13.8283 13.0405 7.11896
O 2.03791 17.445 3.69978
O 10.0368 14.9194 6.41245
O 13.6598 17.6198 5.8654
O 11.153 15.3873 8.62108
O 15.3142 9.76316 10.0911
O 11.4714 0.88298 15.4585
O 14.0279 11.7217 11.2766
Si 14.9524 3.49089 10.7004
Si 6.19567 1.11337 15.1955
Si 1.57947 6.69794 16.1827
Si 4.15481 2.06689 1.76555
Si 4.17082 3.14899 16.0596
Si 3.86532 5.73111 14.3949
O 0.353428 5.52469 16.2254
O 5.12897 17.909 15.0747
O 3.92721 2.65597 0.29876
O 4.71878 6.83302 15.0414
O 2.37853 2.21411 12.244
O 3.97601 5.09671 12.8972
O 0.807484 0.788646 14.1342
O 4.25057 8.9666 9.64493
O 2.38309 5.99515 14.8075
O 6.16332 17.0414 12.4901
O 1.17113 8.12629 15.9042
O 3.96634 5.54798 1.46714
Si 4.73746 4.27574 11.6998
Si 5.28046 17.3436 11.0756
Si 6.19001 7.26874 15.5066
Si 11.7238 2.4737 15.3175
Si 8.67562 2.70415 14.5741
Si 7.50717 7.40189 12.8427
O 6.86425 5.74473 15.4028
O 9.38058 0.315191 16.7328
O 7.59229 1.68368 14.4845
O 9.07513 7.45919 13.6824
O 10.2487 2.76471 14.8536
O 7.19731 5.69055 12.4946
O 5.47248 2.32421 15.8196
O 6.46472 8.15215 11.6905
O 6.71863 7.8224 14.1379
O 12.6497 2.37449 14.1094
O 4.32095 3.40741 2.53888
O 8.04065 3.68447 15.5752
Si 8.61333 4.64779 12.0173
Si 11.9729 17.4217 12.3418
Si 10.0508 6.38411 13.9163
Si 15.5337 0.0807088 12.8182
Si 13.129 2.19355 12.6503
Si 11.732 5.92158 9.94503
O 9.11294 5.72005 15.028
O 14.8523 0.499492 16.0328
O 15.1207 16.9867 14.0587
O 4.15387 4.46932 15.2724
O 12.4598 16.2254 13.3082
O 11.3439 4.69645 10.3931
O 9.82781 5.61867 12.5393
O 11.4737 7.05867 11.0536
O 13.6811 3.35668 11.7058
O 14.2535 1.04627 12.8695
O 11.1107 6.95546 15.1903
O 0.787947 0.333484 11.2979
Si 0.421361 12.7474 13.7983
Si 3.56385 10.2968 8.9659
Si 2.00178 15.1399 15.4612
Si 3.82973 11.8107 11.5878
Si 1.5907 10.0444 13.0493
Si 3.5659 1.93024 13.2888
O 1.66496 15.0993 17.0776
O 1.93739 10.2147 14.5339
O 5.61582 11.9494 11.612
O 3.51187 0.551291 13.3359
O 1.20768 9.12115 11.9081
O 8.55454 3.63609 13.2547
O 0.59679 11.373 13.0376
O 4.27725 16.1564 11.3841
O 1.31108 13.9991 14.4758
O 8.97419 13.814 11.5147
O 3.32154 2.34688 14.9232
O 3.33383 13.2839 11.6448
Si 1.58361 14.7112 8.59579
Si 7.12891 11.3376 10.9427
Si 6.95439 15.851 13.1586
Si 9.19049 11.0349 14.6393
Si 8.79475 13.7235 10.0423
Si 9.64088 16.4638 13.7876
O 4.08728 14.1413 1.06025
O 10.7046 14.2296 13.5718
O 8.11632 14.6329 13.7397
O 9.49141 12.0956 15.8295
O 7.69275 12.5219 10.0982
O 7.80093 14.8093 9.68027
O 3.78687 11.4618 9.95179
O 11.973 0.979085 12.2044
O 8.22243 16.9468 13.7604
O 10.5754 10.2072 14.3974
O 8.1596 16.6312 0.590763
O 7.93736 10.1419 15.5132
Si 12.2386 14.6585 13.6831
Si 12.0048 8.67647 11.0951
Si 10.8703 17.7334 16.2257
Si 14.4277 10.5211 0.239199
Si 11.9771 9.93212 13.968
Si 13.601 12.4366 15.3391
O 10.5174 16.9196 14.8961
O 13.7922 9.27165 0.946053
O 12.8219 8.84418 14.9002
O 1.87215 16.7753 15.1753
O 12.4374 9.27022 12.6117
O 15.1782 12.3753 15.0747
O 12.7641 11.3692 14.2784
O 12.7911 13.9626 12.3673
O 13.3931 13.9466 14.8008
O 15.2883 10.0053 16.2234
O 11.5768 17.9295 0.40995
O 13.3675 11.5327 16.5954
324
 Atoms. Timestep: 21000
Si 0.555419 4.14554 0.706759
Si 4.63644 16.2616 15.266
Si 4.72118 7.35885 5.06454
Si 3.61944 2.38205 6.04554
Si 1.9115 1.22246 3.77415
Si 4.92878 4.82417 3.15686
O 4.23465 6.34241 6.28759
O 4.7721 1.56171 9.52859
O 2.27453 2.08175 5.1578
O 6.67646 8.49992 16.3409
O 2.86794 1.8115 2.78613
O 3.18852 4.72957 3.48856
O 1.83318 4.61478 1.66044
O 2.3394 6.63574 0.640552
O 4.94344 6.14818 3.9882
O 5.00418 1.29959 5.61648
O 3.35263 8.21802 4.71131
O 4.16244 3.8975 5.90796
Si 2.5776 5.85598 1.99064
Si 8.15533 0.428448 0.189874
Si 7.40918 5.58264 4.73618
Si 9.15422 3.15951 3.86621
Si 6.5168 0.238577 2.80943
Si 8.71197 5.30835 1.99477
O 6.33833 5.35316 5.87401
O 6.97658 1.1388 4.06391
O 8.67756 3.63248 2.39053
O 12.336 4.59329 2.13423
O 6.91571 0.225844 16.4071
O 9.26248 5.03255 0.277351
O 5.08712 0.801119 2.17355
O 9.11406 9.7257 1.10862
O 7.56736 6.12316 3.08159
O 10.4971 4.0081 3.91253
O 5.93181 8.07389 5.55673
O 10.1748 5.88111 2.42707
Si 8.27246 5.09352 16.0507
Si 0.0295914 17.7255 15.6123
Si 13.2156 4.70713 5.75869
Si 14.6639 1.24925 2.43644
Si 14.1102 2.22189 16.6
Si 13.4698 5.43017 1.12966
O 12.4387 5.42124 4.44944
O 13.8293 1.3734 3.77499
O 14.1521 1.50219 0.854658
O 13.1452 6.86323 1.6034
O 12.493 2.63324 16.417
O 15.2846 3.27449 16.7688
O 14.9896 5.1321 1.41547
O 12.9717 5.37496 16.7987
O 14.8266 5.00505 5.20884
O 0.446378 1.44177 3.21318
O 14.7625 7.92009 5.45541
O 13.559 3.85415 6.98469
Si 1.06596 14.2379 1.40116
Si 1.09319 9.62613 16.1855
Si 2.59298 16.2382 3.13127
Si 3.91646 12.6353 1.97404
Si 1.36973 11.1588 1.51764
Si 4.60073 15.5101 1.17159
O 13.163 14.3708 8.55667
O 2.80437 10.6259 5.39764
O 2.81869 11.4944 1.97571
O 5.66573 14.9716 2.0421
O 1.68932 11.0624 17.1397
O 3.30323 15.5316 15.0859
O 0.923246 12.677 1.60848
O 5.04879 15.6893 16.7856
O 3.31474 16.3172 1.78373
O 5.46691 12.1858 1.81442
O 3.54766 2.24683 7.61703
O 3.98575 13.2587 3.32614
Si 9.24321 13.4644 13.1708
Si 7.74299 9.69022 16.9584
Si 6.90392 15.2783 3.34551
Si 8.31055 11.0358 4.20887
Si 7.11437 11.9309 1.47934
Si 9.36528 15.6346 1.5258
O 5.82939 14.4519 4.19886
O 7.42669 9.81921 4.89285
O 8.46416 12.6056 0.976394
O 8.88815 12.6104 4.36025
O 6.89131 10.6962 0.536315
O 10.0209 14.5016 0.758592
O 9.19072 12.0701 13.9585
O 7.70269 0.856284 1.51309
O 8.22133 14.891 2.62108
O 9.65558 10.4785 3.56735
O 6.68309 16.7661 3.67424
O 7.60231 11.1747 2.76238
Si 9.91613 12.852 0.453631
Si 12.5489 6.85824 15.8212
Si 11.8599 17.19 1.97079
Si 12.3235 8.19509 1.19134
Si 10.2875 10.2194 2.1188
Si 14.5113 16.1373 2.45247
O 11.7483 12.1062 7.67371
O 15.3531 9.06181 7.69675
O 11.522 9.36765 2.00312
O 1.81151 14.778 2.61517
O 11.4911 7.49414 16.9061
O 15.3989 15.2204 1.56557
O 10.6814 11.9294 1.55452
O 14.9422 17.6248 2.3932
O 10.4013 16.3231 2.30476
O 15.3972 10.6341 1.48483
O 12.0598 17.5093 3.61716
O 13.1327 15.8021 2.11931
Si 13.3644 2.69882 7.98155
Si 3.42109 1.13792 8.74169
Si 0.317341 5.93358 9.40834
Si 6.10391 2.08734 10.1487
Si 14.1542 17.8033 7.4123
Si 3.71135 5.28185 9.62178
O 15.2112 4.82427 10.1561
O 6.19098 0.97532 11.4084
O 2.38881 1.72749 9.86928
O 6.31194 7.88017 9.25517
O 1.32526 16.095 9.00908
O 4.54158 4.86066 8.40199
O 14.2701 1.39434 7.40073
O 1.92059 5.78212 9.469
O 3.65184 3.89076 10.5754
O 7.26349 1.87181 9.03706
O 15.5006 7.44796 9.81991
O 5.96789 3.60239 11.0473
Si 5.17183 5.06753 6.925
Si 6.5334 1.21015 5.65365
Si 5.62771 8.57899 10.4839
Si 8.80469 5.13186 9.22481
Si 8.27322 2.35398 7.84465
Si 7.65083 7.70007 8.36752
O 4.81458 5.84889 10.8644
O 10.6174 17.2648 12.5757
O 8.8857 3.6734 8.32672
O 8.64677 8.59396 9.30791
O 7.53808 2.25839 6.57376
O 7.94989 6.0858 8.36797
O 8.23622 4.08607 4.74702
O 8.28305 6.6978 5.47173
O 7.43225 8.91211 7.22363
O 10.2918 5.33202 9.36252
O 6.25299 10.0181 10.3423
O 8.62142 4.00444 10.6902
Si 11.3091 5.31854 3.37526
Si 12.9779 0.380396 4.74137
Si 9.15462 9.88797 9.84604
Si 1.58032 1.66644 11.1494
Si 11.102 1.42369 6.75165
Si 15.2264 6.45164 6.34462
O 10.6271 9.89632 10.6375
O 12.3509 16.5298 10.567
O 12.034 1.8907 7.93325
O 0.133067 5.7347 7.7213
O 11.3684 17.7882 7.06933
O 13.5911 3.33947 9.40676
O 9.64861 1.29809 7.73129
O 14.5623 11.7013 8.56782
O 13.5599 6.16685 6.90525
O 13.3699 16.7381 8.24937
O 9.35764 10.6592 8.36921
O 0.394225 2.55363 10.6155
Si 14.2796 13.2342 8.53455
Si 2.14933 9.31098 4.89283
Si 14.1151 13.0221 11.5818
Si 4.12176 14.8095 10.5734
Si 0.527576 8.83466 9.22487
Si 1.44172 16.9665 7.37414
O 5.70365 15.5822 14.3167
O 2.04136 9.34503 8.76917
O 3.53556 11.397 7.82104
O 2.35912 15.1146 7.05238
O 1.68353 8.72299 6.51565
O 3.61634 15.4905 4.24777
O 0.30424 14.0982 8.24096
O 2.28616 0.0808858 8.08403
O 15.2752 13.4232 12.5939
O 3.24022 14.6302 9.30171
O 15.569 17.4576 7.11497
O 3.31739 11.1641 12.5561
Si 4.28768 14.1975 4.71165
Si 6.42345 9.63703 6.39901
Si 6.50214 15.4983 9.0315
Si 10.0639 12.0789 8.00933
Si 3.71068 11.6012 6.33679
Si 7.77582 16.212 6.30262
O 5.54328 14.4712 9.75184
O 8.3593 10.4853 11.0688
O 12.1466 12.4096 5.11553
O 11.9976 1.35956 5.44435
O 5.4896 10.8509 6.11525
O 8.11514 14.8197 5.65817
O 3.83988 13.3284 6.00629
O 7.0525 17.6916 5.9293
O 6.77675 15.8209 7.50046
O 9.5737 13.0726 9.13514
O 6.32556 17.119 9.73367
O 9.35204 12.857 6.88745
Si 9.58044 13.5201 5.57074
Si 15.4362 9.36853 6.21525
Si 10.6643 16.3475 7.09509
Si 13.832 10.6407 9.87453
Si 12.7401 12.0416 6.2504
Si 12.5868 15.7941 9.10318
O 9.04962 16.764 7.17294
O 12.9512 9.48872 10.1389
O 0.528585 10.0235 4.67324
O 14.3581 13.4342 10.1792
O 14.1149 13.1257 6.25026
O 2.91115 17.7427 4.13308
O 10.3702 14.7729 6.18126
O 13.6402 17.5821 5.871
O 11.029 15.7547 8.62662
O 15.1866 9.94876 9.87949
O 11.3744 0.802218 15.3574
O 14.1921 11.4437 11.4268
Si 14.5549 3.43706 10.7302
Si 6.09179 0.812008 15.0895
Si 1.57222 6.56642 16.3521
Si 4.18973 2.05173 2.13735
Si 4.08594 2.81807 16.0504
Si 3.9437 5.36612 14.5423
O 0.734889 5.34164 16.6515
O 4.89353 17.8094 15.0954
O 3.66318 2.16206 0.501429
O 5.01673 6.51819 14.8123
O 2.47936 2.32183 12.1784
O 4.12251 5.00105 13.0179
O 0.981072 0.374975 14.0918
O 4.3141 8.93624 9.62148
O 2.67202 5.73566 15.5449
O 6.90989 16.6776 12.1667
O 0.984309 8.02724 16.4827
O 4.47371 5.5009 1.62328
Si 5.13068 4.60061 11.8068
Si 5.78073 17.3405 11.2717
Si 6.34411 7.09601 15.4134
Si 11.372 2.46592 15.0858
Si 8.33239 2.49428 14.2906
Si 7.81495 7.92485 12.6584
O 7.14727 6.26381 16.4499
O 9.59676 0.522271 16.7007
O 7.3036 1.43828 14.3061
O 9.31251 7.64047 13.3174
O 9.95698 2.57276 14.4188
O 7.79964 6.27863 11.9982
O 5.39621 2.05784 15.8398
O 6.63276 8.3032 11.7654
O 7.11616 7.475 13.9206
O 12.3064 2.56797 13.8888
O 5.13678 3.2312 2.77714
O 7.9844 3.66874 15.3242
Si 8.41512 4.8159 12.0895
Si 12.0487 17.3819 11.9266
Si 10.1511 6.26247 13.9157
Si 15.4474 18.0493 12.8557
Si 13.1108 1.95041 12.6108
Si 11.7094 6.22445 9.55616
O 8.92191 6.05438 15.0471
O 14.6985 0.977225 15.7563
O 14.617 17.1494 14.1535
O 4.67167 4.25749 15.5247
O 12.7248 16.262 12.941
O 12.0434 6.11476 10.8537
O 9.83597 5.31976 12.5476
O 11.1659 7.91931 9.46134
O 13.6967 3.3602 12.0063
O 14.8206 1.4532 12.8791
O 11.4894 6.13139 14.9167
O 0.716722 0.0364667 11.6077
Si 0.430595 12.9303 13.8165
Si 3.41497 10.209 8.88552
Si 1.7532 15.3024 15.388
Si 3.9367 11.8428 11.3528
Si 2.22916 10.3834 13.4189
Si 3.81072 1.75359 13.1894
O 1.5979 14.6819 17.0012
O 1.9826 9.62766 14.8564
O 5.5614 11.8187 11.8526
O 3.71071 0.355446 13.2407
O 1.78169 9.30902 12.5798
O 7.76527 3.34442 12.9985
O 1.1561 11.4172 13.4238
O 4.52494 16.2369 11.0693
O 0.991154 14.1783 14.5969
O 9.37427 13.4229 11.6021
O 3.43465 2.28985 14.6335
O 3.3808 13.4734 11.2082
Si 1.74138 14.5711 8.54179
Si 6.86635 11.2483 11.1788
Si 7.03338 15.5732 13.2672
Si 9.57375 11.2403 15.1158
Si 8.67789 13.7398 10.2389
Si 9.86749 16.4307 13.5571
O 3.94564 13.9492 0.944367
O 10.7605 14.2878 13.8746
O 7.85 14.1484 13.3502
O 10.2519 12.105 16.1986
O 7.2824 12.626 10.2361
O 7.98354 15.0558 9.60127
O 3.10634 10.9677 10.2306
O 13.0827 0.559316 11.5302
O 8.2823 16.5713 13.877
O 10.6964 10.1038 14.5599
O 8.56907 16.882 0.723028
O 8.38681 10.6467 16.0408
Si 12.3508 14.7125 13.4487
Si 11.7024 8.80875 10.8529
Si 10.9205 17.6787 16.2057
Si 14.2248 10.5986 0.315028
Si 11.9587 9.60417 13.8477
Si 13.287 12.3895 15.276
O 10.3844 16.6773 15.1033
O 13.3759 9.13301 0.44678
O 12.4094 8.24012 14.6929
O 0.971624 16.6166 15.6437
O 12.1175 9.05557 12.4938
O 14.9442 12.3799 14.8719
O 13.1233 10.8494 14.4095
O 12.8296 13.7526 12.2563
O 12.9901 13.8371 14.6934
O 15.2115 10.1385 16.2433
O 11.7255 17.278 0.384034
O 13.4322 11.677 16.8447
324
 Atoms. Timestep: 21500
Si 0.702235 4.18881 0.391579
Si 4.45372 16.2738 15.1711
Si 4.57097 7.40798 5.03354
Si 3.59811 2.19207 5.96315
Si 2.26342 0.922143 3.46311
Si 4.874 5.13805 3.2077
O 4.66331 6.51509 6.42347
O 4.86484 1.14148 9.1938
O 2.95363 1.23982 4.80477
O 7.07711 8.20057 16.3986
O 2.82926 1.69202 2.21906
O 2.97532 5.00287 3.5738
O 1.639 4.47459 1.61521
O 2.3193 6.75339 0.847613
O 4.83072 6.5176 3.8034
O 5.07325 1.17464 6.12846
O 3.35599 8.37581 4.60076
O 4.2383 3.62795 6.29441
Si 2.37107 5.79309 2.14035
Si 8.48722 17.8722 0.43056
Si 7.73468 5.14654 5.30886
Si 9.49128 3.35209 3.87018
Si 6.34439 0.49362 2.79197
Si 8.38273 5.29354 2.13448
O 6.35964 4.89493 5.9416
O 6.54223 1.50435 3.89728
O 8.56077 3.62519 2.57898
O 12.3673 5.059 1.75662
O 7.5249 17.8674 16.4512
O 8.27213 5.13571 0.612541
O 5.12589 0.964197 1.87215
O 9.09309 9.04316 0.835556
O 7.92291 5.79686 3.72386
O 10.9641 3.80451 3.37135
O 5.95992 8.29805 4.91168
O 10.0432 5.61737 2.40071
Si 8.30863 5.45541 16.2088
Si 15.3623 17.7031 15.8964
Si 13.2018 4.43057 5.49984
Si 15.0556 1.57413 2.64512
Si 14.0154 2.39305 17.0676
Si 13.5945 5.50099 0.801196
O 12.5416 5.29992 4.35765
O 14.0719 1.70677 3.90026
O 14.1987 2.31282 1.45068
O 13.2881 7.16433 1.34169
O 12.8864 2.66782 16.0225
O 15.466 3.1559 16.7261
O 15.0587 5.24218 1.15815
O 13.0258 5.98699 16.4816
O 14.9517 4.79198 5.01649
O 0.959536 1.7306 3.40662
O 15.3081 7.6658 6.34589
O 13.8443 3.37011 6.43148
Si 0.823453 14.3016 1.35651
Si 1.1185 9.50638 16.2996
Si 2.70788 15.8869 3.09814
Si 3.69142 12.5534 2.11766
Si 1.07988 11.1741 1.86321
Si 4.5473 15.1756 0.806741
O 12.85 14.7282 8.62578
O 3.13144 10.8422 5.24574
O 2.6188 11.334 2.3225
O 5.93156 14.8902 1.75538
O 1.60821 10.2616 0.535857
O 2.69245 16.1366 14.8082
O 0.88808 12.7018 1.16154
O 4.57694 16.3926 16.8027
O 3.97877 16.0992 2.2798
O 4.8573 11.7348 1.45786
O 3.11845 1.86133 7.45019
O 3.92131 13.1204 3.46968
Si 9.30775 13.3339 13.2094
Si 7.89121 9.31113 0.0224125
Si 6.62627 15.3604 3.22331
Si 8.08768 11.2838 4.03653
Si 6.59024 11.7376 1.50039
Si 9.32496 15.1418 1.78433
O 5.77155 14.4892 4.35895
O 7.6061 10.5339 5.40744
O 8.07751 12.3166 1.07971
O 8.76742 12.5391 4.50594
O 6.73652 10.1031 0.976967
O 10.1316 13.7838 1.15685
O 9.58625 11.8937 13.7699
O 7.52126 0.392039 1.7118
O 8.17855 15.4006 3.02085
O 9.10202 10.3653 3.33011
O 6.14754 16.9503 3.34939
O 6.72962 11.5313 3.13448
Si 9.70824 12.203 0.904822
Si 12.742 7.09285 15.4908
Si 11.6943 16.9099 2.05723
Si 12.2911 8.2078 1.06678
Si 9.91219 9.61749 2.21195
Si 14.6682 16.5261 2.70216
O 11.6914 12.5599 7.54651
O 0.090806 9.68389 7.90713
O 11.1582 8.62211 2.25378
O 1.79658 14.928 2.29704
O 11.7027 7.85176 16.8446
O 15.5414 15.7567 1.47833
O 10.7477 10.8233 1.51909
O 14.7851 -0.068022 2.16131
O 10.6579 15.8701 2.56151
O 15.071 10.9457 1.6073
O 11.8843 -0.0213646 3.16522
O 13.1184 16.2801 2.22374
Si 13.619 2.33639 7.68138
Si 3.25291 1.31401 8.9591
Si 0.614874 6.09016 9.2016
Si 5.97947 1.60947 10.2504
Si 14.2131 17.414 6.87959
Si 3.49175 5.30986 9.58107
O 15.4186 5.13095 10.328
O 5.80192 0.461765 11.4135
O 2.25935 1.25177 10.13
O 6.09102 7.79012 9.37228
O 0.82305 16.1504 8.85823
O 4.57535 5.21647 8.24706
O 14.5115 1.06468 6.98888
O 2.16995 5.4904 8.90183
O 3.28837 3.92955 10.672
O 7.23678 2.19177 9.39347
O 0.959689 7.60359 8.9734
O 5.23159 2.93535 11.0426
Si 4.96214 4.97549 6.69185
Si 6.50078 1.39029 5.63884
Si 5.49356 8.77468 10.5526
Si 9.07721 5.14655 9.1064
Si 8.29533 2.47305 8.08061
Si 7.50122 7.87826 8.52987
O 5.01045 5.69855 10.3894
O 10.2703 16.4941 12.6001
O 8.3466 3.98776 8.16487
O 8.60345 9.06624 9.08467
O 7.17289 2.20409 6.92776
O 8.21848 6.46682 8.83463
O 8.91522 4.05926 5.08264
O 8.4461 6.34826 6.00638
O 6.99727 8.74551 7.24204
O 10.6381 5.44737 8.83536
O 6.5576 9.8877 10.3651
O 9.04845 4.50636 10.638
Si 11.4829 5.39482 3.09156
Si 12.712 0.610933 4.35928
Si 9.58166 10.2034 9.97725
Si 1.21424 1.63272 11.265
Si 10.7606 1.54731 6.54058
Si 15.2575 6.13125 6.39358
O 10.5477 9.28519 10.6501
O 12.067 16.2871 10.3041
O 12.0868 2.27364 7.35357
O -0.00683337 5.51372 7.76335
O 11.0537 0.0129118 6.77231
O 13.824 3.32807 8.97274
O 9.60372 2.14638 7.2505
O 14.1995 11.8867 8.77363
O 13.5928 5.78457 6.51097
O 13.284 17.0946 8.17365
O 9.60259 11.4165 8.88268
O -0.0224423 2.69305 10.9254
Si 14.168 13.5576 8.64496
Si 2.30036 9.54985 4.64283
Si 14.1805 13.4984 11.7238
Si 3.75366 15.0079 10.1789
Si 0.57581 9.29412 9.36406
Si 1.37184 17.4362 7.62001
O 5.77543 15.3244 14.9259
O 2.05021 10.0852 9.37204
O 3.62643 11.5437 7.96468
O 2.40187 15.7551 7.27
O 1.89094 8.9238 6.22626
O 3.03063 14.974 4.48937
O -0.000227094 14.2817 8.00042
O 2.58994 17.7303 8.62079
O 15.3261 13.564 12.8052
O 2.28624 14.4807 9.68678
O 0.194835 17.3672 6.60132
O 4.01835 11.4768 12.9498
Si 4.39645 13.9788 4.74822
Si 6.51087 9.51264 5.88373
Si 6.47219 15.3867 8.61527
Si 10.2619 12.705 8.13261
Si 3.6756 11.5007 6.49038
Si 7.69662 16.4423 5.89761
O 5.18909 14.6624 9.11338
O 8.62936 10.8648 11.172
O 12.2186 11.7102 5.12286
O 11.3788 1.5528 5.13924
O 5.15587 10.4378 6.50068
O 8.09395 14.8232 5.67624
O 4.32477 12.8016 5.95502
O 7.18346 -0.0262458 5.88486
O 7.09627 16.1363 7.33312
O 10.0261 13.9301 9.23432
O 6.35023 16.8067 9.49804
O 9.1807 13.0301 6.8688
Si 9.36528 13.9491 5.42163
Si 0.0882576 9.1607 6.32119
Si 10.7227 16.5292 6.14834
Si 13.8727 10.8953 10.1447
Si 12.6151 11.8703 6.47948
Si 12.1745 16.1113 8.75549
O 9.21821 16.7989 6.468
O 13.068 9.60176 10.7282
O 0.69946 10.0484 5.03283
O 14.5447 13.9325 10.1416
O 14.0314 12.7807 6.50512
O 2.18517 17.2729 3.26891
O 10.6739 14.9172 5.46449
O 13.4953 17.3995 5.4217
O 11.0637 15.9734 7.64714
O 15.3405 10.2736 10.254
O 11.7583 0.772299 15.3394
O 14.0296 11.7752 11.511
Si 14.3397 3.64259 10.4987
Si 6.46906 0.641531 15.2603
Si 1.76413 6.59149 16.247
Si 4.26204 2.33279 1.6671
Si 4.36547 2.86526 15.8869
Si 4.02886 5.44239 14.2671
O 0.649906 5.46277 16.2134
O 5.1882 17.7163 14.8799
O 4.10829 2.99127 0.281421
O 4.85785 6.67013 15.0964
O 2.03119 2.1782 12.5651
O 3.89825 4.81657 12.8174
O 0.348386 0.67601 14.6474
O 4.44858 9.62009 9.62357
O 2.82745 5.65887 15.2315
O 6.28317 16.1657 12.4584
O 1.8265 8.05712 15.9977
O 4.26661 5.49563 1.67607
Si 4.81674 4.21493 11.6544
Si 6.01332 16.9177 11.0832
Si 6.1552 7.50926 15.4499
Si 11.561 2.34436 15.2913
Si 8.39147 2.87814 14.5014
Si 7.59686 7.50202 12.5754
O 6.973 5.97839 15.7441
O 9.74288 0.132521 16.5908
O 7.49142 1.57568 14.5533
O 9.28243 7.70017 12.9235
O 9.94257 2.47626 14.8329
O 7.58937 5.78352 12.9655
O 5.68708 1.93364 15.8272
O 6.20558 7.83062 11.6455
O 7.13822 7.8605 14.0022
O 12.133 2.3398 13.716
O 4.8289 3.60406 2.7541
O 8.64078 4.05103 15.5803
Si 8.6188 4.62477 12.0853
Si 11.6476 16.7144 11.9038
Si 10.1121 6.54824 13.8568
Si 15.0272 17.9611 13.2552
Si 12.7038 1.60686 12.4783
Si 12.1714 5.92488 9.49241
O 9.20368 6.18003 15.0823
O 14.2209 0.773277 16.328
O 14.2084 17.1955 14.5999
O 4.63672 4.15637 14.9756
O 12.4614 15.9166 12.9935
O 12.8062 5.00666 10.4463
O 9.89112 5.0788 12.9146
O 11.998 7.45073 10.0858
O 13.0809 2.24221 11.0482
O 14.1073 1.14786 13.104
O 11.5743 6.53042 14.4688
O 0.528988 0.545655 12.0608
Si 0.728147 13.0053 13.8596
Si 3.40893 10.9087 9.40626
Si 1.63386 15.2236 15.6412
Si 4.34947 12.4774 11.7307
Si 2.56197 10.604 13.569
Si 3.5652 1.85185 13.14
O 1.45174 14.6818 0.0104519
O 1.6741 10.4019 15.1621
O 6.17368 12.1304 11.699
O 3.42297 0.477029 13.1318
O 2.49232 9.3934 12.8025
O 8.3471 3.29898 13.0351
O 1.62397 11.7552 13.0348
O 4.53081 16.3755 11.0123
O 1.06735 14.2942 14.6416
O 9.47734 13.1459 11.5758
O 3.3278 2.1241 14.8512
O 4.10842 13.9076 11.3134
Si 1.5939 14.7192 8.21215
Si 6.97757 11.4939 10.3859
Si 6.94238 15.4096 13.8027
Si 9.84489 10.8697 15.2448
Si 8.70423 14.0457 10.3443
Si 9.76999 16.1115 14.114
O 3.7866 13.7922 1.09893
O 10.7292 14.1029 13.5899
O 7.82838 14.1315 13.394
O 10.1462 11.8524 16.4612
O 7.64385 12.7766 10.0558
O 7.59416 14.982 9.56857
O 3.2578 11.8892 10.7094
O 11.8718 0.167004 12.2714
O 8.12804 16.4864 14.1239
O 11.0077 9.91869 14.729
O 8.82859 16.3428 0.84961
O 8.58447 10.0032 15.7375
Si 12.5358 14.6185 13.946
Si 11.9045 8.59424 11.0545
Si 11.3255 17.5135 16.2013
Si 14.0529 10.6455 0.528764
Si 12.3872 9.57341 13.8898
Si 13.6075 12.129 14.9818
O 10.9817 16.6708 14.8592
O 12.8914 9.60006 0.857784
O 13.0047 8.51018 14.7275
O 0.626303 16.4532 15.6795
O 11.9519 8.60089 12.7252
O 15.3369 12.1912 14.8587
O 13.3099 10.8199 14.1247
O 12.8806 13.7183 12.5072
O 12.5116 13.3678 14.8814
O 15.0863 9.74039 16.6827
O 11.9244 17.8351 0.582613
O 13.7442 11.8212 16.6848
324
 Atoms. Timestep: 22000
Si 0.316853 4.73636 0.301776
Si 5.00855 16.4231 15.6904
Si 4.66026 7.38598 4.86302
Si 3.51152 2.31765 5.81794
Si 2.08413 0.679691 3.68862
Si 4.50736 4.92437 2.88405
O 4.47262 6.13886 5.81293
O 4.23331 1.32367 9.30256
O 2.58165 1.49051 4.97831
O 6.8265 7.91084 16.5321
O 3.29676 0.88638 2.73226
O 2.72715 5.40161 3.1467
O 1.77004 4.94796 1.05559
O 2.51234 6.88361 0.0709864
O 4.7838 6.41808 3.65935
O 5.04078 1.67565 5.79887
O 3.02121 7.94548 4.72395
O 4.24238 3.7717 6.00433
Si 2.62466 6.22718 1.49747
Si 8.18509 17.5775 0.354536
Si 7.97052 4.91206 5.29348
Si 9.19854 3.01936 3.50419
Si 6.7902 0.899921 2.62181
Si 8.62324 5.68377 2.42934
O 6.59148 4.90411 6.38227
O 6.97422 1.65242 4.1124
O 8.64033 4.02049 2.44342
O 11.8742 4.60757 1.4457
O 7.06046 0.431723 16.8891
O 8.73981 5.70541 0.716568
O 5.5328 1.52479 1.97824
O 8.96024 8.64203 1.62951
O 7.75349 5.88148 3.9554
O 10.6189 3.62323 3.58023
O 5.71781 8.27327 5.47124
O 10.0713 5.77104 2.86567
Si 8.12357 4.97937 16.4989
Si 15.034 17.5165 15.5029
Si 13.7338 4.6302 5.383
Si 14.8833 1.23656 2.52219
Si 14.4547 2.29584 16.8686
Si 13.1107 5.50091 0.829608
O 12.7129 4.89134 4.14683
O 13.6896 1.63904 3.76004
O 14.9029 2.10384 1.26547
O 13.0422 6.95957 1.85244
O 13.142 2.41446 16.0703
O 15.4741 3.45997 16.4144
O 14.6227 5.32457 1.1498
O 13.0415 6.26464 16.4798
O 15.4817 4.96208 5.01621
O 0.870989 1.59424 3.02382
O 15.15 8.09805 5.94916
O 13.7751 3.50202 6.42461
Si 1.00121 14.4177 1.09784
Si 0.908575 9.84299 15.8797
Si 2.58784 15.6294 3.38946
Si 3.87005 12.1476 2.08213
Si 1.00502 11.4734 1.53242
Si 4.57578 15.1744 1.19807
O 12.5569 14.4755 8.67467
O 3.7673 10.5398 5.68573
O 2.37046 11.78 2.1609
O 6.11001 15.2365 1.72959
O 1.50707 10.487 0.280923
O 3.50136 15.9865 15.0139
O 0.459777 12.8373 0.542471
O 4.69955 16.2443 0.0019418
O 3.76537 15.9328 2.23645
O 5.13854 11.5253 1.27906
O 3.04218 2.28215 7.40124
O 4.20779 12.8001 3.44955
Si 9.16939 13.1126 13.4628
Si 7.94217 8.79745 0.270638
Si 6.64664 15.8471 3.30481
Si 8.37703 11.2083 4.33123
Si 6.674 11.3231 1.6021
Si 9.30637 15.2361 1.80728
O 6.02445 14.48 4.02766
O 7.51978 10.0663 5.05345
O 7.72281 12.3376 0.67699
O 9.01668 12.549 4.48912
O 7.10003 10.0646 0.86221
O 9.59307 13.6015 1.36479
O 9.09356 11.62 13.816
O 8.39235 0.678059 1.91441
O 8.32989 15.7217 2.97808
O 9.57612 10.1933 3.76935
O 6.45481 17.4007 2.92051
O 7.47137 11.4028 2.97971
Si 9.46859 12.3202 0.504489
Si 12.3905 7.27908 15.5954
Si 11.6031 17.1424 1.867
Si 12.2545 8.21445 1.19653
Si 9.89342 9.74587 2.33678
Si 14.4361 16.287 2.20714
O 11.5325 11.8835 7.18169
O 0.283666 9.59864 7.96686
O 11.2794 9.09971 2.28826
O 1.67119 14.7718 2.52148
O 11.1904 7.89142 16.8252
O 15.0669 15.1139 1.20564
O 9.7124 11.1377 1.52261
O 14.6998 17.7126 2.04381
O 10.5121 16.1174 2.21605
O 14.8646 11.2482 1.80286
O 11.7206 17.6602 3.46237
O 12.8252 15.9046 1.80067
Si 13.4397 2.42503 7.47835
Si 2.73943 1.36519 8.74175
Si 0.770182 6.02551 8.88093
Si 5.51508 1.64754 10.0554
Si 14.1096 17.5649 6.75183
Si 3.6976 5.50439 9.3419
O 15.3066 5.20036 9.61696
O 5.68421 0.619592 11.1829
O 1.79457 1.6411 9.93788
O 7.03492 7.89164 9.35392
O 0.602934 16.1917 9.29618
O 4.53934 5.07139 8.06229
O 14.0499 1.03766 7.33392
O 2.49996 6.50713 8.77032
O 3.10626 4.11959 10.6322
O 7.05166 1.83314 9.1197
O 0.223807 7.54625 9.13341
O 5.30285 3.01721 10.9574
Si 5.00222 4.94832 6.67054
Si 6.4677 1.1776 5.76938
Si 5.84387 8.49341 10.3191
Si 9.22305 5.20096 9.35719
Si 8.03895 2.48823 7.88414
Si 8.28415 7.75853 8.31973
O 4.79864 5.6576 10.639
O 9.85119 17.0388 12.5162
O 8.51456 3.84382 8.67194
O 9.16752 8.74701 9.02069
O 7.42902 2.12272 6.60254
O 8.70533 6.30264 8.40437
O 8.44719 3.52858 4.71832
O 9.08507 5.44845 6.16518
O 7.65806 8.63138 7.25417
O 10.9572 5.46128 9.61021
O 6.63865 9.91407 10.455
O 8.9934 5.38777 10.8633
Si 11.3713 4.96338 3.20989
Si 12.3704 0.735761 4.2917
Si 9.76679 10.0197 9.66957
Si 0.964743 1.92279 11.3848
Si 10.5976 1.51271 6.80378
Si 0.0231661 6.50619 5.94911
O 10.5139 9.12577 11.0029
O 11.538 16.0383 10.2069
O 11.9489 2.01194 7.35644
O 0.453698 5.92919 7.32217
O 10.6603 -0.0229393 6.93788
O 14.1347 3.25708 8.7214
O 9.38171 1.73209 7.88639
O 14.2632 11.6884 8.84213
O 13.8228 6.01851 6.22923
O 13.3482 16.6407 7.91861
O 9.72503 11.0582 8.4697
O 15.4683 3.14916 11.1882
Si 13.8806 13.2957 8.55042
Si 2.5586 9.57004 4.96045
Si 14.4164 13.4428 11.6197
Si 4.08186 14.8529 10.5044
Si 0.886735 8.99846 9.3731
Si 1.26304 17.0142 7.61058
O 5.96808 15.4955 14.7066
O 2.00466 9.88281 9.86125
O 3.90764 11.6115 8.4004
O 1.94296 15.1907 7.42531
O 1.97941 9.03381 6.53779
O 3.4656 14.7902 4.50159
O 15.4915 14.0316 8.40303
O 2.57032 17.8922 7.94043
O 15.4955 13.7342 12.7765
O 2.78203 14.8031 9.77013
O 15.451 16.8489 6.70972
O 4.40825 12.138 13.31
Si 4.81344 13.8319 4.54971
Si 6.51826 9.45381 6.21655
Si 6.63581 15.3574 9.03357
Si 10.3674 12.5645 8.0022
Si 4.22578 11.4815 6.93055
Si 7.12578 16.1473 6.27715
O 5.37744 14.5039 9.63305
O 8.80045 10.7525 10.9827
O 12.341 11.989 4.84741
O 11.0926 1.37183 5.17061
O 5.794 10.7461 6.91341
O 7.86935 14.5847 5.89408
O 4.7317 12.8759 6.08123
O 6.68294 17.5759 5.75186
O 6.28969 16.0233 7.58891
O 10.1492 13.4343 9.37091
O 6.60628 16.8098 9.93487
O 9.4595 13.0559 6.75786
Si 9.2813 13.7878 5.48563
Si 0.25023 9.50767 6.35917
Si 10.1231 16.4882 6.7619
Si 14.1134 10.714 10.1357
Si 12.7591 11.9233 6.18261
Si 12.1975 16.1393 8.82067
O 8.45082 16.6173 7.02556
O 12.9085 9.66272 10.1499
O 1.01893 9.81441 4.56773
O 14.3143 14.694 10.7834
O 13.74 12.8846 6.93263
O 2.59228 17.0234 4.02534
O 10.2355 15.0677 5.92427
O 13.1661 17.8073 5.39757
O 10.7416 15.9964 8.0808
O 15.4173 9.66648 10.3388
O 11.5588 0.793061 15.1422
O 14.5355 11.7607 11.4891
Si 14.3329 3.96925 10.2118
Si 6.48722 1.00453 15.4776
Si 1.70107 6.94222 15.8499
Si 4.00879 1.95569 1.78624
Si 4.14852 2.93364 15.9879
Si 3.77239 5.47447 14.2898
O 0.457383 5.94079 16.4254
O 5.25861 17.8376 15.0863
O 3.8924 1.92964 0.154987
O 4.9957 6.46578 14.8825
O 1.85995 2.16969 12.6867
O 3.65264 4.79829 12.9478
O 0.371438 0.203291 14.0255
O 4.47531 9.06056 9.63092
O 2.28047 5.99878 14.7822
O 6.41065 15.9862 12.3956
O 1.19626 8.31117 15.3829
O 4.34737 5.53329 1.22272
Si 4.34602 4.19909 11.623
Si 5.98415 17.1118 11.4171
Si 6.22279 7.17673 15.4004
Si 12.0116 2.3678 14.9013
Si 8.84685 2.74062 14.8311
Si 7.52637 7.86909 12.6856
O 7.05721 5.80521 15.5898
O 9.45608 17.9092 16.7117
O 7.87252 1.36491 14.7907
O 9.05891 7.98811 13.6605
O 10.3961 2.89517 14.5458
O 7.68444 6.18112 12.6773
O 5.77872 2.31903 15.7308
O 6.20679 8.00288 11.843
O 6.89985 8.17513 14.2499
O 12.367 2.65993 13.3212
O 4.01965 3.39692 2.62122
O 8.61266 3.3846 16.2959
Si 8.57521 4.87706 12.2559
Si 11.1346 16.8953 11.4676
Si 9.74156 6.70043 14.2318
Si 14.9402 17.763 12.695
Si 12.549 1.61724 12.1237
Si 12.2625 6.23044 9.99898
O 9.3207 5.79369 15.4934
O 14.8419 0.800676 16.2985
O 14.1194 16.9006 14.2804
O 4.01093 4.2901 15.2143
O 11.9749 16.1868 12.8396
O 13.0375 4.94893 10.793
O 9.8512 5.4573 13.1674
O 11.9533 7.08495 11.2913
O 13.1399 2.31139 10.8357
O 13.7183 0.741916 12.8079
O 11.4358 6.91545 14.4124
O 0.2661 0.633824 11.6656
Si 0.90497 13.4695 13.8312
Si 3.53144 10.3362 9.4819
Si 1.91065 15.8555 15.656
Si 4.8248 12.2291 11.7626
Si 3.06239 11.3644 13.9924
Si 3.15238 1.51967 13.4933
O 1.80483 15.1252 17.0502
O 1.91505 10.6506 14.9024
O 6.42354 11.6973 12.2036
O 3.04115 0.164025 13.5968
O 3.40637 10.0143 13.2709
O 8.55234 3.58271 13.2406
O 1.77219 12.412 13.2796
O 4.53905 16.3071 11.1507
O 1.1007 14.7065 14.7047
O 8.95554 13.228 11.7478
O 3.53424 2.13662 14.8116
O 4.13144 13.5159 11.3139
Si 1.33925 14.7482 9.01263
Si 7.37569 11.2189 10.5868
Si 6.90864 15.0888 13.6261
Si 9.57192 10.6935 15.145
Si 8.803 13.8531 10.0803
Si 9.77707 16.0641 13.8425
O 3.73134 13.7241 1.10597
O 10.6954 13.8069 13.1751
O 7.74506 13.9614 14.0777
O 9.77213 11.8377 16.1828
O 7.73136 12.5912 9.87862
O 8.2802 14.9157 8.87331
O 3.99661 11.1289 10.8152
O 11.9543 0.24413 11.6479
O 8.22166 16.1711 13.9585
O 10.8413 10.0162 14.6403
O 8.81567 16.1206 0.599909
O 8.93483 9.55976 16.2509
Si 12.1374 14.3551 13.2712
Si 12.0127 8.90338 11.3176
Si 10.9534 17.6356 16.0916
Si 14.107 10.6154 0.192069
Si 12.3374 10.0184 14.1254
Si 13.9398 12.5832 14.9697
O 10.5807 16.7287 14.9362
O 13.1145 9.4874 0.463417
O 12.8878 8.84623 15.156
O 0.789239 16.9878 15.9763
O 12.2473 9.7969 12.4781
O 15.5359 12.326 14.6619
O 13.3911 11.1481 14.1284
O 12.9618 13.6992 12.1934
O 12.772 13.5771 14.5537
O 15.2328 9.55455 16.8529
O 11.8566 17.1948 0.174858
O 13.9194 11.9633 16.5627
324
 Atoms. Timestep: 22500
Si 0.0151684 4.91323 16.8836
Si 4.90486 16.3052 15.5479
Si 4.7997 7.07233 4.84441
Si 3.40313 2.47198 5.80636
Si 2.22457 0.841103 3.55024
Si 4.31769 5.08527 2.74019
O 4.53289 6.22098 6.14915
O 4.54351 1.45508 9.13138
O 2.68003 1.36415 4.88807
O 6.70295 8.0976 16.463
O 3.12926 1.17605 2.27769
O 2.45483 5.71362 2.64351
O 1.3276 5.02716 0.623059
O 2.67129 6.69282 16.689
O 4.9773 6.15567 3.64913
O 4.69846 1.55742 5.81263
O 3.54012 7.89665 4.66463
O 3.91414 3.87069 6.27424
Si 2.30208 6.31171 1.10338
Si 7.8379 0.405947 0.372188
Si 7.71574 4.76322 5.2625
Si 8.86597 3.07269 3.23923
Si 6.70856 0.67832 3.22574
Si 8.51384 5.85357 2.33056
O 6.36944 4.36966 6.01799
O 6.90531 1.09306 4.85353
O 8.48194 4.24189 2.40072
O 12.5269 4.59147 2.02027
O 6.32581 0.817025 16.6805
O 8.16126 5.90475 0.70168
O 5.55025 1.50966 2.64627
O 9.23207 9.59239 0.568266
O 8.04389 5.76879 3.90481
O 10.6082 3.51421 3.50213
O 6.07205 7.99805 5.15953
O 10.0732 5.85022 2.57742
Si 8.26465 5.34611 16.4312
Si 15.2141 17.8789 14.6541
Si 13.3995 4.51592 5.32847
Si 14.8984 0.688014 2.17178
Si 14.2866 1.9569 16.6012
Si 13.0696 5.80981 1.06268
O 12.0603 5.00173 4.63554
O 13.8638 0.925996 3.37405
O 14.279 1.48042 0.962142
O 13.1171 7.18831 1.85243
O 13.3223 2.58726 15.4714
O 15.408 3.25602 16.6748
O 14.4724 5.48592 0.639853
O 12.4511 6.27792 16.7458
O 15.1376 4.93774 4.62533
O 0.584254 1.64908 2.74419
O 15.4036 7.85694 5.78742
O 13.4919 3.63561 6.68229
Si 1.24714 14.6792 1.26049
Si 1.35129 10.1278 15.9689
Si 2.49654 15.7759 3.6716
Si 4.14893 12.5439 2.34642
Si 1.50899 11.256 1.79872
Si 4.52874 15.3613 1.35054
O 13.2886 15.062 8.46253
O 3.28036 10.7406 6.02053
O 2.94069 11.6938 2.07958
O 5.93287 15.1624 2.03214
O 1.73157 10.6144 0.35131
O 3.3102 16.2284 15.2306
O 1.34146 13.0011 1.21013
O 5.03865 16.2764 0.0579942
O 3.63083 15.6996 2.53836
O 5.50721 11.6238 1.36093
O 2.67314 1.99706 7.21561
O 4.73387 12.4884 3.84147
Si 8.9956 13.0705 13.1603
Si 7.86127 9.08506 16.9689
Si 6.75149 15.6011 3.37211
Si 8.10984 11.0147 4.39698
Si 6.90698 11.2194 1.67264
Si 8.83625 15.4875 1.21868
O 6.10267 14.4306 4.61147
O 8.1135 9.95236 5.53889
O 8.1827 12.1464 1.10685
O 8.20277 12.5295 4.8479
O 6.96837 9.81208 1.01726
O 9.25629 14.3543 0.191946
O 8.94914 11.6844 13.7029
O 7.86386 0.745087 1.95958
O 8.25438 15.1566 2.62015
O 9.22102 10.459 3.20843
O 6.55373 17.166 3.14787
O 6.69222 11.018 3.37981
Si 9.55803 12.6561 0.430976
Si 12.2805 7.73261 15.6099
Si 11.4673 16.8934 1.94947
Si 12.4835 8.64865 1.29937
Si 9.95767 10.0794 1.83557
Si 14.1977 15.8324 2.06922
O 11.5385 11.5896 6.64645
O 0.374324 9.66621 7.72878
O 11.0022 9.09424 2.18787
O 1.48656 15.1329 2.73951
O 11.5709 8.47691 16.8666
O 15.1788 15.0643 1.23442
O 10.6397 11.5293 1.2601
O 15.0224 17.1725 2.14089
O 10.2952 15.9123 1.88991
O 15.3247 11.2308 1.84731
O 11.9686 17.3866 3.38427
O 12.6836 15.7779 1.35461
Si 13.273 2.50454 7.71822
Si 3.08265 1.18251 8.50416
Si 0.987685 5.92784 8.50018
Si 5.71582 1.81872 10.1285
Si 13.8733 17.6625 7.02684
Si 3.96991 5.85839 9.40465
O 15.6165 4.83111 9.25292
O 5.53913 0.730735 11.3337
O 2.13346 1.92881 9.63684
O 6.91067 7.26709 9.27674
O 0.637316 16.0187 9.06233
O 4.7223 5.03599 8.367
O 14.2035 1.19606 7.30181
O 2.59851 5.97191 8.50224
O 3.27244 4.51231 10.6315
O 7.33954 1.53318 9.4482
O 0.717254 7.4225 8.83327
O 5.54097 3.33033 10.3935
Si 5.0783 4.84615 6.86318
Si 6.14755 1.10638 6.17041
Si 5.94842 8.39964 10.1958
Si 9.54588 4.74709 9.46389
Si 8.05246 2.48746 8.07805
Si 8.32684 7.37651 8.46991
O 5.27379 5.71169 10.6115
O 9.14215 16.867 12.4355
O 8.65331 3.64187 8.88055
O 9.11589 8.34426 9.28251
O 6.81612 2.1463 7.2254
O 9.31457 6.05167 8.43707
O 8.10321 3.39154 4.71574
O 8.67632 5.26001 6.41756
O 8.1037 7.89383 6.94118
O 10.9499 5.56907 10.0221
O 6.9364 9.65213 9.63903
O 8.51284 5.15444 10.6718
Si 11.3212 5.05177 3.27516
Si 12.3012 0.466644 4.60227
Si 9.91048 9.5369 9.93113
Si 1.33729 1.99868 11.0816
Si 10.692 1.3496 6.86877
Si -0.01047 6.14764 5.56466
O 11.2644 9.05599 10.5615
O 12.1559 16.6923 10.6223
O 11.8242 2.15094 7.53488
O 0.66881 5.8654 7.02803
O 10.9139 17.799 6.83212
O 13.4364 2.66728 9.28351
O 9.1629 1.72374 7.24052
O 14.4212 12.1348 9.50415
O 13.8429 5.91654 6.28841
O 12.9814 17.2562 8.35816
O 10.3919 10.3904 8.55791
O 15.4268 2.5202 10.6007
Si 14.2124 13.7017 8.53541
Si 3.09993 9.44043 5.05283
Si 14.3026 13.501 11.584
Si 3.69353 15.1135 10.8607
Si 0.950314 9.04009 9.17585
Si 1.11792 17.0476 7.79813
O 5.86126 15.0734 14.8685
O 2.57113 9.17571 9.16378
O 4.26535 10.5776 8.17634
O 2.43924 15.7408 7.44038
O 2.20092 8.53486 6.46248
O 3.42611 14.5772 4.5115
O 0.356764 13.9533 8.43325
O 2.10074 18.0401 8.41939
O 15.4613 13.7318 12.5963
O 2.47117 14.9365 9.97031
O 15.1438 16.8029 6.94311
O 4.24907 11.5105 12.6109
Si 4.58378 13.7561 5.04466
Si 7.00044 8.89633 6.25783
Si 6.56266 15.365 9.7255
Si 10.5751 11.8428 7.88131
Si 4.70078 11.2337 6.7521
Si 7.3895 16.1124 6.82506
O 4.84501 15.1022 9.7372
O 8.59263 10.1823 11.0139
O 12.6315 13.1105 4.79891
O 11.3535 1.50629 5.25238
O 5.78371 10.0208 6.25594
O 7.74818 14.5245 6.26666
O 5.07564 12.6277 6.30024
O 6.69354 17.764 6.59685
O 6.80931 15.945 8.17208
O 10.3998 12.6413 9.14375
O 6.56041 16.6233 10.6067
O 9.38 12.7686 6.96389
Si 8.9798 13.6102 5.72559
Si 0.637668 9.11209 6.19885
Si 10.3896 16.286 6.60997
Si 14.5355 10.7551 10.4672
Si 12.8238 12.2891 5.92877
Si 12.1462 15.9685 9.11447
O 8.84921 16.5161 7.0172
O 13.5019 9.48322 10.9368
O 1.32856 9.84695 4.65078
O 14.3853 14.4982 10.4155
O 13.9498 13.0055 6.97835
O 2.1458 17.2955 3.44177
O 10.2525 14.7134 5.82289
O 13.1268 17.5086 5.70102
O 10.8886 15.6788 8.06056
O 0.422584 10.33 10.1059
O 11.5964 1.21456 15.8321
O 14.4147 11.7271 11.7767
Si 14.095 3.57554 10.4624
Si 6.10623 1.06202 15.1141
Si 1.73804 7.09217 15.4899
Si 4.25689 2.20592 1.91447
Si 3.51688 2.39112 15.7561
Si 3.86874 4.99812 14.3918
O 0.443004 6.25833 16.0247
O 5.75174 17.4495 14.9943
O 4.04046 2.48936 0.269127
O 4.62797 5.99361 15.3574
O 2.57149 1.92703 12.0572
O 4.09501 4.73986 12.8515
O 0.112473 0.975186 13.5338
O 4.62669 9.44489 10.6275
O 2.38835 5.91424 14.4441
O 6.37385 16.4022 12.7753
O 1.17883 8.5994 15.828
O 4.34735 5.65872 1.14585
Si 4.82726 4.37196 11.4859
Si 5.62189 17.2721 11.7486
Si 5.83456 6.97006 15.5172
Si 11.8014 2.57367 15.094
Si 8.51622 2.78109 14.873
Si 7.19935 7.60049 12.9079
O 6.98827 5.82298 15.7306
O 9.49827 0.660181 17.0659
O 7.68662 1.38273 14.9283
O 8.55345 7.51789 13.8252
O 10.057 2.6876 14.6163
O 7.40131 6.0439 12.61
O 5.40004 2.54394 15.3882
O 6.77749 8.19778 11.6002
O 6.07939 7.59926 14.1411
O 12.2173 1.98624 13.5579
O 3.97623 3.55784 2.75015
O 8.257 3.81338 16.2605
Si 8.25911 4.8163 12.3791
Si 11.1821 16.9494 11.7185
Si 10.0039 6.75181 14.0721
Si 15.1333 17.7898 11.887
Si 12.6808 1.41858 12.2721
Si 12.3907 6.12496 9.71278
O 9.52916 6.03186 15.6075
O 15.2496 1.10466 15.8283
O 14.7853 16.7132 13.2916
O 3.26768 3.78107 15.1568
O 11.725 16.1762 13.2991
O 13.1703 4.86986 10.2239
O 9.76895 5.47424 12.9881
O 12.4575 7.10394 11.0063
O 13.1233 2.79969 11.5915
O 13.8881 0.57021 11.8811
O 11.258 7.40787 14.5496
O 0.853831 0.478925 11.1646
Si 0.770748 13.3275 14.0451
Si 3.65669 10.3829 9.67265
Si 1.80367 15.9768 15.4511
Si 4.86573 12.5217 11.7359
Si 3.15784 11.3996 13.8232
Si 3.28151 0.900921 13.0646
O 1.49089 15.1012 16.821
O 2.41681 11.0091 15.1452
O 6.32274 11.938 11.4145
O 2.51074 17.7526 13.1108
O 2.47354 9.98696 13.2266
O 7.94092 3.93277 13.7486
O 1.99433 12.3532 13.3081
O 3.95084 16.5274 11.8107
O 1.24943 14.7637 14.367
O 9.23816 12.6101 11.4918
O 3.47579 1.3984 14.61
O 4.18387 13.9762 11.9309
Si 1.84703 14.5436 8.64437
Si 7.26691 10.9928 10.4838
Si 6.91323 15.1927 13.7245
Si 9.40766 10.8323 15.1055
Si 8.8959 13.2336 9.98147
Si 9.48533 16.3 13.9197
O 3.92579 13.8226 1.44967
O 10.3231 13.8843 13.5783
O 7.93883 14.0187 13.589
O 9.54911 12.1746 15.9588
O 8.04284 11.914 9.35327
O 7.83303 14.4451 9.83785
O 3.99126 11.8234 10.2579
O 11.2203 0.461053 11.839
O 8.04859 16.4538 14.7457
O 10.9594 10.4426 14.716
O 8.13712 16.8432 0.525766
O 8.15081 10.1028 15.5154
Si 11.8509 14.5229 13.3371
Si 12.3368 8.47295 11.4996
Si 10.8547 0.0018129 16.3877
Si 14.3546 11.1815 0.636168
Si 12.4557 10.3159 14.2578
Si 13.3591 13.0813 15.5113
O 10.2343 17.4007 14.9608
O 13.4695 9.8225 0.999498
O 13.032 9.1981 15.1391
O 1.08904 17.2883 14.9435
O 12.0054 9.29054 12.7925
O 14.9964 13.3369 14.8575
O 12.9896 11.6728 14.7288
O 12.9517 13.6053 12.4372
O 12.7641 14.5506 14.7026
O 15.3039 10.1796 16.6646
O 11.5408 0.112821 0.874759
O 13.5163 12.4046 16.8945
324
 Atoms. Timestep: 23000
Si 0.187939 4.78399 16.6251
Si 4.50028 16.2952 15.4224
Si 4.97109 7.12098 4.56031
Si 3.54519 2.06649 5.80618
Si 1.92202 0.920028 3.57421
Si 4.07409 4.84453 2.83028
O 4.51868 6.13001 5.63866
O 4.74682 1.50547 9.26108
O 2.7349 2.17721 4.37688
O 6.52554 8.33325 15.8783
O 2.8165 0.977065 2.3577
O 2.34706 5.70125 2.78917
O 1.4765 4.97262 0.568291
O 2.55205 6.97461 17.0095
O 4.44733 6.34577 3.2969
O 4.70896 0.879036 5.9891
O 4.24826 8.49583 4.56128
O 4.31398 3.44056 5.71346
Si 2.2773 6.26936 1.24039
Si 7.72466 0.236933 0.8436
Si 7.74804 4.60947 4.97092
Si 9.57648 3.05322 3.31699
Si 6.35551 0.246105 3.41485
Si 8.59033 5.57987 2.30791
O 6.5012 4.70001 5.94383
O 6.8321 1.27993 4.80318
O 8.85125 4.05328 2.35694
O 11.9423 5.47085 1.49081
O 6.69982 0.964059 16.7777
O 8.62648 5.69755 0.572714
O 5.12786 1.20047 2.67278
O 8.66547 9.07919 0.910874
O 7.40219 5.40261 3.63842
O 10.9198 4.0385 3.72052
O 6.53465 7.4389 5.24397
O 10.1318 6.26386 2.85201
Si 8.33207 5.17889 16.316
Si 14.8728 17.9413 14.768
Si 12.8762 4.87758 5.67552
Si 14.502 0.941989 2.02169
Si 14.1854 2.29891 16.5027
Si 13.372 6.15973 0.723224
O 12.4371 5.62227 4.38479
O 13.3837 1.00987 3.41203
O 13.8156 1.73994 0.717125
O 13.3729 7.43095 1.53177
O 13.0082 2.86371 15.6261
O 15.5649 3.18122 16.4833
O 14.4955 5.01645 0.400029
O 12.8222 6.7521 16.474
O 14.6658 4.28524 5.16831
O 0.411739 1.67088 2.77141
O 0.262914 7.31223 5.24341
O 13.1933 4.18174 6.97331
Si 0.890096 14.6945 1.46803
Si 1.68026 10.2069 16.3296
Si 2.43179 15.9533 3.74178
Si 4.31265 12.8734 2.23736
Si 1.58448 11.6435 1.79145
Si 4.61837 15.7364 1.55174
O 12.9621 14.4048 9.0099
O 3.85233 10.4307 5.97078
O 2.88939 11.9388 2.50993
O 5.79478 15.4775 2.66055
O 2.14083 10.7336 0.629252
O 2.98342 16.7494 15.5425
O 1.25644 13.1584 1.39018
O 4.65613 16.0683 17.0838
O 3.57989 16.2461 2.5043
O 5.2402 11.5602 1.85384
O 2.9227 2.1242 7.37007
O 4.42979 13.0342 3.74795
Si 9.40137 13.5552 12.9545
Si 7.70684 9.14556 16.7366
Si 6.91377 15.268 3.73331
Si 8.31213 10.9996 4.32818
Si 6.8866 11.2833 1.48394
Si 8.88481 15.3572 1.84841
O 5.69212 14.5553 4.96435
O 8.25059 9.53847 4.78498
O 7.51271 12.3599 0.340088
O 8.30633 12.5599 4.8212
O 6.64012 10.0351 0.523771
O 9.02174 14.3293 0.553653
O 9.2132 12.2388 13.6348
O 7.37092 0.677809 2.32101
O 8.0671 14.4809 2.95095
O 9.84924 10.8759 3.45297
O 7.12792 17.0646 4.16885
O 7.42113 10.8376 3.02862
Si 9.34548 12.7744 0.501764
Si 12.3745 8.08907 15.7432
Si 11.6608 16.7036 1.82271
Si 12.465 8.81782 1.65867
Si 9.67947 10.0987 1.9037
Si 14.359 16.1525 2.61148
O 12.2246 11.9765 7.07374
O 0.356785 9.26949 7.26122
O 10.9821 9.13046 1.9735
O 1.5963 15.1021 2.74166
O 11.9574 8.72748 17.0558
O 14.9569 14.8397 1.40576
O 9.89266 11.4654 1.0832
O 14.5041 17.4859 1.8017
O 10.2933 15.9658 1.93313
O 15.548 11.3352 1.58548
O 11.3017 17.6535 3.03565
O 12.8635 15.6729 1.92598
Si 13.2862 2.41305 7.33854
Si 3.31995 1.19036 8.66258
Si 0.967846 5.99599 8.28213
Si 5.94335 1.588 10.2117
Si 14.0728 17.4092 7.01425
Si 4.01852 5.38718 9.31446
O 0.252468 4.8742 9.32775
O 5.31655 0.487466 11.4107
O 1.96185 1.32669 9.75838
O 6.89275 7.70071 9.46066
O 1.24564 16.2725 9.05807
O 4.72948 4.46237 7.97459
O 13.7946 0.878775 7.49311
O 2.56199 5.59435 8.46873
O 3.41402 4.04552 10.2783
O 7.35282 1.79549 9.74683
O 0.952089 7.52736 8.85367
O 5.37811 2.84554 11.162
Si 4.80885 4.83926 6.42097
Si 6.22759 1.00332 6.37147
Si 6.00663 8.57442 10.272
Si 9.47516 4.37464 9.43607
Si 8.3522 1.77116 8.36185
Si 8.22019 7.19143 8.6143
O 5.30244 5.38055 10.6232
O 9.56333 17.1757 13.1112
O 8.91228 3.18931 8.46855
O 9.31809 8.26361 9.12698
O 7.33038 1.643 7.16938
O 8.88308 5.76927 8.95605
O 8.83594 3.61064 4.65235
O 8.73679 5.41986 6.02139
O 7.88101 8.04225 7.07681
O 10.9791 4.94528 9.68207
O 6.98377 9.93896 10.3553
O 9.34429 4.0104 11.01
Si 11.4472 5.30601 3.02176
Si 12.5289 -0.00178978 4.35666
Si 9.76879 9.41298 9.94416
Si 1.05737 2.28768 10.7796
Si 10.7238 1.06952 6.56102
Si 15.3827 5.81479 5.52664
O 11.3067 9.11248 10.2379
O 11.6083 16.4787 10.5185
O 11.8131 2.14919 7.34977
O 0.383791 5.34775 6.9661
O 11.0328 17.3801 6.47701
O 13.5283 2.79134 8.92201
O 9.52276 0.907194 7.64465
O 13.7144 11.9917 9.18983
O 13.7193 6.32875 6.1952
O 13.1847 16.261 7.79903
O 10.217 10.4138 8.44513
O 0.0601932 3.44303 11.5239
Si 14.7139 13.6813 8.87392
Si 3.094 9.57254 4.82862
Si 14.2397 13.1722 11.9932
Si 3.64897 14.8998 11.0342
Si 0.893547 9.13432 8.86299
Si 1.38908 17.1694 7.65603
O 5.66203 15.1966 15.0831
O 2.49325 9.59781 8.78443
O 4.82659 11.2387 8.19065
O 1.99353 15.3201 7.06921
O 2.24572 8.33254 6.12675
O 3.22935 14.9754 4.72631
O 0.527231 14.0525 8.54638
O 2.79718 17.797 8.08503
O 15.4138 13.7371 12.8664
O 2.79869 14.5176 9.84568
O 15.5309 16.945 7.03498
O 3.68256 11.7501 13.2749
Si 4.33513 13.749 5.09626
Si 7.30016 8.66768 5.82611
Si 6.46398 15.1417 9.57341
Si 10.6173 11.7173 7.6744
Si 5.05594 11.0544 6.69083
Si 7.14398 16.0116 6.86092
O 4.90017 15.1222 9.96517
O 9.35549 10.2408 11.0795
O 12.2846 13.833 5.52028
O 11.5669 1.17768 5.12501
O 6.28368 9.90045 6.12736
O 7.74682 14.5067 6.64409
O 4.85186 12.5708 6.24846
O 6.33089 17.4262 6.61314
O 6.44908 15.6846 8.13958
O 10.3523 12.7708 9.09165
O 6.80889 16.6637 10.5172
O 9.53894 12.3868 6.99587
Si 8.81368 13.5899 6.03149
Si 0.680021 8.76732 5.80375
Si 10.3535 15.9662 6.89168
Si 14.2382 10.6706 10.2079
Si 13.1549 12.8902 6.01275
Si 12.3699 15.8916 9.18621
O 8.75276 16.559 6.98543
O 13.6745 9.30727 10.6683
O 1.62895 10.3321 5.14183
O 14.712 13.7116 10.568
O 14.2396 13.5644 7.15055
O 2.44497 17.3854 4.14756
O 10.1727 14.5957 6.00518
O 13.6598 17.7302 5.50036
O 11.0477 15.7613 8.28385
O 15.4892 10.2797 9.41847
O 11.331 1.20036 15.8976
O 14.5841 11.6087 11.6938
Si 14.1226 3.66371 10.3335
Si 6.45026 1.14038 15.2865
Si 1.62414 7.27979 15.6126
Si 4.05994 1.87521 1.62249
Si 3.82077 2.53744 15.8423
Si 3.63264 5.22673 14.2943
O 0.591504 6.21263 16.0295
O 5.20218 17.7105 14.972
O 3.47857 2.08264 0.195589
O 4.82679 5.76764 15.2759
O 1.94643 2.06337 12.0728
O 4.04971 5.26513 12.627
O 0.215931 0.796772 13.6547
O 4.69407 9.38477 9.85467
O 2.45071 6.19928 14.4747
O 6.67412 16.343 12.8855
O 1.07885 8.73848 16.1264
O 4.14361 5.53591 1.23179
Si 4.83345 4.24858 11.5473
Si 5.85623 17.1421 11.8474
Si 5.83911 6.98978 15.4986
Si 11.6933 2.35336 14.7554
Si 8.81644 2.75486 14.4342
Si 7.28681 7.6143 12.8179
O 7.21508 5.97212 15.6831
O 9.44592 0.938674 0.527542
O 7.652 1.73918 14.3014
O 8.44243 7.88356 13.6918
O 10.2588 3.15591 14.5444
O 7.79186 5.8602 12.3299
O 5.32836 2.34514 15.2177
O 6.25874 8.17598 11.701
O 6.03085 7.18092 13.8082
O 12.4846 1.66592 13.4607
O 3.87376 3.34841 2.23982
O 8.33817 3.80414 15.6883
Si 9.10141 4.925 12.36
Si 10.9146 16.8957 11.8018
Si 9.94539 6.95916 14.2131
Si 15.3579 17.9185 12.0821
Si 12.7903 1.37525 11.9881
Si 12.2636 6.01078 9.73894
O 9.51287 6.17826 15.6521
O 14.604 1.17575 15.5794
O 14.9332 16.7476 13.4694
O 3.37497 3.89763 15.3003
O 11.94 16.404 12.9617
O 13.3357 5.04741 10.4157
O 10.0872 5.7668 13.1626
O 12.058 7.09635 10.971
O 13.37 2.81076 11.4591
O 13.8251 0.287303 12.0234
O 10.7775 8.05234 15.0417
O 0.133819 1.11793 11.0274
Si 0.712717 13.5599 14.2148
Si 3.69123 10.5876 9.27348
Si 1.63217 16.0379 15.8139
Si 4.33958 12.0014 11.8338
Si 1.99786 10.9807 13.3035
Si 3.06581 1.37183 13.0283
O 1.37904 15.5595 0.160379
O 2.25428 10.1904 14.7395
O 6.28021 11.91 11.5279
O 2.86338 -0.0162462 12.8614
O 0.88255 9.96549 13.0627
O 8.42144 3.77458 13.3904
O 1.20952 12.15 13.7998
O 4.36964 16.3242 11.8443
O 1.45161 14.7928 14.7328
O 9.73691 13.2043 11.4433
O 2.8352 1.54808 14.6511
O 3.98799 13.5206 11.6461
Si 2.02687 14.6161 8.50423
Si 7.72735 11.0326 11.202
Si 6.98539 15.1449 13.8409
Si 9.28166 11.2056 14.9476
Si 9.22665 13.3664 9.94434
Si 9.67958 16.3149 14.4766
O 4.01213 14.1462 1.49062
O 10.8266 14.0723 13.6802
O 7.99122 14.2086 12.8012
O 9.15592 12.4188 16.0151
O 8.27932 12.0003 9.91894
O 7.96873 14.6199 9.92403
O 3.66709 11.3312 10.532
O 11.3123 0.463487 11.738
O 8.22353 15.6508 14.5871
O 10.806 10.8046 14.7302
O 7.93459 16.5676 1.2199
O 8.39641 10.1154 15.7043
Si 12.1652 14.8402 13.5737
Si 12.2815 8.7591 11.4167
Si 10.3451 0.287586 16.5315
Si 14.6118 10.8122 0.206605
Si 12.0008 10.5629 13.826
Si 13.3613 12.8202 15.4925
O 9.54737 17.3508 15.6443
O 13.5424 10.0077 0.964739
O 12.7583 9.19766 14.7539
O 0.533248 17.3668 15.7405
O 11.4549 10.0057 12.4771
O 14.9538 13.1225 15.2631
O 12.8743 11.7378 14.3148
O 12.9813 14.2002 12.2469
O 12.9975 14.4007 14.8455
O 0.366408 11.0978 16.2633
O 11.5443 17.3516 0.390982
O 13.5755 12.3425 -0.0420151
324
 Atoms. Timestep: 23500
Si 0.129609 4.70217 16.7178
Si 4.86748 16.6981 15.9384
Si 5.24218 6.93486 4.24863
Si 3.50267 2.48773 6.12349
Si 1.59962 0.826913 4.03393
Si 4.19826 4.4382 2.75511
O 5.15451 6.14082 5.68451
O 4.31811 1.22921 9.67542
O 2.47058 1.5187 5.21208
O 7.30458 7.7751 16.0679
O 2.44756 1.27454 2.86487
O 2.47317 5.16065 2.62237
O 1.74593 4.36388 0.434975
O 2.64074 6.40483 16.8755
O 4.96234 5.84286 3.11927
O 4.73427 1.24662 5.83485
O 3.95002 7.59124 4.39645
O 4.34676 3.70637 5.99595
Si 2.52527 5.62701 0.98192
Si 8.17357 0.0633056 0.682441
Si 8.1222 4.49774 5.24795
Si 9.85902 2.77038 3.46044
Si 6.63562 0.570163 3.22237
Si 8.68214 5.34779 2.39784
O 6.80804 4.59547 6.26757
O 6.93001 1.23461 4.6467
O 9.09368 3.68923 2.43843
O 12.3423 5.00518 1.73701
O 7.13773 0.951298 0.0521491
O 8.09961 5.17811 0.807168
O 5.13667 1.15033 2.4605
O 8.98277 9.18759 0.867542
O 7.76793 5.25913 3.86262
O 11.3296 3.3825 3.393
O 6.23714 8.28571 4.72818
O 10.1008 5.83442 2.8765
Si 8.36977 5.16091 16.1979
Si 14.8784 17.8426 15.2141
Si 13.1251 4.86573 5.65651
Si 14.6989 1.57952 2.61036
Si 14.0899 2.16312 16.85
Si 13.1902 5.84438 0.457068
O 12.0978 5.76755 4.4866
O 13.3469 1.46463 3.56135
O 14.1945 2.46251 1.31709
O 13.1649 7.24613 1.10341
O 12.8064 2.94221 16.1724
O 15.4495 3.06544 16.4219
O 14.6138 5.51621 0.529597
O 13.0154 6.2067 16.1174
O 14.7728 4.94285 4.5875
O 0.273085 1.76435 3.6669
O -0.0186837 7.47249 5.00117
O 13.5248 3.50518 6.29881
Si 1.11544 14.9643 1.28131
Si 1.24676 9.94574 16.3756
Si 2.54489 16.0342 3.72527
Si 3.88091 12.6648 2.24807
Si 1.09412 11.9498 1.42811
Si 4.52237 15.5644 1.54593
O 13.2317 14.7952 9.44335
O 3.86648 10.2821 5.24976
O 2.6005 11.8323 2.10189
O 5.93921 15.0557 2.18145
O 1.72683 11.25 17.029
O 3.45303 16.1231 15.6787
O 1.231 13.4462 1.12924
O 5.22455 16.0898 0.270912
O 3.82924 16.1431 2.80402
O 4.93366 11.6913 1.44924
O 3.28604 2.19572 7.75619
O 4.53865 12.7028 3.67932
Si 9.33005 13.4494 13.0995
Si 7.81427 9.19614 16.6825
Si 6.57691 15.7181 3.64156
Si 7.75877 11.3629 4.06915
Si 6.45353 11.0992 1.45874
Si 8.76582 15.3418 1.69778
O 5.90399 14.7112 4.75899
O 7.70059 10.5169 5.49108
O 7.52297 12.1647 0.846024
O 8.30217 12.7789 4.56345
O 6.35595 9.95621 0.308874
O 9.29763 13.9482 1.21417
O 9.26172 11.8329 13.3475
O 8.09796 0.195697 2.35866
O 7.92269 15.1924 3.10932
O 8.56683 10.2349 3.17111
O 5.89294 17.2107 3.46282
O 6.6152 11.5152 3.04613
Si 9.00854 12.5839 0.391875
Si 12.5028 7.74388 15.438
Si 11.4194 17.059 2.24057
Si 12.2486 8.67269 0.994016
Si 9.68505 10.0969 1.94857
Si 14.3162 16.3319 2.43384
O 11.4413 12.0949 6.77131
O 0.581468 9.79712 6.84334
O 11.2267 9.49917 2.03526
O 1.45191 15.5591 2.81929
O 11.6771 8.21267 16.6384
O 14.8906 15.4929 0.994562
O 9.79279 11.4326 1.22613
O 14.5271 17.8783 2.20566
O 10.1372 15.9597 2.28514
O 15.1882 11.5409 1.30674
O 12.0161 17.5899 3.74675
O 12.7347 16.2415 2.18428
Si 13.6378 2.7086 7.64045
Si 2.88168 1.4525 9.14426
Si 1.03033 6.33132 8.56501
Si 5.67045 1.70709 10.1982
Si 14.279 17.7052 7.16884
Si 3.88261 5.63291 9.35945
O 15.4868 5.72791 9.32821
O 5.57014 0.492604 11.5986
O 1.85849 1.55439 10.2007
O 6.9794 7.86063 8.77981
O 1.20348 16.2702 9.34568
O 4.83072 5.33411 8.06373
O 14.3544 1.3992 7.15492
O 2.35168 5.59928 8.7403
O 3.52281 4.20589 10.4435
O 7.00254 1.48958 9.43359
O 1.58401 7.90699 8.68907
O 5.71324 3.00814 11.0823
Si 5.33332 4.85279 6.61412
Si 6.4122 0.98763 6.14072
Si 6.01376 8.28048 10.1233
Si 9.70094 4.8742 9.04099
Si 8.10984 2.04055 8.45055
Si 8.22344 7.40998 8.04089
O 5.41128 5.79007 10.5241
O 9.45674 16.7855 12.7953
O 8.45623 3.58265 8.5502
O 9.18396 8.37585 9.08894
O 7.27063 1.99421 7.06984
O 8.79787 6.12489 8.5569
O 9.25115 3.38338 4.92997
O 9.21065 5.67799 5.76347
O 7.91914 8.15357 6.68309
O 11.1077 5.56568 9.13028
O 6.33064 9.95221 9.71415
O 9.35364 4.6314 10.5467
Si 11.5541 5.06636 3.03133
Si 12.6948 0.650363 4.67372
Si 9.81598 9.65244 9.63798
Si 0.742556 2.12811 11.1643
Si 10.7728 1.23681 6.80885
Si 15.6572 5.9419 5.66129
O 10.9264 9.55914 10.6386
O 11.0812 16.3822 10.3
O 12.0594 1.82681 7.68529
O 0.705978 6.34298 6.9866
O 10.3989 17.8107 6.41581
O 13.4238 3.57001 8.93813
O 9.5538 1.66814 7.62692
O 14.2424 11.5241 9.22808
O 13.9521 5.97411 6.51158
O 13.4239 17.3129 8.48498
O 9.77722 10.6633 8.57943
O 14.8947 2.54088 10.6523
Si 14.081 13.4055 9.07757
Si 3.08209 9.01617 4.52233
Si 14.5712 13.1908 12.1431
Si 4.16548 14.2932 10.9977
Si 0.989937 9.28824 8.52913
Si 1.55172 16.8626 7.81239
O 6.0086 15.7163 15.361
O 2.20121 10.2748 9.18888
O 3.98855 11.2151 7.76365
O 2.29327 15.3011 7.4507
O 2.21316 8.38281 5.93902
O 3.24348 14.9363 4.71913
O 0.214067 14.144 8.42914
O 2.1654 0.259028 8.21554
O 0.304516 13.5535 12.9287
O 3.02538 14.5252 9.8216
O 0.222045 17.2811 7.19832
O 3.58214 10.6752 12.9995
Si 4.6728 13.7969 4.8145
Si 6.86619 9.11855 6.10363
Si 6.66677 15.1847 9.49171
Si 10.2375 11.9903 7.78024
Si 4.62893 11.229 6.25429
Si 7.39612 16.1812 6.85418
O 5.41212 14.4846 10.0331
O 8.77379 10.1681 10.8151
O 12.5885 13.9142 5.4725
O 11.7981 1.89349 5.47888
O 5.82034 9.94199 6.72528
O 7.79892 14.7298 6.10634
O 5.19975 12.8006 5.9834
O 7.11321 17.6513 6.40482
O 6.20881 15.3586 7.78003
O 10.0993 13.0078 8.9631
O 6.56561 16.6318 10.5022
O 8.94915 12.4764 6.9427
Si 9.02472 13.848 5.63751
Si 0.581437 8.97164 5.49502
Si 10.4863 16.2338 6.68504
Si 14.663 10.7291 10.5009
Si 12.8372 12.8184 6.22208
Si 12.3735 16.2428 9.15148
O 9.16695 16.0692 7.31223
O 13.3864 9.76235 10.7275
O 1.55714 9.48965 4.11248
O 15.0968 13.7374 10.7131
O 14.0339 13.1342 7.38765
O 1.57756 17.4071 4.51475
O 10.3515 14.5946 6.01564
O 13.3826 17.6731 5.9049
O 11.6246 15.8354 7.75537
O 0.0968949 9.84323 9.76652
O 11.5385 0.975715 15.8845
O 14.377 11.5892 12.1024
Si 13.8835 3.62707 10.4227
Si 6.31771 1.14465 15.7523
Si 1.82359 7.09969 15.5691
Si 3.7141 1.65313 1.90464
Si 3.76371 2.73461 16.0746
Si 3.86826 5.20541 14.3365
O 0.648738 5.97152 15.941
O 5.29758 0.0573772 15.3358
O 3.45223 1.9248 0.28048
O 4.80501 6.294 14.6376
O 1.81071 2.32787 12.4296
O 4.02581 4.71746 12.7257
O 15.3346 0.868228 14.09
O 4.42746 8.63986 9.48713
O 2.45373 6.10744 14.3248
O 6.48321 16.3684 12.7867
O 1.34857 8.37097 16.3507
O 4.46694 4.66324 1.01641
Si 5.0377 4.32662 11.4543
Si 5.53511 17.0346 11.6906
Si 6.23417 7.01432 15.2333
Si 11.6355 2.35707 15.0116
Si 8.61794 2.85677 14.472
Si 7.73856 7.67066 12.4601
O 6.84044 5.59556 15.7291
O 9.43027 0.787547 0.210293
O 7.40313 1.65535 14.6206
O 9.31312 8.0279 13.3039
O 10.0448 2.31636 14.337
O 8.16553 6.39442 11.7851
O 5.32364 2.25468 15.9521
O 6.50043 8.38948 11.5811
O 7.11573 7.13689 13.8474
O 12.5342 2.19912 13.7183
O 3.75843 3.03225 2.5654
O 8.36712 3.55748 15.7925
Si 8.72473 4.72295 12.02
Si 11.0506 16.9674 11.7724
Si 10.0695 6.54448 13.8619
Si 14.9917 17.8239 12.5838
Si 12.0834 1.66947 12.2491
Si 12.2842 6.11373 9.79489
O 9.21876 6.23002 15.2506
O 14.7427 0.832096 16.417
O 14.4023 16.8831 13.9373
O 3.3518 4.0672 15.4174
O 11.7669 15.8312 12.5836
O 12.8272 4.93639 10.8087
O 9.97691 5.17442 12.9218
O 12.0638 7.38282 10.8192
O 12.6305 2.5072 11.0143
O 13.6499 0.690276 12.2223
O 11.2619 7.37557 14.4682
O 0.303134 0.559286 11.6604
Si 0.974933 13.6561 14.2628
Si 3.78944 10.1506 9.03925
Si 1.71348 16.2247 15.8478
Si 4.64603 11.3253 11.9607
Si 1.90565 10.9952 13.5203
Si 3.04883 1.32319 13.211
O 1.41267 15.8778 0.150696
O 1.39734 10.3316 14.7645
O 6.17265 10.9484 11.8768
O 2.87874 -0.0289699 12.8369
O 1.34348 10.9721 12.0567
O 8.05205 4.00339 13.2244
O 2.18308 12.5687 13.7441
O 4.49481 15.8117 11.513
O 1.51089 14.8936 14.8533
O 9.52046 13.4691 11.4773
O 3.16368 1.66098 14.7312
O 4.14412 12.7686 11.9629
Si 1.54279 14.4959 9.14217
Si 7.37926 10.8071 10.8799
Si 6.8624 15.5112 14.0762
Si 9.3929 10.8467 14.6811
Si 8.87963 13.2978 10.121
Si 9.79595 15.9892 14.2533
O 4.01584 14.0799 1.47699
O 10.8628 13.7349 13.6385
O 7.91772 14.3005 13.3855
O 9.24629 12.0245 15.8795
O 7.57197 12.4485 10.4728
O 8.24971 14.6854 9.69373
O 4.10725 10.8895 10.5518
O 11.2294 0.394385 12.1804
O 8.36958 16.2949 14.7349
O 10.818 10.2464 14.9676
O 8.50806 16.5027 0.565822
O 8.32043 9.76896 15.3801
Si 12.3087 14.6271 13.4395
Si 12.2563 8.86885 11.2044
Si 10.7838 17.7406 16.4494
Si 14.2077 10.8845 0.156954
Si 12.1027 10.432 13.8823
Si 13.7823 12.6759 15.1911
O 10.7127 16.9656 15.1725
O 13.2993 9.97502 0.96641
O 12.855 9.10759 14.7627
O 0.847737 17.2536 15.2403
O 12.0893 9.39973 12.7311
O 15.176 13.3381 15.2751
O 12.6921 11.7043 14.676
O 13.2825 13.9156 12.3951
O 13.0103 14.3267 14.8598
O 15.2798 10.1072 16.4546
O 11.4629 17.4735 0.753963
O 13.4597 12.6268 16.6501
324
 Atoms. Timestep: 24000
Si 0.488328 4.58678 0.297361
Si 4.77494 16.5142 15.5712
Si 4.99821 6.95654 4.72001
Si 3.75368 2.05116 6.36816
Si 2.29619 0.788277 3.9869
Si 4.70598 4.73161 2.69255
O 4.67935 5.95309 5.97619
O 4.63388 1.61441 9.31807
O 3.31621 1.26452 5.10073
O 6.51236 8.29035 15.7393
O 2.93694 0.95351 2.60617
O 3.36889 5.76449 3.06436
O 1.78743 5.00228 0.971083
O 2.82534 6.69883 16.9686
O 5.4617 6.05085 3.39246
O 5.18156 1.36303 6.62953
O 3.9098 7.9951 4.15885
O 4.24074 3.60362 6.32828
Si 2.70978 6.27504 1.38849
Si 8.22537 0.00753212 0.671427
Si 7.9623 4.71392 4.96519
Si 9.67835 2.57469 3.46233
Si 6.48685 0.449086 3.16586
Si 8.66557 5.08241 2.13903
O 6.65424 4.48227 5.77627
O 6.12529 1.34118 4.39416
O 8.81726 3.30656 2.23297
O 12.2624 4.57282 1.55191
O 7.09088 0.447131 16.6666
O 8.67664 5.41177 0.281314
O 5.45437 1.20024 2.08165
O 8.48739 9.32726 0.740294
O 7.98002 5.47902 3.48321
O 11.0744 3.35787 3.63346
O 6.1899 7.89713 4.85952
O 10.15 5.27843 2.54503
Si 8.88213 5.60387 15.8088
Si 15.0607 -0.0458617 15.5234
Si 13.6167 4.40866 5.35005
Si 15.0789 1.43128 2.8065
Si 14.1132 2.29222 17.1295
Si 13.4309 5.73105 0.876211
O 12.7078 5.30135 4.2825
O 13.812 1.66745 3.83894
O 14.4676 2.17445 1.4405
O 12.9802 7.22726 1.63067
O 12.759 2.78855 16.1909
O 15.2411 3.35588 16.9337
O 15.0733 5.6383 0.991293
O 13.1368 5.80393 16.452
O 15.4487 4.51649 5.18615
O 0.77454 1.43868 3.94667
O 15.2074 7.76742 5.54429
O 13.7259 3.48589 6.7483
Si 0.826025 15.0624 1.1211
Si 0.671688 9.80002 16.0618
Si 2.36278 15.5772 3.62618
Si 3.58505 12.8726 1.81914
Si 0.749924 12.0611 0.649802
Si 4.52662 15.7935 1.44714
O 13.391 15.271 8.88535
O 3.07395 10.2584 4.762
O 2.13358 12.4423 1.32767
O 5.90497 15.2615 1.95609
O 1.3152 10.9251 17.0399
O 3.33132 16.1802 14.8923
O 0.153609 13.6654 0.440489
O 4.75887 16.4041 17.1285
O 3.63984 15.9905 2.84227
O 5.13992 11.9431 1.07188
O 2.61675 1.97742 7.74326
O 4.15752 12.628 3.30104
Si 9.27815 13.1804 13.3084
Si 7.41924 9.08795 16.8035
Si 6.58507 15.3518 3.44307
Si 8.15957 11.3335 3.73574
Si 6.69701 11.4914 1.09037
Si 9.1431 15.5072 1.67807
O 5.36927 14.7319 4.41671
O 7.63817 10.6464 5.07252
O 7.81195 12.2611 0.339956
O 8.57993 12.9343 4.3689
O 6.4242 10.1644 0.32836
O 9.55119 14.053 1.08867
O 9.02477 11.7153 13.872
O 7.84298 0.347765 2.24835
O 8.06335 15.1953 2.81057
O 9.23207 10.1662 3.39616
O 6.30883 16.9825 3.75369
O 6.94298 11.1866 2.58387
Si 9.38795 12.6073 0.361659
Si 12.8034 7.18808 15.6713
Si 11.7791 16.7325 2.25647
Si 12.0128 8.37565 1.10577
Si 9.69786 9.93975 1.72244
Si 14.6133 16.5882 2.86639
O 11.5019 13.0021 6.98272
O 0.540515 9.98205 6.99407
O 10.5079 8.40802 1.96715
O 1.52477 14.7079 2.60706
O 11.7048 7.69631 16.8322
O 15.2489 15.5698 1.90431
O 10.0229 11.6334 1.50507
O 14.676 18.0036 2.20568
O 10.318 16.0841 2.59397
O 14.9263 11.5213 1.17329
O 12.0736 17.981 3.4681
O 13.1231 16.0427 2.75079
Si 13.6591 2.58556 8.07809
Si 2.98749 1.51656 9.225
Si 1.33254 6.36081 8.49333
Si 5.97236 1.73127 10.1206
Si 14.2996 17.8998 7.13842
Si 4.1655 5.63942 9.52451
O 0.180715 6.18565 9.74068
O 5.95006 0.579775 11.1997
O 2.12056 1.74202 10.5048
O 6.27365 7.80097 8.7805
O 0.973467 16.0561 9.63936
O 4.91051 4.96478 8.23825
O 14.6817 1.44969 7.59031
O 2.77623 6.3379 8.81318
O 3.59517 4.21828 10.3185
O 7.26655 1.67612 9.23703
O 0.873639 7.95772 8.29348
O 5.86045 3.29577 11.0528
Si 5.45905 4.63964 6.63834
Si 6.57253 1.1633 6.0113
Si 5.90294 8.64825 10.2356
Si 9.30099 5.20192 9.28396
Si 8.36261 2.25525 8.23915
Si 7.77442 7.70667 8.26756
O 5.31778 5.53448 10.8514
O 9.679 16.2609 12.6848
O 8.36927 3.78389 8.58983
O 8.8235 8.57952 9.01161
O 7.55899 2.30601 6.83057
O 8.32234 6.2979 8.93059
O 8.50427 3.18144 4.56244
O 9.09847 5.08375 5.88258
O 7.52807 8.60083 6.84597
O 10.7563 5.65237 9.47056
O 6.81302 9.79787 10.1176
O 8.97212 4.54553 10.6102
Si 11.6467 4.74183 3.06494
Si 12.7835 0.742326 4.63231
Si 9.77216 9.79939 9.33685
Si 0.907127 2.29814 11.4926
Si 11.0201 1.65865 6.81209
Si -0.0256287 6.20451 5.72556
O 10.9083 9.2568 10.1309
O 11.7498 16.5419 10.2844
O 12.1868 1.85831 7.84486
O 0.53279 5.94868 7.17304
O 11.0276 -0.0663697 7.09977
O 14.1263 3.02167 9.4524
O 9.89511 1.97804 7.92846
O 13.8483 11.889 9.27904
O 13.8413 5.86519 6.19148
O 13.2893 17.6697 8.397
O 9.92737 10.9095 8.17109
O 15.509 3.55497 11.45
Si 14.1934 13.6588 8.99716
Si 2.61848 8.90416 4.28701
Si 14.5143 13.1434 12.1792
Si 3.9978 14.541 10.781
Si 0.70703 9.46829 8.42486
Si 1.33246 17.2204 8.4345
O 5.67739 15.286 14.9681
O 2.27357 9.80865 8.83735
O 3.72497 10.9981 7.44627
O 2.13001 15.5426 7.7488
O 1.92693 8.24749 5.63222
O 3.04232 14.369 4.57808
O 0.11767 13.7513 8.81526
O 2.77 17.9101 9.23793
O 0.350268 13.612 12.9276
O 2.63064 14.0748 10.3006
O 0.0265714 17.2475 7.60441
O 4.02648 11.0412 13.3125
Si 4.33515 13.5252 4.5734
Si 6.85906 9.35067 5.51704
Si 6.52007 15.1122 9.17187
Si 10.0203 12.3578 7.6884
Si 4.10332 10.9441 5.89858
Si 7.42893 16.299 6.75143
O 5.30619 14.3693 9.8128
O 9.00882 10.5488 10.6315
O 13.2295 13.0562 5.17149
O 11.8287 1.82068 5.48747
O 5.46668 10.1332 6.01516
O 7.59531 14.7812 5.98938
O 4.41891 12.5547 5.78237
O 6.97342 17.6654 6.15498
O 5.99884 15.8683 7.66762
O 9.60981 13.0443 9.02618
O 6.36339 16.6127 10.0642
O 9.05388 13.0732 6.69508
Si 8.83429 14.0358 5.45787
Si 0.113252 9.23636 5.51427
Si 10.3692 16.5968 6.43588
Si 14.4447 10.753 10.3294
Si 12.9201 12.6164 6.41991
Si 12.2341 16.4328 8.73342
O 8.91507 16.5151 7.25267
O 13.2471 9.92478 10.7769
O 0.985884 9.12869 3.84389
O 14.6668 14.0647 10.9496
O 14.0891 13.4183 7.28685
O 2.30416 17.3587 4.50974
O 10.0837 15.1156 5.56508
O 13.703 17.9836 5.52851
O 11.0191 15.7885 7.93437
O 0.0365976 9.65792 9.90154
O 11.9221 0.475109 15.7245
O 14.6999 11.5383 11.7504
Si 13.9281 3.78449 10.8587
Si 6.24765 1.04287 15.3533
Si 1.72245 6.74602 15.7291
Si 4.14169 1.86434 1.79642
Si 3.58794 2.77361 16.18
Si 3.65559 5.12864 14.1853
O 0.725539 5.47231 16.0282
O 5.16176 17.9353 14.8467
O 3.34958 2.17191 0.433233
O 5.02328 5.94972 14.2791
O 1.56668 2.44927 12.9146
O 3.50881 4.46145 12.7543
O 0.0432468 0.930255 14.2164
O 4.78282 9.42323 9.25378
O 2.58236 6.33926 14.4803
O 6.61985 16.4631 12.5099
O 1.11193 8.1659 16.0813
O 4.35673 5.40724 1.0466
Si 4.52797 3.89027 11.6371
Si 5.54108 17.1457 11.417
Si 5.9711 6.91115 15.1462
Si 11.6122 2.02758 15.374
Si 8.64223 2.73063 14.668
Si 7.58273 6.99437 12.4251
O 7.41984 6.04261 15.3666
O 9.56381 0.144854 17.0253
O 6.95786 1.91989 14.2576
O 8.9306 7.60444 13.035
O 10.055 1.95861 14.9352
O 7.89667 5.43092 12.5127
O 5.00216 1.89381 15.8248
O 6.48674 7.62731 11.1945
O 6.45853 7.38803 13.4843
O 12.2468 2.29324 13.889
O 4.34443 3.33669 2.27909
O 9.07169 4.24775 15.1231
Si 9.05398 4.4595 12.1825
Si 11.1119 16.8975 11.8106
Si 10.4687 6.92871 13.8569
Si 15.2171 -0.030134 12.8982
Si 12.3991 1.45581 12.4333
Si 12.251 6.05547 9.74499
O 9.67339 6.66725 15.0876
O 14.3301 1.10005 16.2292
O 14.6598 16.9543 14.3257
O 3.95241 4.26814 15.482
O 11.95 15.8229 12.4855
O 12.9496 4.86583 10.4285
O 10.1969 5.50448 12.8594
O 12.4657 7.1561 10.8869
O 13.0612 2.6267 11.6271
O 13.6391 0.50707 12.7612
O 11.8783 6.40773 14.4846
O 0.0975867 0.874725 11.6838
Si 0.800291 13.5426 14.4957
Si 3.61226 10.6496 8.90094
Si 1.79292 16.1333 15.5227
Si 4.33965 11.6824 11.7867
Si 2.53485 11.2277 14.0134
Si 2.87266 1.73528 13.6222
O 1.6877 15.4471 17.0988
O 1.33543 10.3845 14.7991
O 5.89651 11.5454 11.6456
O 2.9036 0.33492 13.5625
O 1.52925 11.1677 12.4958
O 8.82517 3.11936 13.1484
O 2.2132 12.7174 14.654
O 4.51194 15.8766 11.4504
O 0.910063 15.0991 14.8093
O 9.47114 13.0154 11.7139
O 2.49374 1.99573 15.3842
O 4.30998 13.3375 11.8701
Si 1.62079 14.526 8.99332
Si 7.4837 10.9183 11.0118
Si 6.84177 15.3798 13.8371
Si 9.32518 10.7978 15.0974
Si 8.8312 13.5117 10.3252
Si 9.58783 15.9517 14.2551
O 3.9767 14.1941 1.25569
O 10.8318 13.8987 13.5418
O 7.93669 14.2625 13.1754
O 9.88964 11.9133 16.2611
O 7.72738 12.2442 9.99194
O 7.84625 14.6848 9.68575
O 3.8387 11.3242 10.4145
O 11.419 0.240248 12.0724
O 8.06873 16.3164 14.7014
O 10.7471 10.3992 14.6426
O 8.22226 16.4105 0.802013
O 7.96568 10.248 15.7258
Si 12.3853 14.7132 13.5604
Si 12.0461 8.93281 11.1654
Si 10.9395 17.4462 16.5666
Si 13.8494 10.6127 0.233346
Si 12.2016 9.81326 13.9949
Si 13.5475 12.2771 15.1274
O 10.5101 16.4721 15.4351
O 13.0654 9.61294 1.2295
O 12.8224 8.65046 15.0426
O 0.741184 17.2637 15.9111
O 11.4012 9.56421 12.5906
O 14.9548 12.9888 15.1894
O 13.0933 11.0693 14.2212
O 13.1677 13.6661 12.5592
O 12.8242 13.8935 14.9178
O 14.9234 9.66563 16.4695
O 11.7075 17.3718 0.875166
O 13.2316 11.8278 16.792
324
 Atoms. Timestep: 24500
Si 0.459501 4.58689 0.00236233
Si 4.55878 16.6157 15.0233
Si 4.8156 7.26956 4.90481
Si 3.73703 2.04485 6.26298
Si 1.9978 0.892466 4.02954
Si 4.39573 4.76878 3.24143
O 4.89451 6.20606 6.13568
O 4.80117 1.23432 9.64502
O 2.41429 1.41539 5.54035
O 6.39449 8.83608 16.1995
O 3.17601 1.37175 3.05016
O 2.5864 5.0788 3.28714
O 1.77061 4.8163 0.926957
O 2.51947 6.89945 0.340185
O 4.83498 6.27257 3.58027
O 5.11973 1.48607 5.78053
O 3.34913 7.77899 4.68628
O 3.54405 3.90333 6.30183
Si 2.41806 6.06783 1.74188
Si 8.20966 17.8959 0.681145
Si 7.60031 4.92028 4.46368
Si 9.2808 2.93044 3.08772
Si 6.77072 0.413442 3.21715
Si 8.98912 5.62046 1.92727
O 6.65897 4.41734 5.78386
O 7.38532 1.07295 4.54345
O 9.00349 3.93796 1.84319
O 12.4815 4.05823 1.90846
O 6.98874 0.411645 17.0569
O 8.7525 5.65193 0.329799
O 5.60525 1.36522 2.25699
O 8.82438 9.09866 0.806709
O 7.78652 5.55128 2.92563
O 10.8497 3.15052 3.27988
O 5.83778 8.58781 4.83228
O 10.556 5.559 2.60502
Si 8.21209 5.51411 15.9579
Si 15.1728 17.9588 15.5125
Si 13.2475 4.43065 5.96938
Si 15.0093 0.746253 2.73954
Si 14.3061 2.11728 0.00197951
Si 13.3939 5.36244 0.807751
O 12.8669 4.56064 4.33292
O 13.838 1.38639 3.80992
O 14.3799 1.50446 1.46372
O 13.0104 6.72451 1.74051
O 13.0862 2.35991 16.2804
O 15.5381 3.13205 16.905
O 14.8546 5.24129 1.01083
O 13.4571 5.87657 16.4193
O 15.1057 4.19368 5.82824
O 0.584847 1.40071 3.32779
O 0.122285 7.64122 5.60818
O 13.5859 3.80373 7.42028
Si 0.557213 14.5943 1.18953
Si 0.499998 9.89352 15.5347
Si 2.61472 16.06 3.06285
Si 3.58681 13.079 1.33379
Si 1.26896 11.3577 1.08492
Si 4.56134 15.9233 0.816992
O 12.85 14.5947 9.02992
O 3.73043 10.2489 5.01352
O 2.83251 11.6656 1.37592
O 5.42566 15.2589 1.87024
O 1.29123 11.0761 16.5477
O 3.01489 16.0355 15.161
O 0.839875 12.9592 0.937084
O 4.93857 16.4828 16.505
O 3.23335 16.6026 1.74638
O 4.94205 12.6473 0.721011
O 3.54538 1.86809 7.75216
O 4.12073 13.1354 2.79703
Si 9.04688 13.1293 13.0018
Si 7.76053 9.3917 16.9657
Si 6.5346 15.2992 2.97603
Si 8.10033 11.5418 3.7143
Si 6.55307 12.0498 1.17351
Si 9.29573 15.341 1.85048
O 5.84005 14.2999 4.08923
O 7.37403 10.6082 4.80905
O 7.86889 12.8021 0.809772
O 8.60523 12.8223 4.36017
O 7.04195 10.6373 0.505709
O 9.87167 13.8641 1.24787
O 8.99529 11.6504 13.5632
O 8.18311 0.576887 2.19377
O 8.07524 14.8232 2.82275
O 8.97455 10.4426 3.19395
O 6.86999 16.8584 3.25493
O 6.94157 11.843 2.72846
Si 9.31214 12.5034 0.389755
Si 12.7624 7.16481 15.6815
Si 11.6892 17.141 2.27553
Si 12.3604 8.13853 1.33527
Si 9.86267 9.87869 1.80982
Si 14.3038 15.8957 3.09329
O 11.8063 11.7898 7.15394
O 0.258464 9.42147 7.54547
O 11.2469 9.22737 1.80253
O 1.41652 15.0816 2.36625
O 12.0801 7.60377 16.9599
O 14.8717 15.3248 1.53441
O 9.84814 11.1767 0.915638
O 15.0915 17.1943 2.92641
O 10.4825 16.1867 2.79561
O 15.5272 10.6323 1.40461
O 11.8168 -0.0957668 3.61563
O 12.9183 16.2419 2.784
Si 13.6427 2.27426 8.12857
Si 3.24239 1.3629 9.18826
Si 1.04674 6.41366 8.53318
Si 6.0451 2.22755 9.93649
Si 14.2408 17.5759 7.16034
Si 4.11397 5.41571 9.06546
O 0.64147 5.46749 9.56095
O 6.76344 0.698617 11.2908
O 2.01201 2.03181 9.88021
O 6.6619 7.85475 8.78919
O 0.777139 16.131 9.60858
O 5.10237 4.62496 8.01238
O 14.3386 0.868116 8.0147
O 2.644 6.04694 8.35238
O 3.28703 4.37981 10.2124
O 7.4461 1.85936 9.34797
O 0.46522 7.80684 9.34512
O 5.20956 2.90344 10.9634
Si 5.147 4.58168 6.36954
Si 6.49216 1.07478 6.04758
Si 6.05174 8.53247 10.1999
Si 9.1704 5.04144 9.23341
Si 8.47892 2.29738 8.09432
Si 8.11892 7.78183 8.04561
O 5.38517 5.49944 10.4444
O 10.0155 17.0343 13.0839
O 8.40524 3.90374 8.31253
O 8.93581 8.97451 8.65343
O 7.1891 2.22794 6.9639
O 8.68813 6.31664 8.63247
O 8.61653 3.65238 4.37816
O 8.75488 5.65275 5.3146
O 7.42774 8.53142 6.75336
O 10.9501 5.06313 9.18132
O 6.63193 10.0511 10.2553
O 9.09641 4.44487 10.6668
Si 11.7053 4.52818 3.17079
Si 12.7335 0.684779 4.75023
Si 9.67826 10.005 9.60841
Si 1.2407 2.32249 11.2706
Si 11.0409 1.04069 7.1724
Si 15.4007 6.00728 5.77739
O 10.9181 9.3001 10.3057
O 11.7094 16.2262 10.5593
O 11.9472 1.81502 8.01933
O 15.5699 6.15054 7.49251
O 10.3938 17.8158 6.53156
O 13.6958 2.69278 9.6032
O 9.75477 2.00008 7.26547
O 14.0324 12.0499 8.94692
O 13.6061 6.13953 5.92101
O 13.2164 16.7512 8.02602
O 9.93958 11.1925 8.62121
O 15.4959 3.25444 11.2964
Si 14.1924 13.6256 8.67789
Si 2.69232 9.24692 4.39883
Si 14.1069 13.5586 11.6731
Si 4.02868 15.0849 10.925
Si 0.849863 9.40288 8.99051
Si 1.43902 17.3275 8.24026
O 5.40485 15.5565 14.1428
O 2.25123 9.77907 9.58223
O 4.0304 11.2596 8.05124
O 2.39836 15.8349 7.96633
O 2.03084 9.15054 6.10492
O 3.6749 15.2838 3.93235
O 0.0687771 14.2033 8.35002
O 2.90101 17.9004 9.21059
O 15.0435 13.4299 13.0406
O 2.74878 14.6918 10.1248
O 0.140436 17.0117 7.39253
O 3.63004 11.288 12.7254
Si 4.26661 13.7649 4.26146
Si 6.73027 9.54185 5.73055
Si 6.22651 15.6761 8.94212
Si 10.4917 12.486 8.01086
Si 4.35278 11.3222 6.30869
Si 7.15209 15.9714 6.11406
O 5.04217 14.995 9.61042
O 8.72271 10.4276 11.0823
O 12.7168 12.7613 5.03492
O 11.716 1.52151 5.55903
O 5.7276 10.5338 6.62568
O 7.66473 14.4146 6.01608
O 4.52493 12.6809 5.44856
O 6.42887 17.4706 5.89081
O 5.66954 15.4141 7.28436
O 9.90577 13.5657 9.06951
O 6.43693 17.021 9.81312
O 9.57489 12.6161 6.75662
Si 9.0857 13.8241 5.51787
Si 0.341187 9.13864 5.84515
Si 10.0249 16.2418 6.92106
Si 14.1363 11.0079 10.2068
Si 13.0227 12.2475 6.26533
Si 12.124 15.9762 9.15233
O 8.41128 16.5368 7.11355
O 13.2999 9.71802 10.0424
O 0.734405 9.33085 4.09219
O 15.236 14.1326 10.7098
O 13.9075 13.3343 7.05254
O 1.96005 17.4069 3.64604
O 9.96795 14.9927 5.84282
O 13.5274 0.0791147 5.94592
O 10.7402 15.9857 8.2442
O 15.6121 10.5081 9.7178
O 11.675 0.600038 15.7645
O 14.2097 11.9517 11.3774
Si 13.9597 3.72134 10.738
Si 6.34242 0.950934 15.702
Si 1.74349 7.05188 16.0583
Si 4.07721 2.00503 2.05179
Si 4.20334 2.82136 16.2204
Si 3.89828 5.32698 14.443
O 0.684527 5.94579 16.3147
O 5.23547 0.0466284 14.9119
O 3.82687 2.12954 0.432297
O 4.98289 6.65049 14.6478
O 2.62991 2.34066 12.3067
O 4.22295 5.11146 12.8908
O 0.041193 1.09123 14.3091
O 4.60692 8.83684 9.60334
O 2.58643 6.121 14.9447
O 7.02772 16.1426 12.1469
O 1.16892 8.50396 16.0486
O 4.25723 5.43421 1.55942
Si 4.66153 4.36367 11.5238
Si 6.08901 17.2285 11.364
Si 6.01628 7.48926 15.5665
Si 11.6201 2.23536 15.622
Si 8.71685 2.81323 14.7622
Si 7.80855 7.33954 12.5445
O 6.85641 6.49294 16.2027
O 9.57158 0.195321 -0.0379725
O 7.66593 1.54548 14.952
O 9.19184 7.50051 12.997
O 10.2124 2.80098 15.4715
O 7.73088 5.75055 12.285
O 5.78767 2.38751 16.206
O 6.68982 7.9007 11.7431
O 7.17154 7.49103 14.1518
O 12.0991 2.32574 13.9961
O 4.52559 3.22288 2.97033
O 7.91371 3.89564 15.8572
Si 8.70761 4.51116 12.3418
Si 11.2487 16.9719 12.0676
Si 10.2283 6.58111 13.9125
Si 15.2763 0.225446 12.7376
Si 12.6106 1.68754 12.4968
Si 12.1815 5.71255 9.57403
O 9.29276 6.37153 15.0727
O 15.2538 0.919147 16.8214
O 15.0266 16.9311 13.7837
O 4.19939 4.30714 15.4774
O 12.0833 15.8853 13.0544
O 12.8132 4.87882 10.9916
O 10.0875 5.193 12.9703
O 11.8617 7.20597 10.4315
O 13.2917 2.89473 11.8913
O 13.8211 0.69373 12.7381
O 11.6234 6.19108 14.7081
O 0.848904 0.861072 11.7346
Si 0.323324 13.3829 14.2888
Si 3.71534 10.3342 9.3675
Si 1.61423 15.9323 15.8192
Si 4.50093 12.0503 11.8196
Si 1.98731 11.1544 13.2739
Si 3.33707 1.40167 13.3163
O 1.3579 15.5489 0.177158
O 1.69277 9.75477 14.1979
O 6.0955 11.6551 12.311
O 2.64985 0.188355 13.3638
O 0.629854 10.8993 12.6905
O 8.03039 3.56371 13.4198
O 1.70817 12.6892 13.5647
O 4.68193 16.4922 11.4731
O 0.799904 14.7635 15.0625
O 9.02789 13.5834 11.5023
O 3.33258 2.19265 14.7967
O 4.44686 13.6578 11.6314
Si 1.5883 14.7314 9.1604
Si 7.20872 11.1763 11.1153
Si 6.91925 15.1928 13.4509
Si 9.63493 11.0418 15.0295
Si 8.70649 13.604 10.0581
Si 9.68192 15.8437 14.1739
O 3.65268 14.3949 0.448963
O 10.5413 13.7409 13.6919
O 7.63402 13.6699 13.4822
O 9.39332 12.2198 15.962
O 7.66051 12.3329 10.0464
O 7.56372 14.7899 9.74137
O 4.10976 11.1484 10.581
O 11.4155 0.51524 11.9645
O 8.18162 16.0518 14.2857
O 10.4939 9.85445 14.2915
O 8.26969 16.2944 1.04194
O 8.57561 10.0582 15.8092
Si 12.1735 14.3004 13.7124
Si 12.2878 8.79358 10.8274
Si 10.9952 17.4179 16.5775
Si 14.2007 10.4394 0.498586
Si 12.0287 9.64397 13.8022
Si 13.3128 12.0111 15.2662
O 10.3648 16.5746 15.5488
O 13.5235 9.08677 1.04118
O 12.4666 8.4849 14.9098
O 0.975491 17.4144 15.3983
O 12.2353 8.86648 12.4797
O 14.9951 12.6381 15.2308
O 13.3162 10.7681 14.1292
O 12.5228 13.3693 12.4476
O 12.646 13.3804 15.1295
O 14.8075 9.87108 16.406
O 12.0515 17.2266 0.668582
O 13.537 11.8786 16.905
324
 Atoms. Timestep: 25000
Si 0.173738 4.38192 -0.000441389
Si 4.55841 16.6317 15.2125
Si 4.82585 7.44755 4.81405
Si 3.67628 2.3302 5.89642
Si 2.19435 1.13533 3.53392
Si 4.48032 4.88945 3.1529
O 4.47865 6.21801 5.88084
O 4.79336 1.93177 9.23881
O 2.9657 2.04188 4.60599
O 7.04437 8.09901 16.4701
O 2.69244 1.6593 2.16746
O 2.57864 5.21749 3.28951
O 1.40934 4.42636 0.952214
O 2.29999 6.68688 0.24254
O 4.7524 6.34556 3.4957
O 4.86946 1.26943 6.18503
O 3.42413 8.18242 4.6108
O 4.37296 3.7475 5.80147
Si 2.46149 5.81506 1.52514
Si 8.17539 17.6943 0.514567
Si 8.06001 5.1693 5.13327
Si 9.27842 2.87317 3.51534
Si 6.42297 0.429512 2.87873
Si 9.21299 5.57347 2.42772
O 6.6531 4.66891 5.59558
O 6.42537 0.902161 4.33212
O 9.39048 3.92198 2.37465
O 12.3597 4.28656 2.10245
O 6.87705 0.232624 16.6504
O 8.84991 5.48723 0.866328
O 5.18117 0.865729 2.17625
O 9.2808 9.52877 0.548705
O 7.9834 5.50978 3.57017
O 10.8495 3.20588 3.95038
O 5.73028 8.19609 5.84504
O 10.6525 5.74993 3.45329
Si 8.1015 5.2162 16.6637
Si 15.1018 17.5076 14.9483
Si 13.1978 4.66364 6.15797
Si 14.9082 0.590405 2.71163
Si 14.5223 1.82382 17.0934
Si 12.8885 5.34904 0.87657
O 12.583 4.99123 4.8229
O 13.6756 0.939591 3.69041
O 14.5847 1.21476 1.36003
O 12.6801 6.50636 1.7357
O 13.0144 2.44076 16.723
O 15.3952 2.91574 16.5448
O 14.609 5.13242 1.00572
O 12.7765 5.81772 16.5367
O 14.935 4.82795 5.39534
O 0.493635 1.33509 3.31595
O 0.134912 7.87391 6.22952
O 13.6052 3.32298 7.00569
Si 0.591239 14.5168 1.10123
Si 1.57751 9.70601 15.774
Si 2.79124 16.0383 3.06889
Si 4.34583 12.5294 1.71684
Si 1.46916 11.6423 0.938778
Si 4.56624 15.2626 0.862359
O 12.7564 14.596 9.00016
O 3.17109 11.4799 5.75427
O 2.87668 11.7 1.66289
O 6.21217 15.0113 1.27868
O 1.54701 11.0205 16.6101
O 3.12905 16.0779 14.7921
O 0.991931 13.0538 1.05766
O 4.62189 16.243 16.7094
O 3.95604 16.1226 2.05301
O 5.95135 12.3706 1.11944
O 3.11958 2.40153 7.30597
O 4.22107 12.9214 3.22243
Si 9.05383 13.2806 12.8832
Si 8.12322 9.36263 16.5689
Si 6.78204 15.4526 2.85282
Si 8.33904 10.9303 4.01703
Si 7.42602 11.7341 1.09222
Si 9.45205 15.1286 1.79247
O 6.04743 14.1937 3.73529
O 7.69662 10.0627 5.18121
O 8.58584 12.5057 0.364455
O 9.03726 12.2125 4.61177
O 7.09536 10.4394 17.0829
O 10.2727 14.2502 0.75096
O 9.26602 11.801 13.3343
O 7.71261 0.435114 1.78377
O 8.27395 15.1229 2.95274
O 9.50702 10.0886 3.33233
O 6.25257 16.9137 2.89146
O 7.57662 11.4145 2.67356
Si 10.3056 12.7608 0.049393
Si 12.537 7.35175 15.8742
Si 11.5506 17.2156 2.56805
Si 12.5183 8.25872 1.49384
Si 10.1457 10.2886 1.79632
Si 14.0432 15.5633 2.93174
O 11.553 11.8248 6.73284
O 0.0905358 9.26492 7.95797
O 11.4207 9.2782 1.85127
O 1.65314 15.4716 2.04353
O 11.6904 8.00744 17.0547
O 14.7699 14.5691 1.82034
O 10.7159 11.6396 1.27442
O 14.8489 17.0271 2.91295
O 10.2738 16.2465 2.44924
O 0.0553651 10.5553 1.33794
O 11.807 17.2449 4.16847
O 12.7609 16.0386 2.23974
Si 13.012 2.17286 7.82835
Si 3.20518 1.7405 8.86401
Si 1.07766 5.84101 9.07491
Si 5.95448 2.1541 10.3348
Si 14.0101 17.3615 7.33897
Si 4.0754 5.43079 9.20449
O 0.750104 5.21229 10.5327
O 5.87842 0.770098 10.9662
O 1.87286 2.02935 9.52712
O 6.7443 7.95111 9.09118
O 0.497257 17.0262 9.30515
O 5.10672 4.68368 8.07045
O 13.8093 0.917506 7.69353
O 2.65482 6.23893 9.15009
O 3.84189 4.32802 10.4317
O 7.12856 1.90626 9.40368
O 0.521111 7.309 9.44201
O 6.31048 3.73329 10.7744
Si 5.16667 4.87879 6.45046
Si 6.25313 0.808897 5.99478
Si 5.85836 8.6151 10.1532
Si 9.22978 5.09648 9.30467
Si 7.84001 2.57822 8.12974
Si 8.12113 7.74176 8.15599
O 5.10588 6.20848 10.594
O 9.85604 17.1291 12.986
O 8.79621 3.75903 8.54247
O 8.93228 8.72747 9.09087
O 7.19445 1.6343 6.95408
O 8.96022 6.5112 8.74903
O 8.67444 3.79704 4.76619
O 8.0849 6.6832 5.63126
O 7.50794 9.26846 7.32021
O 11.103 5.23952 9.34824
O 6.55178 10.1181 10.0378
O 9.15409 5.15266 10.8705
Si 11.7428 4.48909 3.56887
Si 12.716 0.47114 5.05265
Si 9.48974 9.69014 10.1044
Si 1.06916 2.33239 10.8463
Si 10.3075 1.1514 7.0212
Si 15.3811 6.2726 6.32945
O 10.7987 9.13816 10.7563
O 11.7658 16.3193 11.0294
O 11.3972 2.0371 7.88787
O 0.12475 5.55895 7.83581
O 10.3932 17.5921 7.51325
O 13.3104 2.61834 9.32989
O 9.10868 1.36906 8.12697
O 13.9163 11.8743 8.94424
O 13.6761 6.17847 6.8271
O 13.1153 16.8858 8.55574
O 10.211 10.7874 8.96458
O 15.1556 2.86169 10.9168
Si 14.0361 13.5859 8.6038
Si 2.97512 9.70061 5.35872
Si 13.7865 13.2315 11.6723
Si 3.48823 15.031 10.8238
Si 0.479341 8.89192 9.52871
Si 1.23545 17.5997 7.86051
O 5.61213 15.5927 14.5667
O 2.00996 9.65275 9.4156
O 3.72543 11.0131 7.79932
O 1.96527 15.9115 7.65311
O 2.30054 8.93189 6.72223
O 3.45208 15.0879 4.3139
O 15.5545 14.4891 8.1104
O 2.5887 0.23927 8.31445
O 14.7649 13.8162 12.9282
O 2.18987 15.2924 10.0221
O 15.5478 17.1994 6.58501
O 3.62459 11.1724 12.4486
Si 4.52182 13.8059 4.4195
Si 6.57233 9.53687 6.09989
Si 6.28226 15.0792 9.22992
Si 10.4713 12.0321 7.95391
Si 4.44216 11.8371 6.72158
Si 7.40333 15.7265 6.52036
O 4.51762 14.7414 9.5534
O 8.61844 10.5861 10.9573
O 12.1841 13.5036 5.02147
O 11.1762 0.965994 5.72426
O 5.42376 10.7382 5.94266
O 7.97386 14.3581 6.03776
O 4.71579 13.1295 5.93208
O 6.94028 17.2913 6.23012
O 6.26984 15.4875 7.73141
O 10.1846 13.1588 9.15527
O 5.99269 16.5103 10.0157
O 9.18447 12.4457 7.07695
Si 9.26606 13.5091 5.76149
Si 0.430417 9.36985 6.43197
Si 10.2708 16.1446 7.11227
Si 13.8707 10.7807 10.0211
Si 12.6883 12.5768 5.89932
Si 12.1845 16.0488 9.38306
O 8.71627 16.0277 7.44097
O 13.1777 9.39368 10.2867
O 1.08173 9.76019 4.93765
O 14.6832 13.9431 10.4878
O 13.7782 13.2079 7.0192
O 2.53122 17.5057 3.35976
O 10.2243 14.5886 6.22865
O 13.2032 17.3472 6.03646
O 10.7639 15.5805 8.61382
O 15.3617 10.1624 10.1607
O 11.7935 0.726145 15.8495
O 13.9232 11.6475 11.566
Si 14.0497 3.74424 10.5067
Si 6.76176 1.10844 15.2751
Si 1.53461 6.71109 15.9721
Si 4.11456 2.13586 1.71465
Si 4.25307 3.13256 15.9171
Si 3.90511 5.52638 14.1972
O 0.408345 5.57402 16.0861
O 5.4022 17.9906 14.6791
O 3.79824 2.6066 0.216046
O 4.78457 6.58319 14.9074
O 2.04864 2.85287 12.1139
O 4.31777 5.15368 12.6778
O 0.0817029 0.884284 13.8065
O 4.60383 9.00797 9.20005
O 2.47944 5.88839 14.9073
O 6.19413 16.5645 12.371
O 1.69222 8.22975 15.1943
O 4.10418 5.25821 1.37931
Si 5.2909 4.79577 11.5101
Si 5.32409 17.1483 11.3088
Si 6.00922 7.08369 15.6754
Si 11.9504 2.24209 15.1895
Si 9.03069 2.96234 14.8842
Si 7.71307 7.76231 12.7581
O 6.67685 5.5312 15.9092
O 9.5464 0.418755 0.192869
O 8.0896 1.77963 15.3448
O 8.95367 7.83227 13.7028
O 10.4474 2.44696 15.2464
O 7.72967 6.06468 12.6501
O 5.60614 2.22986 15.7561
O 6.63921 8.17654 11.6693
O 6.77953 7.53755 14.3141
O 13.1421 1.95257 14.1873
O 4.15241 3.48426 2.79388
O 8.90057 4.01873 16.0472
Si 8.64922 4.84367 12.3621
Si 11.3069 17.1719 12.1237
Si 9.91522 6.78782 14.2393
Si 15.3711 0.08469 12.3069
Si 12.7171 1.67025 12.4624
Si 12.3933 6.00355 9.32192
O 8.85252 6.37937 15.5065
O 14.9264 0.642477 15.8384
O 14.8014 16.8566 13.4035
O 4.16491 4.14982 14.8158
O 12.0052 16.0627 13.5354
O 13.323 4.98369 10.0531
O 10.1956 5.53007 12.9532
O 12.1325 7.06715 10.4091
O 13.0351 3.20207 11.6695
O 14.0672 0.895847 12.1357
O 11.2927 7.17679 14.7761
O 0.772974 0.826459 11.3578
Si 0.20001 13.1019 13.8871
Si 3.50584 10.1529 9.07395
Si 1.62197 15.4898 15.4668
Si 4.32869 12.0831 11.4411
Si 1.81178 11.09 12.6524
Si 3.24267 1.92779 13.06
O 0.688894 14.955 16.6562
O 1.74689 10.4999 14.1292
O 5.82469 11.8011 11.603
O 3.15863 0.615827 12.6999
O 0.439612 10.4345 12.1998
O 8.53895 3.82019 13.6212
O 1.12727 12.8212 12.5233
O 3.76155 16.638 11.6283
O 1.11585 14.567 14.2189
O 9.26016 13.8885 11.3131
O 3.4952 2.06325 14.8959
O 3.48207 13.4866 11.537
Si 1.10382 15.1383 8.96912
Si 7.29468 11.414 11.0459
Si 6.85629 15.6288 13.508
Si 9.66834 10.86 14.6218
Si 8.86477 13.7304 9.73291
Si 9.5805 16.1014 14.2546
O 3.90149 13.7764 0.961836
O 10.4333 13.7892 13.6177
O 7.91524 14.1759 13.5237
O 10.2825 12.0459 15.7357
O 7.56778 12.5806 9.95097
O 7.76886 14.8996 9.64906
O 4.03395 11.3274 10.0872
O 11.846 0.437881 12.5757
O 7.92026 16.4246 14.4095
O 10.861 9.97194 14.2439
O 8.69948 16.1311 0.753788
O 8.40515 10.0537 15.1943
Si 11.9585 14.4265 13.7103
Si 12.1802 8.53755 11.1552
Si 10.9142 17.7523 16.7455
Si 14.654 10.043 0.201915
Si 12.5014 9.74124 13.9833
Si 13.5176 12.124 15.3182
O 10.149 17.3007 15.3741
O 13.6912 9.03877 1.10216
O 13.1108 8.79466 15.1256
O 0.850727 16.777 15.1132
O 12.3717 8.80308 12.6591
O 15.0681 12.8878 15.1383
O 13.4411 11.1228 14.0844
O 12.4742 13.8709 12.2716
O 12.6635 13.2518 14.5973
O 15.5677 9.48009 16.1766
O 11.7476 17.6722 1.07465
O 13.785 11.1345 16.4051
324
 Atoms. Timestep: 25500
Si 0.101021 4.42736 16.9793
Si 4.72328 16.3494 15.2428
Si 4.76625 7.23018 4.67559
Si 3.73528 2.35768 5.6227
Si 2.18686 0.762492 3.45534
Si 4.48916 5.18075 2.48473
O 4.47604 6.23615 5.90547
O 4.11911 1.85086 9.18933
O 2.70809 1.48886 4.6997
O 7.23338 8.29318 16.7362
O 3.00152 1.35173 2.17901
O 2.62459 5.90689 2.75917
O 1.07243 4.88676 1.25709
O 2.16201 6.65426 16.6892
O 5.27339 6.35185 3.25785
O 4.97313 1.20566 5.65363
O 3.38853 8.01549 4.42504
O 4.46929 3.84018 5.55422
Si 2.23619 6.14087 1.15124
Si 8.29095 0.678901 0.457859
Si 8.17918 5.43924 5.46185
Si 9.65701 3.0971 4.33779
Si 6.32634 0.553336 2.7771
Si 8.60818 5.2483 2.56795
O 6.59404 5.01082 6.25648
O 6.57968 1.22938 4.07408
O 8.83602 3.74723 3.03371
O 12.751 4.77497 2.40006
O 7.07088 0.841183 16.5441
O 8.35772 4.96221 1.03934
O 5.28936 1.51911 1.8225
O 9.66731 9.47713 1.1218
O 7.88261 5.69367 3.8185
O 11.1718 3.65393 3.96741
O 5.68471 8.45758 5.19543
O 10.2191 5.62464 2.67628
Si 8.28295 5.37338 16.7154
Si 15.208 17.6718 14.8422
Si 13.4559 4.94019 6.24063
Si 14.9443 0.459877 3.0533
Si 14.3788 1.83834 17.1548
Si 12.9336 5.31802 0.945846
O 12.7208 5.18444 4.89976
O 13.5186 1.16467 3.78855
O 14.5589 0.845755 1.41579
O 13.339 6.76375 1.39715
O 13.1765 2.32492 16.4742
O 0.0782141 2.75009 0.114078
O 14.3966 4.7586 0.598374
O 12.7603 5.89233 16.5868
O 15.0526 4.36457 6.17168
O 0.686585 1.18596 2.96259
O 0.499098 7.3894 6.16253
O 12.7038 3.86858 7.3807
Si 1.11322 14.8777 1.00384
Si 1.845 9.47877 16.0358
Si 3.07987 15.6713 3.18114
Si 4.38777 12.1349 2.15906
Si 1.58691 11.7558 0.847699
Si 4.68561 14.9773 0.753079
O 12.8534 14.3376 8.86057
O 4.01589 10.1596 5.28694
O 2.94104 11.6984 1.96379
O 5.92831 14.8434 1.67754
O 2.08972 10.4495 17.2112
O 3.1628 16.163 15.1205
O 1.23638 13.2673 1.25596
O 5.24624 15.4714 16.4995
O 4.06426 16.2221 1.89234
O 5.71124 11.9599 1.28804
O 3.30081 2.50299 7.11031
O 4.49945 12.8289 3.53905
Si 8.81888 13.3216 13.4213
Si 8.46307 9.18482 0.130271
Si 6.35029 15.3265 3.20131
Si 8.63905 11.1571 4.01758
Si 7.31019 11.7766 1.25296
Si 8.89073 15.681 1.44372
O 6.3432 13.8773 4.25849
O 8.1434 9.99076 5.08114
O 8.14855 12.6588 -0.0200746
O 8.41098 12.5133 4.87985
O 7.39277 10.3497 0.735825
O 9.80274 14.4509 0.554017
O 8.77645 11.5486 13.8071
O 7.73048 0.909983 1.90148
O 7.91021 15.3897 2.6441
O 10.2232 10.7667 3.59554
O 6.14564 16.9898 3.00655
O 7.53528 11.459 2.77955
Si 9.84148 12.8899 0.135049
Si 12.781 7.38327 15.6119
Si 11.7221 16.5269 1.77183
Si 13.0088 8.37456 1.39682
Si 10.6586 10.307 1.99528
Si 14.3318 15.4088 2.8182
O 11.5948 12.4938 7.52149
O 0.250914 9.59047 8.07516
O 12.1449 9.75266 1.77852
O 1.92526 15.1552 2.31881
O 12.2721 8.17889 16.9272
O 15.2926 15.1544 1.5545
O 10.5274 11.766 1.29518
O 14.5691 17.0329 2.86203
O 10.2044 16.066 2.12977
O 0.238141 11.0306 1.41795
O 11.7841 17.5508 3.01572
O 12.7324 15.3665 2.12644
Si 12.9101 2.31283 7.54929
Si 2.71375 2.05018 8.47259
Si 1.28435 6.74911 9.48988
Si 5.47136 1.76359 10.1016
Si 13.7623 17.5188 6.95803
Si 4.01812 5.45439 9.36725
O 0.801297 5.88331 10.6189
O 5.13286 0.606942 11.193
O 1.67459 2.10309 9.57787
O 6.79374 8.11958 9.41842
O 0.363145 17.018 9.04569
O 4.37362 4.55214 7.96022
O 13.9386 0.966717 7.5278
O 3.04992 6.79909 9.36387
O 3.31054 4.22901 10.4384
O 6.98446 2.04863 9.32098
O 0.318772 8.08801 9.8182
O 5.38731 2.93059 10.9679
Si 5.02074 4.86597 6.52315
Si 6.43542 0.962845 5.8221
Si 5.75993 8.72573 10.5127
Si 8.91407 4.87738 9.31716
Si 7.97918 2.23349 8.26116
Si 8.12184 7.69397 8.31166
O 5.12332 5.81039 10.8165
O 9.6964 16.5221 12.3309
O 8.49188 3.69289 8.50104
O 9.46324 8.53207 8.74641
O 7.20927 2.36035 6.69759
O 8.37575 6.37813 8.91004
O 9.08791 4.21641 5.35015
O 9.28745 6.41579 6.08082
O 7.74286 8.82137 7.32032
O 10.4781 5.41451 9.17218
O 6.16833 10.3046 10.0704
O 8.75339 4.54937 10.8301
Si 11.712 5.07478 3.63477
Si 12.2879 0.103016 4.37141
Si 9.59972 9.71811 10.029
Si 0.727514 2.16727 10.7264
Si 10.3742 1.16933 6.60076
Si 0.378414 5.9395 6.58543
O 10.6126 9.15109 11.069
O 12.2284 16.2164 10.7857
O 11.5253 1.63435 7.58447
O 0.754703 6.00034 8.16199
O 10.4644 17.6505 6.87826
O 13.0453 2.6614 9.26841
O 9.11562 1.59312 7.51779
O 13.5684 11.8836 8.89019
O 14.0725 6.3486 6.89179
O 13.1098 16.7924 8.15679
O 10.2998 10.7813 9.15714
O 15.015 3.20021 11.0526
Si 14.291 13.43 8.58091
Si 2.72742 9.489 4.62749
Si 13.6215 13.6513 11.5377
Si 3.51117 14.5641 10.6485
Si 0.477446 9.7297 9.56459
Si 1.07253 17.7681 7.5845
O 5.29112 15.3534 14.1325
O 1.89413 10.16 9.57135
O 3.77751 10.6501 7.77078
O 1.74064 16.0651 7.34519
O 2.24852 8.95089 6.52548
O 3.81971 15.0057 4.38
O 15.3225 14.865 8.22296
O 2.40835 0.426412 8.12185
O 14.9671 13.6262 12.6174
O 2.6422 15.4305 9.54496
O 15.3893 17.1879 6.77168
O 3.74619 10.7892 12.6304
Si 4.66033 13.6568 4.77497
Si 6.93092 9.3202 5.95579
Si 6.40401 15.0118 9.59635
Si 10.2319 12.1468 8.16953
Si 4.56146 10.9265 6.51708
Si 7.11259 15.8296 6.7542
O 5.05337 14.1947 9.77044
O 8.55799 10.3897 11.0016
O 11.9823 13.4791 5.29602
O 11.3092 1.07369 5.26775
O 6.11328 10.6342 6.73769
O 7.52898 14.4606 6.40161
O 4.02348 12.5646 5.95527
O 6.59409 17.5256 6.57885
O 6.24384 15.2473 8.07389
O 9.97452 13.3478 9.08679
O 6.15197 16.6059 10.2119
O 9.0979 12.4811 7.16204
Si 8.74555 13.5215 5.95562
Si 0.616789 8.90688 6.22162
Si 10.0013 16.011 7.01246
Si 13.4376 10.888 10.0922
Si 12.4816 12.6416 6.26407
Si 12.3076 15.8392 9.11213
O 8.59537 16.2639 7.50602
O 12.699 9.60501 10.2493
O 1.04605 9.23812 4.57456
O 14.694 13.6707 10.2755
O 13.9789 13.3296 6.72885
O 2.44573 17.1925 3.48719
O 9.89619 14.6508 6.06986
O 13.2756 17.1634 5.38482
O 10.8685 15.6094 8.3035
O 14.8929 10.2597 10.3808
O 11.4168 0.764041 15.3296
O 13.4455 12.0371 11.2755
Si 13.442 3.57882 10.6817
Si 6.58478 0.870971 15.0442
Si 1.4686 6.60664 15.3559
Si 4.08328 2.29783 1.46127
Si 4.26508 2.80146 15.5459
Si 4.38036 5.56376 14.4974
O 0.624587 5.31016 15.7184
O 5.68501 17.5354 15.0607
O 3.70877 2.38444 17.0091
O 4.89231 6.73996 15.5132
O 1.37502 2.19678 12.2936
O 4.15499 4.94141 12.8542
O 0.224977 0.688821 13.5717
O 4.40954 9.0675 9.93493
O 2.84921 5.75181 14.6418
O 6.1941 16.8213 12.4463
O 1.63147 8.15966 14.9971
O 4.04692 6.02762 1.02292
Si 4.77881 4.2463 11.6354
Si 5.0462 17.1348 11.3755
Si 6.267 7.55838 15.7415
Si 11.7851 2.54356 15.4721
Si 8.90867 2.98332 14.5148
Si 7.57025 7.5966 12.9124
O 7.05483 6.27343 16.2219
O 9.77164 0.74777 -0.0433325
O 7.9409 1.77034 14.433
O 8.99807 7.79784 13.7139
O 10.3564 3.06227 14.9228
O 7.8066 6.02995 12.6479
O 5.32981 1.77799 15.1018
O 6.91499 8.58277 11.8519
O 6.63588 7.80525 14.1611
O 12.6159 2.24197 14.1744
O 3.99978 3.82669 1.91467
O 8.12176 4.13014 15.5849
Si 9.1645 5.0592 12.261
Si 11.6109 16.9058 12.2544
Si 9.87303 6.75301 14.7116
Si 15.4238 17.7677 12.1443
Si 13.0195 1.49649 12.8379
Si 12.0839 5.97942 9.44132
O 9.6039 6.30603 16.2394
O 15.3792 0.753276 15.9234
O 14.9155 16.6548 13.3104
O 4.62127 4.32022 15.3712
O 12.023 16.0194 13.5656
O 12.1864 4.68853 10.4409
O 10.1294 5.62756 13.4811
O 12.025 7.23099 10.4837
O 12.5846 2.52546 11.6931
O 13.9513 0.470712 11.9562
O 11.2629 7.4208 15.0977
O 0.419944 0.673047 10.8599
Si 0.498796 13.1289 13.7709
Si 3.44279 10.0992 9.21594
Si 1.73743 15.4096 15.219
Si 4.38422 11.8864 11.5801
Si 2.24575 10.7542 13.2762
Si 3.05522 1.86101 12.6422
O 1.09712 15.2796 16.5959
O 2.58897 10.2824 14.8158
O 6.04628 12.2928 11.6386
O 3.00829 0.507789 12.8843
O 1.59296 9.4961 12.6544
O 8.55373 3.67379 13.0768
O 1.39237 12.1346 13.065
O 4.09775 15.7755 11.4017
O 1.18778 14.5815 13.9875
O 9.26335 13.3442 11.7759
O 3.30272 2.60177 14.0854
O 3.71084 13.292 11.8228
Si 1.27632 15.3239 8.67745
Si 7.15682 11.373 10.9256
Si 6.619 15.5261 13.2906
Si 9.69569 10.9228 14.9493
Si 8.90509 13.6173 10.2454
Si 9.41884 16.1735 13.8675
O 4.04406 13.5445 1.11374
O 10.287 13.8155 13.9845
O 7.25152 14.0282 13.5668
O 10.3736 12.2338 15.6956
O 7.77603 12.3641 9.873
O 7.71942 14.7542 10.3304
O 3.79301 11.4705 10.252
O 11.7486 0.439993 12.8837
O 7.89591 16.2388 13.8988
O 11.1002 10.109 14.4583
O 8.41146 17.1173 0.877903
O 9.05509 9.76604 15.8682
Si 11.9136 14.4458 13.8532
Si 12.1441 8.4933 11.2822
Si 10.7673 17.8067 16.2269
Si 14.803 10.3081 -0.10129
Si 12.578 9.98439 14.0614
Si 13.6165 12.4819 15.6866
O 9.75844 16.9432 15.1274
O 14.5524 8.89454 0.713635
O 13.1388 8.74757 14.9027
O 0.855613 16.8331 15.097
O 12.4835 9.28758 12.6962
O 15.1419 13.075 15.0381
O 13.3996 11.2348 14.5319
O 12.2606 13.96 12.3601
O 12.9131 13.884 14.9278
O 0.130244 9.68351 15.9579
O 11.3617 16.8938 0.287436
O 13.8394 11.5449 17.0296
324
 Atoms. Timestep: 26000
Si 0.167639 4.21706 0.335636
Si 5.06563 16.1492 15.4043
Si 4.83184 7.30897 4.64496
Si 3.35443 2.64861 5.73587
Si 2.30973 0.886475 3.55487
Si 4.48423 5.14275 2.61666
O 4.87004 6.1247 5.7161
O 4.04737 1.74979 8.97991
O 2.43021 2.05807 4.65992
O 7.30204 8.19855 16.3398
O 3.02022 1.15811 2.10611
O 3.00029 5.45605 3.25454
O 1.57976 4.7331 1.02979
O 1.99752 6.73104 0.0587959
O 4.83616 6.47793 3.2428
O 4.45322 1.33886 5.81
O 3.86742 8.46343 4.61923
O 4.29854 3.73549 6.26277
Si 2.16943 6.10965 1.50847
Si 8.61551 0.604098 0.629943
Si 8.06362 5.69137 5.38405
Si 9.85887 3.43155 4.16538
Si 6.91226 1.0154 3.0126
Si 8.62215 5.57129 2.41772
O 6.89444 5.04223 6.45256
O 6.41479 1.59876 4.29856
O 9.45875 3.94063 2.78054
O 12.3346 5.11464 1.84473
O 7.23599 0.961545 16.9022
O 8.70071 5.29511 0.836654
O 5.59103 1.39678 2.22106
O 9.32455 9.38474 1.35672
O 7.89871 5.74536 3.85128
O 11.3841 4.12848 3.85126
O 6.28486 8.06269 4.67017
O 10.2223 5.93518 2.63617
Si 8.226 4.96053 16.5566
Si 15.2079 17.2817 14.8873
Si 13.5577 5.0365 5.47458
Si 15.0916 0.5495 2.61465
Si 14.2824 1.55865 16.8605
Si 13.4647 6.06206 1.0627
O 12.7902 5.7273 4.28095
O 13.8546 0.771291 3.77943
O 14.4012 1.01939 1.25559
O 13.1371 7.44664 1.84584
O 13.1288 2.65986 16.4247
O 15.5087 2.68216 16.8503
O 14.6888 5.09457 1.37069
O 12.9872 6.65294 16.8729
O 15.0117 5.28076 5.15546
O 0.742206 0.677571 3.3896
O 0.57125 7.37193 6.36007
O 13.4914 3.7077 6.50318
Si 1.38352 14.6336 1.27687
Si 1.83797 9.35901 15.9044
Si 2.94195 15.9719 3.3522
Si 4.36882 12.3541 2.2714
Si 1.88136 11.6018 0.725751
Si 4.8198 15.3921 1.11385
O 13.0845 15.0269 8.55664
O 3.79622 10.7557 5.4865
O 3.02832 11.5383 2.04779
O 5.91545 15.2627 2.27916
O 2.1204 10.3375 16.9981
O 3.46174 15.9224 15.3341
O 1.20726 13.0977 0.883281
O 5.48293 15.6047 16.7536
O 3.85634 16.1688 2.10414
O 5.48135 11.6454 1.55505
O 2.47215 2.19679 7.07104
O 4.25009 12.675 3.76435
Si 9.13159 12.9857 13.1804
Si 8.33443 9.02408 0.132371
Si 6.71495 15.6566 3.43882
Si 8.29398 11.2782 4.41552
Si 6.85426 10.9212 1.80711
Si 9.06406 15.8102 1.45868
O 5.78472 14.6122 4.57403
O 7.51508 10.2173 5.16838
O 7.56604 11.9351 0.70811
O 8.96834 12.5148 5.22002
O 6.91783 9.78637 0.707485
O 8.74949 14.3333 0.861693
O 9.19894 11.9325 14.5754
O 8.18369 1.51767 2.07535
O 8.28212 15.7857 2.85451
O 9.56493 10.6009 3.6448
O 6.49373 17.3511 3.55458
O 7.4337 11.638 3.06763
Si 8.96046 12.8276 0.551653
Si 12.4037 7.82808 15.922
Si 11.916 16.7757 1.60557
Si 12.4614 8.84364 1.54912
Si 10.1351 10.6558 1.96735
Si 14.2998 15.2079 2.37237
O 11.4149 12.857 7.53345
O 0.14438 9.57297 7.10559
O 11.5156 9.89457 2.16716
O 1.66101 15.3137 2.76349
O 11.5932 8.56728 -0.0434089
O 15.4204 15.0185 1.1354
O 9.81608 12.2515 1.93913
O 14.9952 16.8098 2.65009
O 10.5612 16.0896 1.62923
O 0.380735 10.975 1.08052
O 12.0213 0.0159263 2.64418
O 12.9825 15.6436 1.37767
Si 12.884 2.58902 7.28413
Si 2.52592 1.4371 8.52772
Si 1.05932 6.95241 9.64023
Si 5.4302 1.8009 9.83831
Si 13.748 17.8431 6.83112
Si 3.94593 5.56343 9.34705
O 0.594881 6.4912 11.1398
O 5.01808 0.965089 11.0756
O 1.44293 2.15804 9.53103
O 6.2786 7.62664 9.28479
O 0.675484 16.3664 8.81802
O 5.00504 5.22861 8.26315
O 13.8753 1.38105 7.00202
O 2.54595 6.33878 9.28694
O 3.52604 4.27098 10.3521
O 6.98895 1.44488 9.01206
O 1.47128 8.3694 9.20023
O 5.66289 3.35575 10.476
Si 5.28531 4.83878 6.67619
Si 5.96893 1.18478 5.8257
Si 5.56084 8.59062 10.462
Si 9.19934 4.65317 9.46962
Si 7.91895 1.99617 7.95593
Si 7.67084 7.3725 8.90147
O 5.21029 5.69452 10.6341
O 9.64333 16.428 12.6504
O 8.49619 3.24783 8.83556
O 8.56138 8.45447 9.9886
O 6.8013 2.34146 6.91297
O 8.21268 5.91294 9.05508
O 9.17294 4.45598 5.13129
O 8.93867 6.68658 6.1782
O 7.4803 8.01786 7.22846
O 10.4589 5.71612 9.51763
O 6.42335 9.9478 10.322
O 8.74575 4.40004 10.937
Si 11.5904 5.61395 3.17912
Si 12.4149 0.301848 4.17184
Si 9.49354 9.66821 9.70213
Si 0.702427 2.39877 10.8917
Si 10.1514 1.1241 5.94722
Si 15.5168 6.08167 6.97863
O 10.9563 9.24043 10.3893
O 12.0186 16.173 10.5696
O 11.3808 1.9996 6.7601
O -0.045456 6.40675 8.59324
O 10.7687 17.7385 6.50416
O 12.7844 2.52926 8.81128
O 9.10386 1.12464 7.32205
O 13.4082 11.8458 8.95295
O 13.872 6.31533 6.80383
O 12.5473 17.3895 7.95455
O 9.88457 10.7084 8.59863
O 14.8139 2.64734 10.5964
Si 13.9623 13.6368 8.75642
Si 2.81179 9.62188 4.66915
Si 14.1825 13.0648 11.7851
Si 3.63937 15.0715 10.6605
Si 1.08123 9.75436 8.55233
Si 0.979278 17.1178 7.34098
O 5.70442 14.9946 14.4106
O 2.31219 10.7808 8.49286
O 4.73569 11.3697 7.81731
O 1.92325 15.5716 7.07269
O 2.12483 9.18577 6.21162
O 3.61651 14.8445 4.36349
O 0.105632 14.176 8.56905
O 2.32045 -0.212272 8.11481
O 15.3198 13.647 12.9255
O 2.26772 14.9218 9.90982
O 15.0088 16.9517 6.71263
O 3.65306 11.1965 12.7723
Si 4.51572 13.7781 5.06006
Si 7.18204 8.85796 5.84191
Si 6.2463 15.7364 9.19127
Si 10.2531 12.2441 8.57896
Si 5.04059 10.989 6.3272
Si 7.17234 16.0079 6.30417
O 4.74672 14.7276 9.45755
O 8.81332 10.6081 10.8987
O 12.0664 13.2035 5.35358
O 11.1036 0.976502 4.69661
O 5.73957 9.39173 6.46876
O 7.55134 14.4336 6.31677
O 5.48897 12.5556 5.61248
O 6.49033 17.6829 5.90221
O 6.34061 15.8643 7.66072
O 9.61941 13.2524 9.47582
O 6.08706 17.2248 10.1011
O 9.08559 12.4898 7.45139
Si 8.88959 13.6719 6.22559
Si 0.322643 8.80604 5.72108
Si 10.1694 16.2433 6.72121
Si 14.0883 10.7663 9.91304
Si 12.4002 12.4532 6.47302
Si 12.0533 16.1514 8.96299
O 8.55571 16.5284 7.01559
O 13.4319 9.30184 10.2264
O 1.4108 8.59528 4.18376
O 13.8945 13.7971 10.4923
O 13.695 13.3685 6.80846
O 2.68092 17.3993 3.99684
O 10.0482 14.8522 6.04638
O 12.9795 17.7306 5.5351
O 10.645 15.6975 8.24868
O 15.5966 10.7788 9.40031
O 11.9433 0.566117 15.2844
O 14.2023 11.5102 11.3069
Si 13.1816 3.20258 10.1777
Si 6.57364 0.792687 15.3254
Si 1.3026 6.42113 15.7287
Si 4.37977 2.1862 1.60948
Si 4.25593 2.68417 15.7007
Si 4.04089 5.35039 14.2927
O 0.297198 5.11522 16.2453
O 5.61073 17.54 15.0811
O 4.42948 2.46566 0.12613
O 4.80209 6.5199 15.2273
O 1.90797 2.58278 11.9827
O 4.25702 5.1852 12.7466
O 0.0126594 0.681578 13.8527
O 4.21008 9.00921 9.64174
O 2.31179 5.5941 14.8288
O 6.20435 15.9617 12.2722
O 1.76498 7.92508 15.22
O 3.76744 5.74684 1.05355
Si 5.05459 4.30306 11.5737
Si 5.22024 17.3774 11.4553
Si 6.27271 6.96627 15.6565
Si 11.9646 2.45366 15.2849
Si 8.80001 2.82158 14.6165
Si 7.58172 7.49225 13.0548
O 6.72746 5.4765 16.3935
O 9.67998 0.367085 16.5614
O 7.75165 1.43945 14.2142
O 9.12414 7.77935 13.6557
O 10.2656 2.73254 14.825
O 8.04258 6.01994 12.3966
O 5.74141 2.18277 15.2556
O 6.63172 8.12011 11.8591
O 7.0239 6.75089 14.3817
O 12.5265 2.22047 13.9201
O 4.23177 3.4889 2.38045
O 8.17765 3.39613 16.0225
Si 9.12979 4.94501 12.2775
Si 11.072 16.6127 11.7838
Si 9.93411 6.72279 14.5491
Si 15.04 18.067 12.1898
Si 12.2551 1.33958 12.3954
Si 12.1313 5.99434 9.61843
O 9.34732 5.82252 15.6835
O 14.6594 0.216865 16.2668
O 15.0379 16.6837 13.4607
O 4.40461 4.14445 15.1714
O 12.2063 15.9914 12.9882
O 12.8021 4.76147 9.89881
O 10.2833 5.67177 13.3621
O 12.3775 7.09543 10.529
O 12.2594 2.52842 11.2265
O 13.7458 0.824477 12.3257
O 11.1723 7.29517 15.1882
O 0.356374 0.927075 11.496
Si 0.616085 13.3854 14.2062
Si 3.84407 10.6102 8.92502
Si 2.01852 15.5775 15.6655
Si 4.46311 11.9862 11.8601
Si 2.1626 10.7368 13.0953
Si 2.94983 1.62152 13.0674
O 1.86767 15.4681 -0.011473
O 2.41348 10.0153 14.6353
O 5.93348 11.3067 12.1826
O 2.40608 0.338771 13.2605
O 2.11627 9.23365 12.3418
O 8.46899 4.01831 13.7512
O 1.60371 11.9885 13.7176
O 3.74989 16.8033 10.6514
O 1.63555 14.1012 15.0797
O 9.29153 13.6821 11.8008
O 3.241 2.24629 14.5648
O 3.85634 13.5465 11.6344
Si 1.57677 14.6597 8.43452
Si 7.27573 10.9875 11.2
Si 6.7232 14.7733 13.2683
Si 9.87434 10.9578 15.5557
Si 8.32613 13.8554 10.4771
Si 9.51604 15.8251 14.0823
O 4.23343 13.7601 1.4138
O 10.647 13.8734 13.95
O 7.77086 13.5221 13.5645
O 9.90509 12.1151 16.7473
O 7.46176 12.4841 10.6594
O 7.43496 14.7006 9.56163
O 4.02468 11.4583 10.3752
O 11.322 0.110166 12.1439
O 7.95693 15.6811 14.081
O 11.0456 10.432 14.6149
O 8.29004 17.0631 0.839109
O 8.79194 10.1659 16.2785
Si 12.2937 14.4741 13.5999
Si 12.2841 8.64274 11.1255
Si 10.964 17.7272 16.0721
Si 14.7976 10.3737 0.161941
Si 12.4747 10.0804 14.0572
Si 13.5392 12.4809 15.4812
O 10.6316 16.5909 14.8971
O 13.7062 9.51386 0.866182
O 13.0343 8.9262 15.004
O 1.17814 16.857 15.1967
O 12.2139 9.29816 12.6365
O 15.2328 12.7144 15.1653
O 13.0026 11.4481 14.3513
O 12.8044 13.3668 12.5304
O 12.9604 13.9001 15.0583
O 0.0787236 9.5866 16.2121
O 11.8134 16.9926 17.1197
O 13.8667 11.3745 16.5811
324
 Atoms. Timestep: 26500
Si 0.160471 4.26754 0.57289
Si 4.70795 16.3226 15.6721
Si 4.97269 7.34553 4.6324
Si 3.41173 2.32425 6.22563
Si 2.03286 1.0933 3.57067
Si 4.68883 4.76795 3.07586
O 4.31972 6.50825 6.03214
O 4.40681 1.60131 9.76465
O 2.49495 1.6619 5.10795
O 6.66651 8.19639 16.2266
O 2.60532 1.69315 2.21123
O 3.02108 4.98807 3.3504
O 1.56352 4.05396 1.24092
O 2.363 5.99797 0.214161
O 5.06576 6.14874 3.71723
O 4.82455 1.47764 6.02322
O 3.89142 8.48753 4.24366
O 4.21571 3.77733 5.91425
Si 2.52288 5.58528 1.67322
Si 8.29755 -0.0993174 0.734129
Si 7.93412 5.22147 5.69116
Si 9.32411 3.55831 3.69313
Si 6.42475 0.687818 2.83363
Si 8.46579 5.894 2.2653
O 6.39454 5.12937 6.04136
O 6.18388 1.54137 4.10097
O 8.62017 4.10529 2.39971
O 12.1941 5.75958 1.9623
O 7.33275 0.252536 16.6238
O 8.10188 5.67224 0.770745
O 5.23638 0.980247 1.85335
O 9.13464 8.83593 0.894566
O 7.75299 6.03226 4.05402
O 10.6998 4.04518 3.4283
O 6.36843 8.23165 5.29306
O 9.84545 6.31308 2.63218
Si 7.91997 5.20686 16.5164
Si 14.9736 17.6221 14.8572
Si 13.8101 5.06803 4.87654
Si 14.8977 0.683536 2.32793
Si 14.3062 1.65113 16.6808
Si 13.7331 6.16064 1.40482
O 12.3455 5.67013 4.54456
O 13.5457 0.801322 3.36627
O 14.136 1.3601 1.14428
O 13.8355 7.818 1.75776
O 13.2576 2.29863 15.6703
O 15.4824 2.82601 16.7815
O 14.5546 4.71688 1.36275
O 13.4166 6.39512 17.0589
O 15.587 4.79595 5.18355
O 0.307298 1.17009 3.34809
O 0.190657 7.56254 5.89054
O 13.2288 3.49339 5.43613
Si 1.46842 14.6909 1.25505
Si 0.922011 9.40065 15.5875
Si 2.69527 16.0961 3.56931
Si 4.03685 12.2936 2.19373
Si 1.90463 11.8267 0.0645046
Si 4.61731 15.4039 1.37413
O 12.779 14.7274 8.67326
O 3.87227 10.5252 6.06663
O 3.01179 11.6764 1.21028
O 6.16376 15.4512 1.96349
O 1.99555 10.5781 16.208
O 3.26066 16.4818 15.0679
O 1.67219 13.402 0.443295
O 4.36772 16.0624 17.251
O 3.81395 16.5147 2.38573
O 5.33184 11.4424 2.01727
O 3.10995 1.69879 7.59421
O 4.10238 13.127 3.66493
Si 8.78476 13.1701 13.3829
Si 7.86268 8.84247 16.9968
Si 6.98697 15.7726 3.4841
Si 8.28155 10.7834 4.54968
Si 6.55403 10.6058 1.9927
Si 9.33523 15.2163 1.74337
O 5.88178 14.7474 4.16645
O 8.30931 9.64022 5.62037
O 7.64373 11.8879 1.75504
O 7.75171 12.2995 4.994
O 7.15925 9.82984 0.708067
O 9.07325 13.8767 0.824462
O 8.7595 11.64 14.0535
O 8.05071 1.0936 1.82402
O 8.45217 15.1601 3.19556
O 9.56164 10.2611 3.58122
O 6.98786 17.238 3.12959
O 7.13933 10.3118 3.40753
Si 8.8922 12.3658 0.79165
Si 12.5294 7.53716 16.2016
Si 12.0873 16.4015 1.59603
Si 12.7216 9.00647 1.71513
Si 10.0093 9.90185 2.08081
Si 14.6954 15.736 2.79418
O 11.2426 11.8138 7.2517
O 0.571591 9.77219 6.8795
O 11.3913 9.11514 2.54362
O 2.04271 15.06 2.76331
O 12.0495 8.63153 0.119419
O 15.4639 15.059 1.68949
O 10.1338 11.3788 1.32862
O 14.8319 17.2207 2.17507
O 10.9256 15.2693 2.0676
O 0.512091 11.2499 0.696642
O 12.0011 17.325 2.80813
O 13.3839 15.529 2.12192
Si 13.1175 2.5522 6.90737
Si 3.02854 1.22138 9.05604
Si 1.35489 6.80681 9.28826
Si 5.94874 1.7222 10.2208
Si 13.9701 17.761 6.83322
Si 4.1775 5.81303 9.43365
O 0.0159287 6.95847 10.3095
O 6.02358 0.669472 11.3779
O 1.98006 2.09475 9.79236
O 6.76734 7.78674 9.64374
O 0.387404 16.1727 9.44866
O 4.46611 5.1672 8.06644
O 13.9718 1.28 6.87182
O 2.80627 6.50835 9.79865
O 3.31298 4.15457 10.2648
O 7.21557 2.15245 9.33085
O 1.43074 8.3823 8.82694
O 5.63867 3.03062 11.1218
Si 4.96651 5.11693 6.64505
Si 6.28988 1.34632 5.78657
Si 5.69932 8.77479 10.8075
Si 9.39091 4.90243 9.11178
Si 8.05528 2.33964 8.07859
Si 8.26478 7.59848 8.90784
O 5.00752 5.65855 10.8441
O 10.3945 16.7373 12.8548
O 8.90821 3.56758 8.34948
O 9.17085 8.43493 9.95842
O 6.87408 2.50624 6.9801
O 8.59718 6.12566 9.33003
O 8.26888 4.01245 4.74039
O 9.27783 5.76665 5.8637
O 8.02624 8.13096 7.38829
O 10.9944 5.48028 9.41074
O 6.59573 9.95571 10.4315
O 9.32762 4.30576 10.6597
Si 11.3078 5.69039 3.33154
Si 12.4818 -0.0762597 4.06568
Si 9.76884 9.91955 10.2675
Si 0.825914 2.11311 10.9953
Si 10.5483 1.32436 6.13405
Si 0.110025 6.16548 6.51087
O 11.1357 9.40217 10.753
O 11.5892 16.0293 10.2638
O 11.6912 2.03467 7.09613
O 0.562595 6.29205 7.91494
O 10.6604 17.8844 6.39381
O 13.7772 3.23425 8.31848
O 9.46968 1.75933 7.2488
O 13.4594 11.8777 9.50785
O 14.0808 6.08996 6.45361
O 12.9763 17.1353 7.91708
O 9.7011 10.6173 8.76213
O 15.5442 3.32194 10.3275
Si 13.8467 13.6247 8.91382
Si 3.365 9.89125 4.70267
Si 14.1967 13.5582 11.8851
Si 3.87079 14.8807 10.4251
Si 1.01215 10.0254 8.49544
Si 1.06718 17.1068 8.0663
O 5.86488 15.4849 14.8867
O 2.43552 10.7108 8.78712
O 4.61324 11.7815 8.20156
O 1.69613 15.4675 7.45449
O 2.47499 8.5505 6.01071
O 3.5156 15.1877 4.61649
O 15.1758 14.3072 8.35781
O 2.21564 17.8339 8.92645
O 15.7474 14.1355 12.6188
O 2.51811 14.8614 9.57857
O 15.4498 17.3763 7.04881
O 3.41892 11.4495 12.8857
Si 4.56857 14.0078 4.83316
Si 7.1176 9.08899 6.49768
Si 6.47529 15.3531 9.11084
Si 9.65274 12.0496 7.66803
Si 4.98741 11.5581 6.60566
Si 7.20039 16.421 6.51787
O 4.97528 14.3752 9.21853
O 8.52858 10.171 11.4342
O 11.6905 13.2367 5.32462
O 11.3587 1.21248 4.65777
O 6.17054 10.5742 6.79425
O 7.25132 14.8219 6.13851
O 4.92204 13.0612 5.93817
O 6.80584 -0.16978 5.88634
O 6.32523 16.416 7.8813
O 9.96671 13.2772 8.93145
O 6.66989 15.8547 10.6345
O 8.47529 12.8791 6.98313
Si 8.51169 13.6654 5.72393
Si 1.04003 8.93863 5.66812
Si 10.145 16.3903 6.61373
Si 14.4071 10.8634 10.4293
Si 12.3283 12.5371 6.34301
Si 12.0247 16.2168 8.75743
O 8.57688 16.8936 7.38583
O 13.5293 9.57479 10.5551
O 1.81167 10.6562 4.80653
O 14.3529 14.0736 10.4286
O 13.694 12.83 6.57145
O 1.9767 17.5739 3.37103
O 9.72105 14.9275 5.62957
O 13.2741 17.4774 5.38045
O 10.7172 15.7665 7.97254
O 0.0923418 10.5662 9.53793
O 11.3876 0.727527 15.273
O 14.7293 12.0402 11.6266
Si 13.9325 3.61934 9.75815
Si 6.57954 0.555282 15.19
Si 1.53399 6.38011 16.0287
Si 4.07613 2.02322 1.59162
Si 4.11736 2.21888 15.6516
Si 3.77777 5.03549 14.4588
O 0.372628 5.25732 16.501
O 5.29606 17.8037 15.5747
O 3.74017 2.02189 0.101143
O 4.48608 6.2859 14.956
O 1.62987 2.24941 12.5054
O 3.90998 4.92813 12.9135
O 0.158507 0.686554 13.4873
O 4.45009 9.39644 10.013
O 2.24288 5.74124 14.7675
O 5.80322 16.5962 12.8371
O 1.57597 8.15988 16.3368
O 4.45511 5.57358 1.60523
Si 4.54591 4.14809 11.678
Si 5.57416 17.0458 11.4382
Si 5.77009 6.95097 15.5381
Si 11.9683 1.92038 14.4396
Si 9.01683 2.81321 14.5541
Si 7.43341 7.13908 12.8418
O 6.36097 5.56964 16.3087
O 9.7178 0.512232 17.3596
O 7.71506 1.52628 14.591
O 8.92392 7.60757 13.6295
O 10.4719 3.02912 14.5798
O 8.02836 5.66614 12.2928
O 5.80729 1.92313 15.7249
O 6.47056 8.02405 11.993
O 6.7315 7.04497 14.2398
O 12.2385 2.32217 13.0013
O 4.36583 3.33839 2.40928
O 8.1806 3.71321 15.6313
Si 9.19306 4.79137 12.1605
Si 11.5863 16.7698 11.6533
Si 9.84217 6.6361 14.44
Si 14.9532 17.8134 11.9698
Si 12.2761 1.66393 11.4814
Si 12.4809 6.0518 9.74686
O 8.64055 6.26491 15.4138
O 15.1276 0.50685 16.1898
O 14.4198 17.0531 13.4014
O 4.11608 3.78905 15.428
O 12.1346 15.5778 12.5153
O 13.1824 4.89796 10.3218
O 10.3469 5.7895 13.0893
O 12.1989 7.11291 10.9152
O 13.174 2.49547 10.6315
O 13.6757 0.68869 11.8688
O 11.0224 7.05059 15.4397
O 0.0870634 0.737367 10.9749
Si 1.01496 13.5233 13.6204
Si 3.95183 10.7386 9.28921
Si 1.78353 15.9555 15.7218
Si 4.52191 12.254 11.8726
Si 2.16833 10.66 13.1817
Si 2.94487 1.58529 13.0583
O 1.43303 15.7315 0.0919446
O 1.3169 9.89549 14.2197
O 5.94374 11.8923 11.5756
O 3.07185 0.18619 12.8958
O 1.71 10.434 11.7218
O 8.70071 3.51489 13.1522
O 1.35705 12.0546 13.37
O 4.15618 16.7279 10.6731
O 1.68802 14.5313 14.7379
O 8.91408 13.4375 11.7326
O 3.00478 1.70039 14.6385
O 3.93976 13.9757 11.5913
Si 1.07804 14.5648 8.90757
Si 7.24285 11.1163 11.3363
Si 6.84418 15.368 13.6812
Si 9.36307 10.9217 15.3536
Si 8.59224 13.3587 9.92675
Si 9.68588 15.9666 14.0388
O 4.53239 13.7322 1.38968
O 10.2339 13.5499 13.8092
O 7.60469 14.0446 14.0669
O 8.73677 12.1919 16.293
O 7.9331 11.9277 9.99169
O 7.47178 14.0789 9.05478
O 3.89441 11.8883 10.5301
O 11.3322 0.366531 11.5847
O 8.24159 16.2171 14.1628
O 10.8189 10.0996 14.9275
O 8.73619 16.5276 0.960808
O 8.38993 9.62788 15.5943
Si 12.0019 14.2724 13.765
Si 12.3039 8.55998 11.5559
Si 10.8675 17.7379 16.2526
Si 14.6258 10.9179 0.290905
Si 12.2978 9.77506 14.2692
Si 13.7695 12.537 15.2399
O 10.1418 16.6241 15.4412
O 13.5609 10.3599 1.21033
O 12.9861 8.51372 15.0579
O 0.60607 16.7606 15.0028
O 12.4786 9.42314 12.8079
O 15.1668 13.1056 14.8782
O 13.1625 11.1314 14.5142
O 12.5909 13.1072 12.6124
O 12.2923 13.3747 14.914
O 15.154 10.0373 16.1928
O 11.4859 17.0921 0.362063
O 14.1153 12.1063 16.6292
324
 Atoms. Timestep: 27000
Si 0.281858 4.67681 0.365404
Si 4.68353 16.487 15.5391
Si 5.36157 7.20641 4.84228
Si 3.50194 2.23521 5.91295
Si 2.06575 0.895321 3.73642
Si 4.70721 4.96459 2.78832
O 4.48528 6.49189 6.06564
O 4.5329 1.19136 9.25746
O 2.17516 1.819 5.04553
O 6.62191 7.84474 16.4107
O 2.95819 1.53825 2.65419
O 3.03484 5.47705 3.18323
O 1.50577 4.71798 1.38243
O 2.02318 6.62971 0.17386
O 5.29977 6.21853 3.66918
O 4.89957 1.43231 5.79049
O 4.15718 8.34833 4.28873
O 3.63024 3.74693 5.95297
Si 2.52909 6.12282 1.60632
Si 8.44002 17.9027 0.561393
Si 7.49478 4.87039 5.16742
Si 8.94613 2.9219 3.53248
Si 6.62848 -0.0282419 2.93968
Si 8.56854 5.53166 2.30826
O 6.11285 4.40549 5.96295
O 7.3271 0.513139 4.41361
O 8.58595 3.82434 2.25089
O 12.1769 4.80449 2.62615
O 7.36985 0.667901 16.8021
O 8.00271 6.04021 0.807979
O 5.32475 0.870305 2.74994
O 8.56165 8.64939 0.789656
O 7.77087 5.78797 3.86081
O 10.4276 3.57311 3.76451
O 6.17094 8.16843 6.04122
O 9.99556 5.9215 3.19636
Si 8.09981 5.06525 16.5349
Si 15.019 0.0435415 14.6145
Si 13.7368 4.92377 5.26154
Si 14.6417 1.04552 2.3489
Si 13.9776 2.13437 16.7152
Si 13.0616 5.60684 1.53167
O 12.1581 5.30841 4.78387
O 13.5925 1.17812 3.66592
O 13.7795 1.65085 1.05782
O 12.8778 7.03982 2.21306
O 12.6819 2.44476 15.9435
O 15.0629 3.39263 16.7603
O 14.59 5.17969 1.4059
O 13.2167 6.19541 17.0557
O 15.5769 5.2156 4.70661
O 0.320503 1.08807 3.256
O 0.0377889 7.83911 5.45421
O 14.103 3.4791 6.15842
Si 1.26763 15.2324 1.08285
Si 0.669703 9.82098 15.5903
Si 2.76817 16.0594 3.55836
Si 4.02752 12.5578 1.98358
Si 1.60625 12.1383 0.336636
Si 4.76981 15.6287 1.16748
O 12.8507 14.5752 8.51274
O 4.02961 10.4195 6.14026
O 2.82693 11.8488 1.46489
O 6.24132 14.8981 1.61196
O 1.75928 10.6343 16.5026
O 3.26346 16.529 14.9707
O 1.35151 13.698 0.499532
O 4.90365 16.5378 -0.0383075
O 4.13657 16.2526 2.55454
O 5.48438 12.0719 1.57775
O 2.85798 1.96861 7.3847
O 3.65058 12.5721 3.69974
Si 9.19209 13.4178 13.1729
Si 7.47376 9.03701 16.756
Si 6.8467 14.995 3.34915
Si 8.65519 11.0236 4.11648
Si 6.94518 11.2482 1.61461
Si 9.20969 15.0696 1.1521
O 5.76621 14.2363 4.10163
O 7.93439 10.3738 5.42853
O 7.77986 12.328 0.698289
O 9.18001 12.5534 4.46674
O 6.66088 10.0342 0.454233
O 9.72204 13.768 0.58627
O 9.11379 11.8072 13.5789
O 8.03999 0.275819 2.2245
O 8.28488 14.9156 2.62124
O 9.0651 9.76639 3.27682
O 6.59045 16.4512 3.2797
O 7.35974 11.5294 3.18513
Si 9.53191 12.2207 0.466176
Si 12.6831 7.27577 16.0481
Si 11.7761 16.5408 2.02386
Si 12.696 8.55598 1.59588
Si 9.66557 9.36967 1.92323
Si 14.6419 16.1579 2.76759
O 11.5727 11.4831 6.80938
O 0.481046 9.96983 6.79009
O 11.0322 8.79935 2.01018
O 1.85738 14.9642 2.50071
O 12.3658 8.32228 0.0677122
O 15.3621 15.0899 1.65868
O 10.0489 10.9319 1.11912
O 14.4831 17.468 1.99847
O 10.5227 15.5785 1.79926
O 0.32726 11.5087 1.10155
O 11.6925 17.5538 3.17029
O 13.1885 15.7381 1.99618
Si 13.3426 2.65429 7.36978
Si 2.99817 1.33575 8.90491
Si 1.55714 6.50506 8.65164
Si 5.83568 1.96659 9.98125
Si 13.8046 17.6062 6.95529
Si 4.28558 5.60998 9.64318
O 0.579065 6.3625 10.0934
O 6.19383 0.768682 10.8697
O 2.48938 2.34777 9.90141
O 6.44572 7.59347 9.17043
O 0.61514 16.3041 9.64857
O 4.69202 4.9057 8.13242
O 13.9654 1.13752 7.67138
O 2.91292 6.3764 9.35159
O 3.45599 4.20292 10.2186
O 7.41848 2.07485 9.32856
O 1.48382 7.9818 8.2026
O 5.5935 3.13811 10.9457
Si 4.67441 4.8579 6.46045
Si 6.47143 0.873416 5.76313
Si 5.96809 8.57989 10.5498
Si 9.75584 5.01494 9.42317
Si 8.26406 2.58493 7.95375
Si 7.91027 7.48827 8.65501
O 5.10653 5.56107 11.2434
O 9.46701 17.4534 12.6034
O 9.11928 3.85327 8.65027
O 8.86032 8.53069 9.69339
O 7.57859 1.69917 6.83379
O 9.01011 6.38066 8.84039
O 8.26801 3.57392 4.82895
O 8.34191 5.41962 6.2889
O 8.14731 8.50813 7.37907
O 11.1881 5.76097 9.743
O 6.64678 10.0495 10.6914
O 9.50364 4.97696 10.9061
Si 11.1217 5.01394 3.74348
Si 12.5082 0.366531 4.32668
Si 9.84545 9.81737 10.0738
Si 1.23119 2.33275 11.1197
Si 10.649 1.28437 6.42317
Si 0.414292 6.29752 5.81898
O 10.8324 8.96142 10.8252
O 11.521 15.9732 10.2183
O 11.8774 2.30934 7.13053
O 0.890797 5.97056 7.3435
O 10.6539 17.7729 6.63449
O 13.4723 3.2666 8.75126
O 9.75251 1.73352 7.80154
O 14.1704 11.5107 9.24627
O 14.2447 5.96765 6.41816
O 12.7745 16.9991 7.97472
O 9.67898 10.5976 8.60278
O 0.248984 2.99193 10.1311
Si 14.1253 13.3152 8.48594
Si 3.45848 9.55456 4.99443
Si 13.9779 13.124 11.9262
Si 3.70249 14.765 10.8233
Si 0.996807 9.57515 8.32716
Si 0.997875 17.1559 8.10767
O 5.44087 15.6444 14.4666
O 2.44954 10.0434 8.93708
O 4.16476 11.6106 8.03158
O 1.70362 15.7662 7.65348
O 2.2359 8.68153 5.80114
O 3.50346 15.0876 4.58762
O 15.4289 14.3118 8.36519
O 2.49516 17.8236 8.70027
O 15.4764 13.9978 12.5176
O 2.37415 15.0057 10.1653
O 15.104 16.8315 7.53538
O 3.87372 11.2479 13.1002
Si 4.47676 13.676 4.61635
Si 7.20512 9.30072 6.43955
Si 6.37381 15.151 9.4183
Si 10.3355 12.0509 8.06737
Si 5.13563 11.4886 6.74445
Si 7.04425 15.9851 6.55706
O 4.91726 14.5691 9.76753
O 8.97426 10.7139 11.3054
O 11.6715 13.3325 5.21352
O 11.2363 1.12324 4.97638
O 6.21954 10.5736 7.26776
O 7.46414 14.4756 5.92987
O 4.52455 12.8183 6.00153
O 6.44307 17.4356 6.47047
O 6.2938 15.5225 7.85625
O 9.96351 12.8397 9.38612
O 6.30146 16.5587 10.106
O 9.09795 12.4199 7.1448
Si 8.79599 13.4356 5.87175
Si 0.692825 9.32774 5.44887
Si 10.0358 16.3755 6.43264
Si 14.6186 10.4991 10.3518
Si 12.3923 12.351 5.86948
Si 12.0292 15.8556 8.69585
O 8.59905 16.6251 7.15061
O 13.1092 9.67652 10.5018
O 1.87427 10.4095 4.38767
O 14.1449 13.6763 10.2939
O 13.5657 12.9723 6.81968
O 2.50982 17.5001 3.99377
O 10.0077 14.739 5.81552
O 13.3921 17.5434 5.425
O 10.8183 15.7227 7.7253
O 15.5322 9.48561 9.67429
O 11.6443 0.554344 15.3228
O 14.547 11.564 11.7677
Si 14.0277 3.2901 10.1933
Si 6.37689 1.39151 15.7397
Si 1.33434 6.93613 15.8676
Si 4.33338 1.93739 1.95261
Si 3.7626 2.79515 16.0733
Si 3.37722 5.2442 14.2899
O 0.0115623 6.00377 16.3966
O 5.29502 0.0678225 15.249
O 3.56512 2.48421 0.592323
O 4.7222 6.11343 14.6172
O 2.09359 1.90291 12.3455
O 3.27774 4.62032 12.8395
O 15.5284 1.23557 13.4728
O 4.61236 9.03543 9.79853
O 2.12219 6.15005 14.7391
O 6.77345 16.8214 12.5821
O 0.677017 8.28879 15.4777
O 4.45722 5.428 1.2306
Si 4.49518 3.95996 11.8145
Si 5.65852 17.1605 11.3448
Si 5.83399 6.80315 15.5178
Si 11.6448 2.10452 14.8384
Si 8.63701 2.7427 14.5103
Si 7.54787 7.33164 12.7732
O 6.58292 5.48299 15.985
O 9.89279 0.495957 0.00963339
O 7.30703 1.65249 14.6188
O 8.9512 7.69006 13.7257
O 10.016 2.20035 14.7764
O 7.73513 5.78385 12.5968
O 5.35198 2.53322 15.8931
O 6.39577 7.78172 11.9028
O 6.7214 7.22164 14.1717
O 11.9959 1.90634 13.2279
O 4.49605 3.39188 2.61541
O 8.2909 3.76336 15.6162
Si 9.25125 4.8911 12.4162
Si 10.9019 16.8324 11.3371
Si 9.93989 6.68426 14.5592
Si 15.3076 17.9865 11.917
Si 12.4151 1.3569 11.5729
Si 12.6419 6.37241 9.82361
O 9.07904 5.80086 15.492
O 14.6887 1.25131 15.7129
O 14.76 16.8348 13.1479
O 3.40472 4.26796 15.6561
O 11.6265 15.976 12.7416
O 13.5109 5.06257 10.217
O 10.3435 5.90945 13.0223
O 12.4973 7.3177 11.0686
O 12.7546 2.77096 11.0157
O 14.0015 0.897739 11.5155
O 11.3449 6.38998 15.417
O 0.635644 0.805199 10.8588
Si 0.551249 13.4956 13.8536
Si 3.94302 10.459 9.28397
Si 1.6334 16.2065 15.28
Si 4.71456 11.9552 11.8598
Si 2.1627 11.0711 13.2417
Si 3.25414 1.42547 13.3489
O 1.78733 15.9047 16.9058
O 0.937532 10.1595 14.0448
O 6.3165 11.862 12.4701
O 2.93984 0.051604 13.4696
O 1.69255 11.0295 11.7646
O 8.76254 3.58577 13.2481
O 1.89071 12.592 13.8851
O 4.185 16.1538 11.3432
O 0.922259 14.919 14.4992
O 9.41025 13.5188 11.621
O 3.08414 2.01298 14.7652
O 4.07849 13.5207 12.0288
Si 1.18957 14.6769 9.18572
Si 7.46582 11.1799 11.2814
Si 6.8292 15.4293 13.6771
Si 9.26721 10.7651 14.8499
Si 8.85723 13.5715 10.1589
Si 9.53044 16.319 13.8157
O 3.9219 14.1821 1.48883
O 10.6845 13.9961 13.8804
O 7.64232 14.1221 13.4184
O 9.59342 11.8977 16.0341
O 7.68928 12.4719 10.4093
O 8.27499 15.068 9.81637
O 3.85272 11.4582 10.6181
O 11.7093 0.078789 10.9516
O 8.09027 16.2876 14.5985
O 10.8889 9.88147 15.1187
O 8.653 16.437 0.597627
O 7.88916 9.89556 15.4938
Si 12.1619 14.8085 13.9878
Si 12.3854 8.93063 11.6448
Si 11.0518 17.667 16.3861
Si 14.4427 10.8803 0.633125
Si 12.5495 9.99074 14.4258
Si 13.6512 12.6263 15.4375
O 10.2345 16.8253 15.2766
O 13.4914 9.95157 1.58496
O 12.6476 8.49697 14.9009
O 0.769365 17.5996 15.2079
O 11.8307 9.86648 12.8882
O 15.0271 12.6409 14.5603
O 13.0166 11.4332 14.5311
O 12.8255 14.0062 12.7219
O 13.0204 14.1234 14.928
O 14.9684 9.8935 16.6878
O 12.0146 17.3005 0.560526
O 13.634 11.8458 16.9326
324
 Atoms. Timestep: 27500
Si 0.492758 4.988 0.390374
Si 4.8192 16.2414 15.3857
Si 4.81513 7.40874 4.56107
Si 3.58501 2.12948 6.05137
Si 2.29403 0.813089 3.62251
Si 4.67862 5.08396 2.88204
O 4.53566 6.31845 5.72593
O 4.42455 1.56011 9.64019
O 2.69926 2.00704 4.61033
O 6.64692 8.14778 16.3202
O 3.14113 1.4154 2.35832
O 2.97694 5.96683 3.44693
O 1.51821 5.31351 1.5705
O 2.55006 7.03457 0.170208
O 5.35593 6.35436 3.60391
O 4.9072 1.19507 5.81717
O 4.32125 8.94917 4.35491
O 3.98845 3.67092 6.1393
Si 2.58422 6.57706 1.8238
Si 8.19804 0.120994 0.732155
Si 7.46291 4.6093 4.92334
Si 9.43277 2.63268 3.55533
Si 6.48345 0.380962 3.13905
Si 8.62378 4.93298 2.19118
O 6.29595 4.3455 6.07956
O 7.08413 0.996664 4.59779
O 8.67188 3.20225 2.24532
O 12.3666 4.27022 1.84237
O 6.76394 0.677879 0.156666
O 8.58206 5.19602 0.567809
O 5.77125 1.67607 2.39191
O 8.95404 8.79566 0.313438
O 7.93565 5.30599 3.55111
O 10.983 3.16123 3.4229
O 6.42306 7.66584 4.97053
O 10.133 5.15373 2.64523
Si 8.36828 5.36526 16.1369
Si 14.8437 0.111813 15.215
Si 13.4024 4.51543 5.89283
Si 14.8644 1.09799 2.81565
Si 14.2312 2.35338 17.1408
Si 13.1419 5.48335 0.896265
O 13.1503 4.36052 4.27402
O 13.7672 1.15437 3.8516
O 14.5504 2.1954 1.5284
O 12.4906 6.79474 1.90576
O 13.0884 2.76048 16.1069
O 15.3014 3.62995 16.6831
O 14.7123 5.27348 1.1915
O 12.6654 6.00068 16.586
O 15.2287 4.44477 5.39183
O 0.819657 1.31019 2.85277
O 0.00572879 7.70005 5.84341
O 13.0633 3.18438 6.66417
Si 0.672498 15.0848 1.03939
Si 0.350926 9.95827 15.7726
Si 2.69365 15.7619 3.32881
Si 3.70348 12.2235 1.86018
Si 1.05215 12.0116 0.781131
Si 4.40616 15.0586 1.10814
O 13.3537 14.7373 8.2879
O 3.59556 10.8394 5.37504
O 2.19784 11.8633 1.85062
O 5.86074 14.896 1.61392
O 1.40387 10.6036 17.007
O 3.18378 16.3121 15.2663
O 0.903912 13.5809 0.680371
O 5.05184 15.2296 16.6291
O 3.57821 15.9436 2.00515
O 5.19383 11.8892 1.26835
O 2.99035 1.68992 7.49551
O 3.97116 12.5177 3.50864
Si 8.95223 13.4627 13.2717
Si 7.57502 9.31009 16.7814
Si 6.68242 14.8199 3.03335
Si 8.04326 11.0715 3.7496
Si 6.8659 11.9922 1.00393
Si 8.91094 15.1636 1.24947
O 5.77863 14.1201 4.04875
O 7.63856 9.94687 4.78592
O 8.22667 12.5672 0.274685
O 8.82382 12.2703 4.56635
O 7.09302 10.4258 0.563923
O 9.80255 13.995 0.780241
O 8.59284 12.0542 13.8627
O 7.98283 0.356889 2.48268
O 8.15881 14.5543 2.51035
O 8.9008 10.002 2.84205
O 6.5459 16.5943 3.23472
O 7.36449 11.7419 2.44296
Si 9.78993 12.4047 0.214246
Si 12.7543 7.46789 15.7058
Si 11.3681 16.9312 2.46224
Si 12.474 8.3151 1.587
Si 9.79531 9.85364 1.60461
Si 14.1714 16.1117 2.69928
O 11.7919 11.8585 6.78002
O 0.75908 9.66863 7.03778
O 10.9304 8.92978 2.1707
O 1.34014 15.6652 2.54551
O 12.0736 8.25039 16.9592
O 14.5879 15.4075 1.33645
O 10.039 11.4139 1.42708
O 14.4664 17.5952 2.38544
O 10.1937 15.8753 2.15696
O 15.2501 11.7387 1.48223
O 11.5984 18.0376 3.68133
O 12.6812 16.1646 2.53313
Si 13.1268 2.28132 7.97293
Si 2.96185 1.127 9.03376
Si 1.2441 6.25859 8.31461
Si 5.77552 1.99582 10.2676
Si 14.1598 17.5705 6.90465
Si 4.24955 5.71398 9.35927
O 0.488126 5.13074 8.94603
O 6.11419 0.851397 11.2579
O 1.95991 2.20825 9.58926
O 7.23611 7.74537 9.14298
O 0.588205 15.937 9.26442
O 5.07654 4.92532 8.17257
O 14.0768 1.16804 7.38943
O 2.78744 5.7637 8.55763
O 3.61637 4.43775 10.3489
O 7.12268 2.07249 9.37487
O 1.17781 7.73986 8.5307
O 5.56679 3.21988 11.1397
Si 4.88028 4.93514 6.55904
Si 6.51028 0.574798 6.10732
Si 6.24868 8.61001 9.86763
Si 9.41197 5.08469 9.54351
Si 7.94116 2.53669 8.12859
Si 8.49446 7.67351 8.11434
O 5.60586 5.66325 10.3994
O 10.0651 16.5327 12.6046
O 8.87677 3.76904 8.61308
O 9.3227 8.70151 8.88101
O 6.73016 1.79725 7.0519
O 9.0762 6.35829 8.65036
O 8.64526 3.49105 4.83443
O 8.26198 5.6668 5.90706
O 7.75009 8.42681 7.01158
O 11.0172 5.50531 9.09005
O 6.70405 10.2383 9.72729
O 9.27941 4.68793 10.9763
Si 11.6807 4.60401 3.38666
Si 12.5168 0.897531 4.71433
Si 9.84688 9.82376 9.9697
Si 1.04633 2.48315 11.0475
Si 10.5651 1.27335 7.1731
Si -0.000808992 6.08048 5.58611
O 11.0418 9.05565 10.602
O 11.9198 16.6827 10.0938
O 11.8235 1.26938 8.3851
O 1.01205 5.72309 6.823
O 10.2298 17.6014 6.72789
O 14.0218 2.59578 9.34245
O 9.32728 1.38993 8.20648
O 13.9357 11.7256 9.17476
O 13.9313 6.11786 6.514
O 13.0045 17.0247 7.9267
O 10.5928 11.1285 9.1818
O 15.4809 3.71697 11.044
Si 14.129 13.2094 8.61036
Si 3.01362 9.80906 4.32885
Si 13.7338 13.0312 12.0271
Si 3.9103 14.7752 10.9113
Si 1.50011 9.25681 8.4642
Si 1.41125 16.952 7.88505
O 5.04107 15.5443 13.8482
O 2.536 9.69829 9.52103
O 4.09306 10.904 7.78551
O 2.10113 15.0281 7.56212
O 2.23648 8.57317 5.4605
O 3.69522 15.0287 4.33579
O 0.144228 13.7023 8.70266
O 2.1673 17.7467 8.90693
O 14.9669 13.445 12.9571
O 2.71153 15.1157 9.99984
O 15.4267 16.9707 7.43501
O 3.49766 11.8235 13.1815
Si 4.39681 13.6559 4.68916
Si 7.01501 9.06093 5.87071
Si 6.47326 15.3748 9.49661
Si 10.5549 12.3918 8.27459
Si 4.74522 11.1031 6.38298
Si 7.17015 15.6927 6.41315
O 5.23788 14.4283 9.97013
O 8.67973 10.0636 10.9675
O 12.9901 12.4148 4.75717
O 11.459 1.4805 5.83592
O 5.73131 9.86286 6.17925
O 7.75983 14.1328 5.77251
O 5.3371 12.4556 5.5449
O 6.32406 16.9776 6.50907
O 6.49278 14.9423 7.87902
O 10.0923 13.633 9.16446
O 6.32498 16.8511 9.9532
O 9.50912 12.6477 7.19118
Si 9.28779 13.3193 5.67603
Si 0.513055 9.16007 5.63507
Si 10.1384 15.9319 6.81086
Si 14.5922 10.6761 10.2428
Si 13.1356 11.9506 6.06372
Si 12.4344 15.8108 8.91496
O 8.54676 15.9751 7.10567
O 13.3849 9.48023 10.0435
O 1.34667 10.2469 4.41346
O 14.0083 13.69 10.638
O 14.3064 12.8544 6.95938
O 2.75511 17.2689 3.86335
O 10.2786 14.5825 5.94454
O 13.2061 17.6039 5.5305
O 11.0743 15.6556 8.12415
O 0.0625866 9.79631 9.45398
O 11.4656 1.11357 16.0696
O 13.8987 11.4225 11.5159
Si 13.7903 3.3949 10.7276
Si 6.19086 1.05111 15.8562
Si 1.66062 7.11661 15.7844
Si 4.4792 2.21507 1.75795
Si 3.49826 2.51373 15.9395
Si 3.66669 5.27967 14.5928
O 0.407474 6.11547 16.1497
O 5.64038 17.7947 15.0915
O 3.68057 2.49259 0.376362
O 4.60684 6.20903 15.3156
O 1.98003 2.84542 12.2409
O 4.42008 5.19734 13.142
O 15.2237 1.24276 13.804
O 4.75713 9.23873 9.6651
O 2.30754 6.0383 14.625
O 6.96069 16.4826 12.2664
O 0.892943 8.3878 15.5137
O 4.1504 5.68127 1.4419
Si 5.07744 4.52566 11.6629
Si 5.65915 17.2002 11.4614
Si 5.97409 7.07995 15.4753
Si 11.5666 2.56014 15.2752
Si 8.54387 2.78053 14.3528
Si 7.44227 7.67782 12.7391
O 6.9 5.82239 15.6904
O 9.52072 0.10466 16.9364
O 7.50962 1.6305 14.9323
O 8.80016 7.78897 13.5417
O 10.168 2.53173 14.4738
O 7.73155 6.09272 12.4056
O 5.12698 2.29208 15.5654
O 6.78906 7.9533 11.3837
O 6.27597 7.41483 13.9427
O 12.6025 1.94734 13.9825
O 4.2095 3.5835 2.4193
O 8.59192 3.95894 15.475
Si 8.87594 4.86592 12.4275
Si 11.2069 16.8173 11.5278
Si 10.1438 7.02437 14.2695
Si 15.6344 -0.0965415 12.5585
Si 12.8459 1.07148 12.818
Si 12.3867 5.84502 9.5205
O 9.41278 6.29105 15.3753
O 14.9319 1.1619 16.2817
O 14.6817 16.9745 14.0909
O 3.58295 4.06891 15.6641
O 12.3898 16.0537 12.555
O 12.8617 4.59626 10.3546
O 10.0127 5.62578 13.2515
O 12.6019 7.20511 10.5933
O 12.9967 2.35299 11.7816
O 14.1675 0.134441 11.9527
O 11.7695 7.04908 14.5706
O 0.787999 0.889793 11.5395
Si 0.0696946 14.0986 14.1193
Si 3.94419 10.6341 9.44636
Si 1.74335 16.4021 15.7098
Si 4.62546 11.9427 12.165
Si 1.85877 11.5246 13.6999
Si 3.12337 1.85771 13.0606
O 1.78465 15.9744 0.106388
O 0.796643 10.7373 14.5976
O 6.04075 11.5841 11.8018
O 2.87858 0.510428 12.8599
O 1.21 11.5498 12.2514
O 8.21819 3.42486 12.8424
O 1.24561 12.913 14.3208
O 4.29951 16.4858 11.1787
O 0.88878 15.2341 14.9643
O 9.27896 13.4501 11.8
O 2.63406 1.98331 14.6239
O 4.28483 13.5863 11.9125
Si 1.5246 14.4535 9.06326
Si 7.4483 11.0318 11.019
Si 7.07048 15.8384 13.6759
Si 9.28018 10.8168 14.5851
Si 8.86878 13.7202 10.1962
Si 9.75654 16.5525 14.2359
O 3.56053 13.6947 1.27197
O 10.2273 14.4018 14.03
O 7.48175 14.3204 13.4953
O 9.77159 11.4002 16.0022
O 7.79181 12.4324 10.0829
O 7.82099 14.7934 10.111
O 3.94031 11.1798 10.9328
O 11.4555 0.419592 12.3121
O 8.20711 16.2322 14.6154
O 10.7298 10.0764 14.0915
O 8.05142 16.4488 0.98248
O 8.0137 10.0455 15.3703
Si 12.0693 14.8356 13.6764
Si 12.6581 8.60333 11.1827
Si 11.0117 17.662 16.6873
Si 13.8605 10.909 0.870428
Si 12.6638 9.9297 13.8902
Si 13.3609 12.9205 15.6912
O 10.8323 16.8067 15.3892
O 13.4728 9.56538 1.57678
O 13.2405 8.88198 14.8009
O 0.96557 17.7904 15.4016
O 12.6345 9.42509 12.4502
O 14.6947 13.552 15.2639
O 13.2964 11.4896 14.7695
O 12.3858 13.7507 12.5135
O 12.5195 14.109 14.9029
O 14.6493 10.2449 16.5636
O 11.6305 17.8447 1.18182
O 13.0901 12.0521 17.1018
324
 Atoms. Timestep: 28000
Si 0.475172 4.85744 -0.024463
Si 4.52897 16.5463 15.4211
Si 4.74192 6.99554 4.80539
Si 3.96618 2.11961 6.1102
Si 2.09658 0.704831 3.9321
Si 4.61958 4.8227 2.73345
O 4.93167 6.21914 6.11628
O 4.32954 1.8675 9.6472
O 3.23439 1.08275 4.94903
O 7.56936 8.27772 16.4755
O 2.54657 1.55982 2.59628
O 2.87066 5.72651 2.99392
O 1.7927 4.76113 1.1623
O 2.56802 6.96149 16.9085
O 5.24108 5.87882 3.70573
O 5.16961 1.19654 6.48148
O 3.5849 7.95314 4.1679
O 4.43393 3.61395 6.0446
Si 2.80611 6.20674 1.38283
Si 7.67022 17.4823 0.325223
Si 8.60954 4.653 5.21493
Si 9.60789 2.39269 3.44939
Si 6.29014 0.499204 3.04664
Si 8.66729 4.81843 2.24348
O 7.06395 4.63774 5.94342
O 6.82398 1.10986 4.53105
O 8.8977 3.2005 2.11019
O 12.4886 4.49944 1.53182
O 6.9355 0.648845 16.6176
O 9.03915 5.41071 0.804235
O 4.99101 1.19886 2.46844
O 9.13302 9.34948 0.524061
O 7.86791 5.39007 3.64639
O 11.0499 3.03411 3.12341
O 5.94564 8.08964 5.10493
O 10.2496 5.16617 2.68637
Si 8.39374 5.2883 16.2563
Si 14.8947 17.9483 15.3564
Si 12.8978 4.37137 5.81194
Si 14.8376 1.29619 3.01398
Si 14.12 2.38797 17.0035
Si 13.2752 5.58984 0.581498
O 12.0166 4.69841 4.54087
O 13.7647 1.72175 4.08066
O 14.6068 1.92911 1.58015
O 12.9263 7.08034 1.4433
O 12.8644 2.94665 16.2039
O 15.3381 3.29472 16.6203
O 14.8495 5.40977 0.911754
O 13.0179 6.41365 16.1827
O 14.4289 4.4817 4.86647
O 0.538351 1.0507 3.88247
O 14.7292 7.36203 5.47643
O 13.6753 3.50842 6.92706
Si 0.488785 14.5862 1.79434
Si 0.72274 10.1194 15.8877
Si 2.65728 15.6126 3.75503
Si 4.06838 12.3089 2.01613
Si 1.05297 11.4226 1.60443
Si 4.25491 15.0803 0.924208
O 13.5581 14.6411 8.4016
O 3.16904 9.92163 5.92984
O 2.60125 11.7819 2.16892
O 5.77684 15.2257 1.83203
O 1.15603 11.0202 17.1103
O 2.909 16.1747 15.3874
O 0.712402 12.923 1.42696
O 4.62328 16.1575 16.9559
O 3.49182 16.0175 2.28102
O 5.23882 11.6453 0.83334
O 2.86372 2.11137 7.42814
O 4.37489 12.4753 3.5719
Si 8.93275 13.5724 12.7936
Si 8.21276 9.74744 16.3719
Si 6.26544 15.5453 3.31846
Si 8.10619 11.4319 3.84342
Si 6.73438 11.918 0.85806
Si 9.31918 15.4662 2.13238
O 5.47907 14.5537 4.21288
O 7.39896 10.2927 4.72703
O 8.00384 12.7498 0.364266
O 8.80327 12.7459 4.20782
O 7.1816 10.5441 0.216356
O 9.65918 14.1649 1.42553
O 9.13664 12.0703 13.5574
O 7.32685 0.105449 1.9656
O 7.90725 15.3175 3.07739
O 9.09688 10.3463 3.21547
O 5.57552 17.0452 3.61928
O 7.29493 11.5907 2.39316
Si 9.46741 12.9438 0.387488
Si 12.5635 7.74918 15.4784
Si 11.4449 17.4733 2.76852
Si 11.928 8.29726 1.28736
Si 9.909 10.2727 1.72328
Si 14.1585 16.298 3.2833
O 11.9109 12.9163 7.33305
O 0.0952008 9.23204 7.01975
O 11.1025 9.21909 2.354
O 1.57749 14.8887 2.83627
O 11.3504 8.12471 16.7278
O 14.8432 15.4891 2.09089
O 10.0235 11.7823 1.32102
O 14.5634 17.649 2.65215
O 10.0208 16.5143 2.85436
O 15.0461 11.0269 1.56314
O 11.7208 0.187172 4.14957
O 12.7039 16.351 2.75243
Si 13.5075 2.18506 8.2081
Si 3.023 1.48334 8.96675
Si 0.906923 6.05164 8.2395
Si 5.82626 2.00602 10.4233
Si 14.3997 17.6349 7.10256
Si 3.94048 5.80516 8.99529
O 0.273332 5.28114 9.38763
O 5.91225 0.646868 11.2317
O 1.89754 1.90615 9.8605
O 6.81212 7.92904 8.87496
O 0.636758 15.9585 9.87792
O 4.678 4.81651 8.08066
O 14.572 1.14691 7.8896
O 2.35581 5.94359 8.66185
O 3.36711 4.48796 10.0515
O 7.05324 2.25474 9.55876
O 0.686024 7.5427 8.66501
O 5.50345 3.46107 10.8513
Si 5.51988 4.83855 6.60472
Si 6.67794 0.635748 6.05726
Si 6.23661 8.78263 10.1009
Si 9.1863 4.91963 9.13671
Si 8.20035 2.20409 8.33751
Si 8.069 7.85929 7.92483
O 4.90674 6.01988 10.4054
O 9.89939 16.4647 12.5562
O 8.59429 3.80622 8.17976
O 8.96755 8.9452 8.9728
O 7.54731 1.38899 7.13837
O 8.48884 6.30887 8.47173
O 9.00212 3.34347 4.62875
O 9.4373 5.75694 5.59825
O 7.56993 8.79155 6.7986
O 10.8131 5.00187 9.0188
O 6.5678 10.4709 9.86082
O 8.81182 4.89413 10.6078
Si 11.69 4.53158 3.0409
Si 12.5402 1.28947 4.98206
Si 9.71063 9.94909 9.80943
Si 0.934913 2.10783 11.0191
Si 10.7211 1.1978 7.39674
Si 15.1768 5.82231 5.51297
O 10.9268 9.21758 10.4971
O 12.1569 16.5333 10.3933
O 12.134 1.48276 8.15578
O -0.0238113 5.67308 6.94157
O 10.5389 17.5714 7.08499
O 13.5378 2.7917 9.66798
O 9.72924 1.46682 8.79939
O 14.7034 11.5749 9.03265
O 13.2789 5.7945 6.3397
O 13.2588 17.0117 8.1587
O 10.5708 10.8036 8.69882
O 15.2572 2.98435 11.4399
Si 14.3603 13.2824 8.7965
Si 2.68164 9.11999 4.80995
Si 14.2167 13.0179 12.0051
Si 4.27194 14.2996 10.4365
Si 0.733128 9.0085 8.39646
Si 1.39452 16.9473 8.55934
O 5.92154 15.6884 14.9052
O 2.32138 9.33542 8.66454
O 3.74406 11.159 7.98166
O 2.07381 15.2542 8.10332
O 1.58232 7.82999 5.72548
O 3.07549 14.4367 4.72798
O 0.348642 13.6839 8.57117
O 2.50445 17.9043 8.78836
O 15.3473 13.8594 12.7397
O 2.68961 14.5689 10.5813
O 0.320076 17.0454 7.35165
O 3.5575 10.9935 12.8311
Si 4.46805 13.6128 4.99994
Si 6.68028 9.50012 5.73415
Si 6.66185 15.2522 9.33044
Si 10.5707 12.1537 7.71384
Si 4.26478 11.0108 6.37591
Si 7.60277 15.7163 6.52238
O 5.72717 14.0807 9.8911
O 8.89853 10.8001 10.9181
O 12.9506 11.4743 5.09811
O 11.5127 1.81561 6.03936
O 5.77833 10.5055 6.54793
O 8.1264 14.235 6.20932
O 3.59826 12.3598 5.79137
O 7.39677 17.1419 5.95543
O 6.59247 15.737 7.735
O 9.66135 12.8417 8.83541
O 6.1827 16.8665 9.83124
O 9.71165 12.27 6.31415
Si 9.34453 13.6356 5.36459
Si 15.5799 8.80378 5.531
Si 10.6247 16.0728 6.88657
Si 14.2564 10.3778 10.1146
Si 13.1586 11.8434 6.43267
Si 12.6618 15.8311 9.03759
O 9.09284 15.797 7.5697
O 13.4815 8.94788 10.0391
O 1.06747 9.97188 4.49805
O 14.1553 13.3975 10.4365
O 14.2809 12.9385 6.45461
O 2.12671 17.1277 3.8647
O 10.7239 14.6982 5.99765
O 13.26 0.199629 5.97953
O 11.3524 15.8408 8.30413
O 0.182336 9.82416 9.91959
O 11.2658 1.23544 16.262
O 14.5642 11.5311 11.5803
Si 13.9729 3.691 10.8437
Si 6.32495 0.841078 15.0543
Si 1.73376 7.15734 15.6515
Si 3.74254 1.9666 1.7635
Si 4.03604 2.73066 15.7107
Si 3.76511 5.47278 14.2444
O 0.621028 5.94701 16.0174
O 5.14521 17.9167 15.3331
O 3.84585 1.7753 0.0202249
O 4.98957 6.40872 14.7212
O 1.91566 2.69426 12.205
O 3.69673 5.3076 12.6488
O 0.296556 0.921929 14.3161
O 4.82735 9.28569 9.38025
O 2.5955 6.53381 14.4295
O 6.81968 16.4869 12.2485
O 1.22445 8.70925 16.2587
O 4.52122 5.78984 1.14424
Si 4.64398 4.59123 11.4647
Si 5.51341 17.0857 11.3294
Si 6.32909 7.4433 15.5008
Si 11.6734 2.49349 15.2556
Si 8.81252 2.81546 14.6464
Si 7.64117 7.45615 12.492
O 6.93532 6.01583 16.0363
O 9.11323 0.682547 0.262607
O 7.71294 1.68387 14.5811
O 9.20592 7.62912 12.9294
O 10.3404 3.13001 14.8983
O 7.74488 5.88643 12.5377
O 5.54823 2.43364 15.4942
O 7.23578 8.26749 11.218
O 7.08005 7.45694 14.07
O 12.4987 1.67731 14.0106
O 3.92158 3.53162 2.21715
O 8.17002 3.82261 15.6851
Si 8.75112 4.72536 12.0512
Si 11.2315 16.6361 11.6042
Si 10.0993 6.73213 13.9627
Si 15.3084 17.8568 12.6057
Si 12.5916 1.30747 12.2323
Si 12.2962 5.78516 9.3812
O 9.34882 5.81892 15.2039
O 14.4666 1.12526 16.2857
O 14.6844 16.8666 13.8747
O 3.88306 4.246 15.185
O 12.233 15.8102 12.9136
O 12.953 4.82762 10.5526
O 10.1546 5.53979 12.743
O 11.6221 7.04808 10.4367
O 12.8887 2.87119 12.0469
O 14.012 0.644595 12.1231
O 11.6328 6.85931 14.5359
O 0.755636 0.656508 11.7205
Si 0.490749 13.9025 14.3075
Si 3.42348 10.3479 9.25492
Si 1.4264 16.0397 16.3199
Si 4.52126 11.5674 11.6919
Si 2.00753 11.3907 13.4927
Si 3.39254 2.11463 12.7707
O 1.05963 15.4477 0.574162
O 1.15162 10.4465 14.3811
O 6.076 11.6826 12.111
O 3.6846 0.814562 12.3113
O 1.35468 11.5418 12.0065
O 8.55285 3.85282 13.2693
O 1.78315 13.0211 13.972
O 4.6363 15.6793 11.2341
O 0.836202 15.1846 15.2218
O 9.79356 13.8435 11.4051
O 3.37499 1.92348 14.4384
O 4.098 13.2502 12.1867
Si 1.45885 14.3987 9.53539
Si 7.47646 11.3343 11.1558
Si 6.9009 15.5672 13.6047
Si 10.1581 11.4987 14.5685
Si 9.24585 13.8728 9.89676
Si 9.70535 16.5245 14.1547
O 3.99487 13.6845 1.4213
O 9.9342 14.5127 14.5152
O 7.57679 14.3698 13.0341
O 10.1765 12.8105 15.7275
O 7.80068 12.8766 10.4958
O 8.32829 15.1219 9.62889
O 3.65291 11.4104 10.384
O 11.5633 0.0886179 12.0367
O 8.15444 16.268 14.2892
O 11.1078 10.577 13.4928
O 8.64427 16.3145 0.96499
O 9.23361 10.4974 15.4341
Si 11.7177 14.2379 13.2888
Si 12.1282 8.34655 11.0089
Si 10.5533 17.9373 16.8454
Si 13.8398 10.8498 0.591487
Si 12.7467 10.0362 13.6184
Si 13.4757 12.7878 15.128
O 9.85757 17.1842 15.6439
O 13.1751 9.29795 1.13887
O 12.5651 9.18573 14.7836
O 0.738414 17.4391 15.9982
O 12.6443 8.98811 12.3777
O 14.9482 13.1764 15.1694
O 13.2324 11.4143 14.2403
O 12.5749 13.241 12.4295
O 12.7968 14.244 14.4536
O 14.8063 10.2968 16.2909
O 11.3489 0.0653259 1.18663
O 13.3908 12.2104 16.7354
324
 Atoms. Timestep: 28500
Si 0.549821 4.57263 16.8316
Si 4.55578 16.5925 15.4884
Si 5.16258 7.02934 4.67506
Si 3.90708 2.046 6.24607
Si 2.04716 0.921877 3.94958
Si 4.22087 4.47154 3.12057
O 5.37587 6.02564 5.84849
O 4.66928 1.33768 9.12834
O 3.00608 1.60097 4.93697
O 7.15045 8.21331 16.4933
O 2.96954 0.867118 2.48711
O 2.49555 4.91962 2.79584
O 2.00446 4.28544 0.500623
O 2.62389 6.63993 16.985
O 4.69758 5.99444 3.64263
O 5.11816 0.977419 6.10981
O 3.80677 7.65201 5.01049
O 4.55421 3.56355 5.93509
Si 2.57277 5.74807 1.34265
Si 7.88827 -0.0311602 0.48798
Si 8.10398 4.73806 5.01951
Si 9.41326 2.97094 3.08251
Si 6.10327 0.455429 2.85758
Si 8.67968 5.67563 2.11462
O 6.95811 4.27784 5.98187
O 6.573 1.33116 4.19603
O 8.69561 3.86742 1.92724
O 12.5304 4.80839 1.6226
O 7.27898 1.16568 16.5656
O 8.39809 5.68258 0.535881
O 5.12345 1.25416 1.7751
O 8.9945 9.59991 0.832988
O 8.4147 5.72124 3.74775
O 11.0433 3.33304 3.11878
O 6.09326 8.20879 4.87732
O 10.1864 5.60562 2.21553
Si 8.40899 5.27967 16.1381
Si 15.4905 17.7788 15.5368
Si 12.6155 4.40562 5.69242
Si 14.8922 1.37215 2.82409
Si 14.2104 2.19939 16.9535
Si 13.491 5.59353 0.687292
O 12.0351 5.18572 4.47521
O 13.771 1.77591 3.86794
O 14.056 1.77799 1.45166
O 12.9951 6.99746 1.3323
O 13.0825 2.85361 15.9992
O 15.3792 3.06164 16.7757
O 15.0827 5.42328 0.787669
O 13.4975 6.07695 16.2353
O 14.2953 4.90182 4.84504
O 0.663249 1.40792 3.68553
O 14.7008 7.75695 5.60209
O 13.2073 3.55717 6.90688
Si 0.641763 14.5433 1.79214
Si 1.57174 10.0368 16.085
Si 2.71096 15.9496 3.586
Si 3.82343 12.765 1.9301
Si 1.34924 11.1621 1.62023
Si 4.45771 15.4628 1.25048
O 13.461 14.5233 8.5656
O 2.88831 9.94563 5.96363
O 2.78642 11.4784 2.0928
O 5.50544 15.1067 2.33438
O 1.46835 11.3067 16.8719
O 3.25407 15.8539 15.5898
O 0.735801 12.8906 1.90288
O 4.71935 16.6878 0.154656
O 3.31753 16.1832 2.19019
O 5.04965 12.165 1.24662
O 2.93807 1.956 7.59216
O 4.49143 13.0458 3.39236
Si 8.97047 13.6846 13.0806
Si 7.9165 9.72025 16.7643
Si 6.23072 15.5789 3.71542
Si 8.08206 11.3435 3.88781
Si 6.83213 12.0351 1.24302
Si 8.73537 15.6939 2.14119
O 5.78431 14.4052 4.7575
O 7.52491 10.3423 4.82143
O 7.9485 12.9757 0.578049
O 9.03607 12.6675 4.17611
O 6.99442 10.8577 0.320107
O 9.44076 14.7259 1.2586
O 9.04029 12.1192 13.66
O 7.43805 0.701655 1.90058
O 7.7826 15.3259 3.40937
O 9.43159 10.6128 3.32538
O 5.7136 17.0377 3.34388
O 7.23822 11.495 2.6453
Si 9.59007 13.139 0.698018
Si 12.1992 7.48811 15.6253
Si 11.3933 17.179 2.31418
Si 12.4637 8.38658 1.2804
Si 10.1022 10.2809 1.90824
Si 14.1924 16.3676 2.90764
O 11.6703 11.6053 7.24013
O 0.338875 9.34018 7.16685
O 11.0486 9.14533 1.85107
O 1.41018 15.0829 3.05626
O 11.4913 7.79414 17.0414
O 14.9378 15.5097 1.78438
O 10.0329 11.7576 1.42268
O 14.3617 17.8615 2.63186
O 10.0498 16.6249 2.61512
O 15.4754 10.623 1.30468
O 11.6519 0.0934478 3.56103
O 12.5622 15.9835 2.56189
Si 13.4316 2.51283 8.11687
Si 3.14482 1.50185 9.13974
Si 0.987009 5.72013 8.38821
Si 5.87528 1.89429 9.99
Si 14.4769 17.6732 6.96086
Si 3.93441 5.64459 9.11099
O 0.274374 5.00353 9.86157
O 5.93658 0.706111 11.374
O 1.90939 2.15836 10.1153
O 6.71277 7.54383 8.85187
O 1.07734 15.9739 9.75536
O 4.84451 4.81477 8.02343
O 14.2005 1.20328 7.48758
O 2.53217 5.18529 8.22382
O 3.25764 4.31881 10.1208
O 7.4976 1.49732 9.24345
O 1.03456 7.23295 8.76435
O 5.60123 3.29908 10.8716
Si 5.52176 4.59467 6.61635
Si 6.85427 0.924558 5.67227
Si 5.96406 8.55832 9.93241
Si 9.45584 5.05806 9.02371
Si 8.20235 2.23992 8.10925
Si 7.91071 7.61016 7.92589
O 5.3162 5.67346 10.2757
O 10.4183 17.1146 12.7579
O 8.98947 3.80085 8.10233
O 9.05748 8.44897 8.84362
O 7.29877 1.89469 6.86791
O 8.47161 6.24706 8.40885
O 8.79152 3.42397 4.38064
O 9.44076 5.17336 5.84318
O 7.27231 8.93899 7.13294
O 10.8405 5.99313 9.36917
O 6.64947 10.0823 9.77379
O 8.57907 4.51654 10.3734
Si 11.5719 4.82636 2.92738
Si 12.7605 0.677618 4.67049
Si 9.88975 9.71615 9.32353
Si 0.772482 2.35432 11.2935
Si 10.9354 1.20987 7.20274
Si 14.7768 6.06785 6.07295
O 11.0586 9.08579 10.2637
O 12.1944 16.2376 10.3062
O 11.9204 1.8938 8.2849
O 15.59 5.23331 7.24714
O 11.2019 17.7314 7.32391
O 13.7726 2.64974 9.67105
O 9.54767 1.40993 7.92719
O 13.6557 11.731 9.34573
O 12.9668 5.85245 6.50699
O 13.2127 16.8248 7.84422
O 9.27518 10.8957 8.13429
O 15.2855 3.44005 11.8205
Si 14.5115 13.1058 8.78037
Si 2.54575 8.61388 4.99801
Si 14.1122 13.2886 11.7515
Si 4.38796 14.8193 10.9204
Si 0.648057 8.7579 8.81626
Si 1.35198 17.1671 8.6781
O 5.54348 15.4379 15.1182
O 2.11852 9.24125 8.94203
O 3.55471 11.1799 8.17581
O 2.34778 15.5225 8.015
O 1.55346 7.928 6.05477
O 3.2395 14.8357 4.50019
O 0.270504 14.084 8.49483
O 2.60423 -0.0181296 8.74381
O 14.9164 14.1772 13.0053
O 2.88664 14.6276 10.1316
O 0.154305 17.1242 7.79362
O 3.95726 11.5542 13.3151
Si 4.24883 13.6379 4.79505
Si 6.67624 9.39376 5.7701
Si 6.61358 15.5324 9.18886
Si 10.1074 12.1677 7.7527
Si 3.96227 10.9356 6.65678
Si 7.8317 15.9241 6.52337
O 5.42425 14.7685 9.61415
O 8.7616 9.95756 10.5411
O 12.5068 12.9616 5.1896
O 11.944 1.45751 5.73628
O 5.43102 10.1342 6.34769
O 8.2656 14.6373 5.60148
O 3.67235 12.0719 5.29293
O 7.62154 17.5681 6.04475
O 6.76886 15.9076 7.62063
O 10.2287 13.124 9.10924
O 7.02373 16.7079 10.4214
O 9.34523 12.9318 6.64057
Si 9.53069 13.8001 5.18447
Si 15.5251 9.00738 5.68735
Si 10.8262 16.2112 6.46561
Si 14.3342 10.5865 10.3913
Si 12.801 11.8834 6.03001
Si 12.5514 15.7493 8.78026
O 9.35927 16.1507 7.11882
O 13.3934 9.26353 10.9615
O 0.865721 8.88241 4.15324
O 14.5082 13.6419 10.3747
O 14.1359 12.1365 6.73291
O 2.06559 17.3879 4.03178
O 10.7315 15.0804 5.32299
O 13.7092 17.6547 5.48638
O 11.315 15.2854 7.81623
O -0.0024183 10.0249 9.60376
O 11.5528 0.994789 16.3264
O 14.2651 11.4726 11.6277
Si 13.6813 3.6008 11.0498
Si 6.14196 1.20967 15.3829
Si 1.95488 6.97363 15.6952
Si 3.73963 2.049 1.71601
Si 4.18989 3.5251 15.9495
Si 4.1821 5.87434 14.0738
O 0.657119 5.81001 15.8228
O 5.2138 17.9292 15.1165
O 3.61381 2.97179 0.228561
O 4.92431 7.07022 14.7511
O 1.97414 2.2952 12.5998
O 4.12762 5.37507 12.535
O 0.548991 0.812506 14.2957
O 4.58871 8.99655 9.11083
O 2.80424 6.11748 14.5605
O 6.60782 16.5084 13.2316
O 1.66917 8.46113 15.2706
O 4.14885 5.35115 1.21566
Si 4.55753 4.33878 11.4149
Si 6.07131 17.1916 11.6596
Si 6.27927 7.49533 15.4413
Si 11.6019 2.52773 15.3019
Si 8.56517 2.84699 14.466
Si 7.79769 7.69629 12.3868
O 7.17042 6.20893 15.5658
O 9.44479 0.495221 0.248621
O 7.32757 1.86474 14.3549
O 9.21315 7.37042 13.1551
O 9.92629 2.53994 14.9774
O 7.63859 6.12493 12.0297
O 5.2212 2.33361 15.8124
O 6.82474 8.26178 11.228
O 6.92655 7.86144 13.6864
O 12.0663 1.5859 14.0933
O 3.95041 3.01376 2.92071
O 8.08362 3.8017 15.8359
Si 8.33871 4.66581 11.9539
Si 11.5024 16.8109 11.6634
Si 10.2127 6.31558 13.7366
Si 15.1233 0.160006 12.9062
Si 12.4115 1.43633 12.682
Si 12.43 6.0929 9.715
O 9.59913 5.74071 15.1518
O 14.6631 0.883186 16.2365
O 14.3024 17.3604 14.2042
O 4.78181 4.53155 14.7956
O 12.419 15.947 12.7109
O 12.7709 4.72114 10.1932
O 9.84878 5.31014 12.2462
O 12.4435 7.15243 11.0331
O 12.589 2.87002 11.9014
O 14.003 1.18832 13.0543
O 11.4222 7.28021 14.119
O 0.104762 0.916119 11.6011
Si 0.645622 13.8981 13.8365
Si 3.40682 10.1253 9.41745
Si 1.93203 15.3277 16.1258
Si 4.46067 11.8455 11.7156
Si 2.17008 11.2169 13.3461
Si 3.11746 1.8375 13.6962
O 1.03499 14.8286 0.128373
O 1.41156 10.7775 14.614
O 6.06927 11.6027 11.6778
O 2.76437 0.645489 14.2659
O 1.70498 10.507 11.9901
O 8.5432 3.46946 13.0043
O 1.29887 12.654 13.1722
O 4.85977 16.2173 11.4343
O 1.7303 14.1006 15.0684
O 9.31969 13.4541 11.5738
O 3.12607 2.80092 14.997
O 4.46932 13.3614 11.752
Si 1.68691 14.4413 8.98327
Si 7.51405 10.867 10.9524
Si 6.87867 15.315 14.3058
Si 9.50666 11.6127 15.0255
Si 8.75267 13.4215 10.1308
Si 9.56696 16.4382 13.9497
O 3.54838 13.9181 0.635065
O 10.4611 15.1173 14.3454
O 7.45514 14.0013 13.4585
O 9.61637 12.6099 16.2228
O 8.14595 12.052 10.0029
O 7.78932 14.5079 9.50565
O 4.1027 10.91 10.5402
O 12.2013 0.250955 11.7617
O 8.08202 15.8583 15.2325
O 10.7488 10.6911 15.0237
O 7.86396 16.5401 0.985756
O 8.37094 10.6917 15.5684
Si 11.8431 14.3382 13.3447
Si 12.1164 8.67023 11.6407
Si 10.682 17.5517 16.456
Si 14.3896 10.4838 0.0877715
Si 12.1545 10.0756 14.4326
Si 13.6492 12.5357 15.0878
O 10.018 17.5916 15.0212
O 13.1679 9.81048 0.796436
O 12.9906 8.86827 15.196
O 0.613956 16.3284 15.3952
O 11.9748 9.52357 12.9883
O 15.1282 13.0536 14.9211
O 13.3257 11.2061 14.2178
O 12.64 13.5668 12.0452
O 12.8908 13.8945 14.5446
O 15.5824 9.79925 16.3126
O 11.2369 17.1505 0.690661
O 13.9261 11.8456 16.665
324
 Atoms. Timestep: 29000
Si 0.143463 4.4482 16.7686
Si 4.73893 16.4715 15.5673
Si 4.69235 6.99857 4.95228
Si 3.34807 2.33265 6.37057
Si 1.92405 0.85673 3.91015
Si 3.44401 5.0256 3.19119
O 4.92523 5.96189 6.08049
O 4.67507 1.24241 9.6389
O 2.64093 1.80952 4.93721
O 6.53222 8.74219 16.5496
O 3.05443 1.02158 2.71023
O 1.76321 6.16238 2.88452
O 1.31924 4.72925 0.918623
O 2.40941 6.41563 16.8854
O 4.935 6.12072 3.52712
O 4.62922 1.07385 6.1923
O 3.29959 7.98199 4.59874
O 3.96802 3.61535 5.7097
Si 1.88297 6.26222 1.31791
Si 7.92394 17.6872 0.638791
Si 7.7667 4.78877 4.61644
Si 9.43967 3.03447 2.95039
Si 6.64293 1.0265 2.99802
Si 8.55579 5.67127 1.76404
O 6.44729 4.20087 5.42001
O 6.18608 1.6826 4.37303
O 8.91114 4.0558 1.87899
O 12.3728 5.00021 1.69374
O 6.39517 17.9976 -0.0509799
O 8.82996 5.86987 17.068
O 5.34724 1.55304 2.15084
O 9.11459 9.38243 0.681707
O 7.99354 6.00193 3.50535
O 10.8016 3.75147 3.13629
O 6.15037 7.81258 5.17599
O 10.0598 6.26637 2.46875
Si 8.23382 5.82943 15.6649
Si 15.3245 17.3402 15.7248
Si 12.9347 4.456 5.68823
Si 14.7495 0.719788 2.23992
Si 14.2505 1.94098 16.5219
Si 13.2531 5.70647 0.324552
O 12.4589 5.08111 4.38003
O 13.8295 0.599162 3.37286
O 14.1505 1.6372 1.06862
O 13.3644 6.95031 1.17012
O 12.9009 2.93747 16.185
O 0.00489566 2.7568 16.3963
O 14.6563 5.1286 0.459913
O 13.2299 6.45293 16.1055
O 14.9185 4.4928 5.36973
O 0.56161 0.941457 2.84124
O 15.1943 7.51563 5.68697
O 13.0511 3.53932 6.95134
Si 0.832698 14.6469 1.26288
Si 1.70141 9.75755 16.1495
Si 2.29815 15.949 3.77375
Si 3.94633 12.9193 2.291
Si 1.31365 11.5217 1.39176
Si 4.23213 15.7772 1.42411
O 13.2699 14.4878 8.3699
O 3.63148 10.3983 5.05214
O 2.59597 12.2728 2.03049
O 5.80094 15.6496 1.89712
O 2.23957 10.802 0.12984
O 3.35322 15.883 15.0281
O 0.659653 12.9773 0.912557
O 4.43224 16.1817 17.1842
O 3.54418 16.1867 2.86078
O 5.0597 11.8089 1.67088
O 2.75634 1.82901 7.7526
O 3.98518 13.1699 3.7882
Si 8.89599 13.4987 13.0678
Si 7.80816 9.73737 16.9848
Si 6.50036 16.0444 3.43581
Si 8.1005 11.2703 4.32886
Si 6.59918 11.6057 1.81954
Si 9.03924 15.0273 2.14431
O 5.51345 15.0407 4.20955
O 8.15241 9.75042 5.15266
O 7.59783 12.3642 0.756499
O 8.5696 12.7962 4.78003
O 6.92054 10.1863 1.12211
O 9.58717 13.8224 1.28355
O 9.65084 12.0989 13.5682
O 7.63471 0.461893 1.82436
O 8.02617 15.7489 3.33817
O 9.17048 10.9295 3.2483
O 6.13406 17.6278 3.40996
O 6.75818 11.3976 3.42966
Si 9.20165 12.4981 0.394209
Si 11.9292 7.59657 15.7126
Si 11.5595 16.7662 2.19275
Si 12.4881 8.3787 1.49198
Si 9.84416 10.0123 1.8636
Si 14.3689 15.9185 2.56467
O 11.8562 11.941 6.92584
O 0.090964 9.17439 7.93373
O 11.4671 9.59105 1.99179
O 1.44951 14.8496 2.75911
O 11.7002 8.24209 -0.0657522
O 14.9855 14.9883 1.48276
O 10.0026 11.4729 1.23758
O 14.5619 17.2705 1.73032
O 10.3821 15.8096 2.33889
O -0.0241354 10.675 1.01985
O 11.6949 17.6588 3.55878
O 12.9033 15.8056 2.58948
Si 13.2999 2.20198 7.70464
Si 2.95169 1.26029 9.18505
Si 1.18893 6.04022 8.95394
Si 6.13572 1.45749 10.5871
Si 13.9423 17.425 6.91001
Si 4.04048 5.34029 9.31789
O 0.00917799 5.42744 9.68706
O 5.99282 0.63719 11.9461
O 2.19607 1.70347 10.5185
O 6.72075 7.60222 8.76144
O 0.745733 15.7976 9.33779
O 4.6498 4.59267 8.09393
O 14.1955 0.954344 7.22357
O 2.59726 5.64848 8.64498
O 3.78078 3.88555 10.5119
O 7.38562 1.68567 9.34538
O 1.00608 7.52624 9.72267
O 5.97417 2.88277 11.0262
Si 5.39138 4.48536 6.51097
Si 6.32635 1.32752 6.04119
Si 6.0122 8.3579 9.99587
Si 9.35381 4.77393 9.31768
Si 8.21725 2.06367 8.15399
Si 8.27973 7.35249 8.3701
O 5.47343 5.36318 10.3264
O 10.4796 16.796 12.209
O 9.00069 3.39846 8.56704
O 9.20039 8.52517 9.06211
O 7.04031 1.79878 7.26092
O 8.92018 5.85045 8.34546
O 8.39804 3.33126 4.13292
O 8.82541 5.08985 5.65147
O 7.7906 8.08955 7.00469
O 10.9978 4.86129 9.67628
O 6.64868 9.72323 10.3043
O 8.70756 5.07974 10.6331
Si 11.3158 5.37684 3.09727
Si 12.6447 0.677554 4.38589
Si 9.53873 9.99729 9.62053
Si 1.02401 1.94978 11.4344
Si 10.5954 0.946929 6.55536
Si 15.0673 6.14136 6.18335
O 10.9426 9.51503 10.3547
O 12.0487 15.6733 10.5113
O 11.8487 1.64541 7.66702
O 0.574477 5.84873 7.52483
O 10.9451 17.5282 6.75776
O 13.878 2.83775 9.0199
O 9.39844 1.15488 7.60932
O 14.4049 11.3765 8.97692
O 13.3366 5.87306 6.57593
O 13.1954 17.1755 8.29281
O 10.0521 10.6294 8.14324
O 15.4639 2.49337 10.598
Si 14.5382 13.4038 8.21724
Si 2.48544 9.17793 4.95143
Si 14.41 13.5516 11.3327
Si 4.40383 15.1358 10.4073
Si 0.804258 9.00133 9.34466
Si 1.09446 17.2272 8.06358
O 6.2147 15.7828 15.2414
O 2.24459 9.78924 9.03064
O 3.98315 10.4739 7.41259
O 2.17637 15.8548 7.20463
O 1.90976 8.39496 6.39874
O 3.193 15.1074 4.86982
O 0.481722 13.9799 7.73014
O 2.24937 17.9253 9.15967
O 15.6082 14.0211 12.2669
O 3.07812 15.0789 9.44937
O 15.5559 16.9972 7.26426
O 3.71646 11.7793 12.7005
Si 4.54889 14.2557 4.96044
Si 7.00799 9.0311 6.14247
Si 7.11874 15.9861 9.3239
Si 10.6897 12.0867 7.97303
Si 4.67002 10.9856 6.16131
Si 7.3804 16.2514 6.33224
O 5.628 15.2296 9.38293
O 8.70695 10.476 11.0664
O 12.4769 13.5058 5.14895
O 11.2884 1.17452 5.18268
O 5.83669 10.0833 5.87304
O 7.6311 14.6954 6.77367
O 5.08015 12.7832 5.99812
O 6.64314 17.9253 5.81314
O 6.70644 16.6153 7.77595
O 10.2212 12.8279 9.35455
O 6.92038 16.8713 10.6607
O 9.28525 12.7252 7.28973
Si 8.71637 13.5039 6.1266
Si 0.169963 8.99758 6.38111
Si 10.3053 16.0866 6.81872
Si 14.2886 10.5847 10.2954
Si 12.9756 12.4454 5.85109
Si 12.4365 15.8219 8.98859
O 8.85622 16.7063 6.65288
O 13.4145 9.39194 11.1137
O 0.735766 10.1395 5.19076
O 15.0119 13.6955 9.76278
O 14.2374 12.8822 6.66947
O 1.93547 17.4814 4.17899
O 9.98115 14.4845 6.17522
O 13.102 17.6381 5.47506
O 11.1435 15.7177 8.021
O 0.0338619 9.66505 10.7233
O 11.0292 1.40633 16.3298
O 14.3245 11.9178 11.2382
Si 14.2636 3.41679 10.5051
Si 6.17657 1.13878 15.9958
Si 1.53614 6.69659 15.5361
Si 3.87798 2.14248 1.85216
Si 4.23855 3.61704 16.2212
Si 3.98335 5.82498 14.0921
O 0.282451 5.51694 15.5209
O 5.02379 -0.00958474 15.2986
O 4.15665 2.70239 0.297034
O 4.85222 7.16665 14.2699
O 1.8557 2.46286 12.8919
O 4.46277 5.33448 12.6653
O 0.314572 0.352515 14.3227
O 4.43289 8.88546 9.81396
O 2.60379 6.02353 14.6531
O 6.94355 15.9882 12.7067
O 1.90939 8.27442 15.5727
O 3.46937 5.53455 1.59601
Si 5.07203 4.15721 11.6462
Si 5.97404 17.0457 11.9826
Si 6.04466 7.6972 15.2034
Si 11.669 2.44143 15.1715
Si 8.42134 2.74824 14.8454
Si 7.53119 7.55559 12.5339
O 6.69555 6.27342 15.7869
O 9.04341 -0.0848894 16.9015
O 7.61972 1.45197 15.3856
O 9.21165 7.70251 12.7785
O 10.1706 2.86526 14.751
O 7.55565 5.889 12.5614
O 5.64691 2.72821 15.8019
O 6.40583 7.67845 11.2912
O 6.9741 8.15725 13.9077
O 12.3682 1.65975 14.1149
O 3.61122 3.56483 2.7207
O 8.07692 4.17763 15.4888
Si 8.41389 4.671 12.191
Si 12.176 16.7839 11.7333
Si 10.2315 6.68345 13.4853
Si 15.2828 18.0198 12.9757
Si 12.9097 1.68882 12.5802
Si 12.3908 5.70525 9.71049
O 9.25522 6.3676 14.7343
O 14.2996 0.451938 16.0136
O 14.2576 16.8228 14.3893
O 4.56977 4.79511 15.3088
O 12.4545 15.7681 12.8865
O 13.207 4.71462 10.718
O 9.94744 5.26103 12.7647
O 12.105 7.1636 10.7887
O 13.2905 2.34299 11.3066
O 14.2495 0.966955 12.913
O 11.5976 6.97152 14.2866
O 0.657257 0.505539 11.8863
Si 0.453734 13.4842 13.7556
Si 3.74407 10.1185 9.01514
Si 1.95487 15.5633 15.5696
Si 4.35459 12.1697 11.3137
Si 2.4037 11.2294 13.4732
Si 3.17166 2.16748 13.7925
O 1.79822 14.9892 17.0356
O 2.2518 10.636 14.9156
O 5.78086 11.7021 11.5723
O 2.87446 0.803915 13.9048
O 1.91611 10.1315 12.3933
O 8.17943 3.52378 13.3763
O 1.1677 12.254 13.3032
O 4.67681 16.6342 11.1608
O 1.03129 14.8959 14.4519
O 8.71877 13.4916 11.5418
O 3.11478 2.83964 15.3865
O 4.45003 13.742 10.9451
Si 1.72941 14.7499 8.43941
Si 7.26564 11.076 11.1475
Si 7.38321 15.6495 14.2621
Si 9.28301 11.1385 14.7499
Si 8.64437 13.3717 10.0154
Si 10.2457 16.5064 14.0291
O 4.10061 14.2988 1.50421
O 10.7144 14.9463 14.2975
O 7.48499 13.8615 13.7704
O 9.50129 12.0374 16.075
O 7.35366 12.2451 9.90508
O 8.08539 14.773 9.71097
O 3.71915 11.4364 9.89755
O 12.1791 0.352508 11.8022
O 8.73474 16.5291 14.2144
O 10.7101 10.4394 14.8329
O 8.4116 16.0394 1.00405
O 8.2986 10.0172 15.6001
Si 12.0857 14.2732 13.5099
Si 11.9177 8.69781 11.3865
Si 10.6925 0.0155066 16.7501
Si 14.6485 10.3561 -0.0269654
Si 11.9948 9.99922 14.0379
Si 13.7125 12.4651 15.2586
O 10.8407 17.3216 15.3449
O 13.6735 9.24465 0.795915
O 12.856 8.79298 14.9366
O 1.23082 17.0369 15.9132
O 11.4399 9.46758 12.5928
O 15.1658 12.9317 14.9957
O 12.7956 11.4483 14.3199
O 13.2661 13.7319 12.3864
O 13.0854 13.976 14.8219
O 0.0398188 10.0501 15.9686
O 11.1909 17.6158 0.842468
O 13.8821 11.6316 16.5818
324
 Atoms. Timestep: 29500
Si 15.5065 4.66046 17.0967
Si 4.76627 16.5523 15.485
Si 4.29524 7.26622 5.10296
Si 3.32548 2.31345 6.02572
Si 1.76262 0.619969 3.96214
Si 3.96152 5.23347 2.93221
O 3.99948 6.53212 6.44272
O 4.72558 1.21784 9.52969
O 2.2648 1.63713 4.96086
O 6.37653 8.23786 16.3617
O 2.76696 1.39463 2.85683
O 2.14044 5.64703 2.96725
O 1.14791 4.91231 0.784687
O 1.86289 6.8652 -0.062124
O 4.52814 6.55844 3.54523
O 4.81593 1.84159 5.86328
O 3.50838 8.52168 5.08293
O 3.47987 3.84295 5.85868
Si 1.88751 6.24271 1.36676
Si 8.15402 17.956 0.921218
Si 6.89817 4.54493 4.39101
Si 9.28859 3.40103 3.30645
Si 6.46705 0.588269 3.20891
Si 8.38482 5.90175 2.25497
O 5.6435 4.88013 5.18678
O 6.75193 1.26807 4.70955
O 8.89056 4.16529 1.95946
O 12.169 5.07514 1.51637
O 7.11081 0.499265 17.0961
O 8.3292 5.8624 0.721869
O 5.16146 1.4301 2.94397
O 8.81618 8.98951 0.779443
O 6.77289 4.97232 2.68229
O 10.7028 3.97922 3.5477
O 5.89849 7.94324 5.30993
O 10.2233 6.07803 2.70334
Si 8.2065 5.41983 16.4377
Si 0.234659 -0.0120921 15.6148
Si 13.5959 4.80262 5.40078
Si 14.911 0.826528 2.48903
Si 14.055 1.9015 16.8706
Si 13.0575 5.99306 0.673207
O 12.9215 5.09561 4.01786
O 13.5402 1.09628 3.27908
O 14.5744 1.2864 1.03977
O 12.8186 7.43083 1.36335
O 12.9677 2.65864 15.8025
O 15.2602 3.14392 16.8743
O 14.5601 6.39707 0.285595
O 12.4029 6.17433 16.3416
O 15.5718 5.18103 4.89207
O 0.405007 1.38111 3.28817
O 0.291086 7.59977 5.72072
O 13.7876 3.706 6.39952
Si 1.23388 14.4132 0.517809
Si 1.70719 9.77977 15.99
Si 2.75515 15.9629 3.18099
Si 4.14245 12.7841 2.00717
Si 1.58281 11.3803 1.33478
Si 5.01517 15.4119 1.00653
O 13.3106 15.0602 8.59532
O 3.79635 11.1489 5.50666
O 3.16799 11.5549 1.77911
O 6.16545 15.0441 2.09586
O 2.17 10.4319 -0.00421781
O 3.34845 16.249 14.5925
O 1.27953 12.8914 0.674965
O 4.80741 16.5176 17.0652
O 4.00514 16.2756 2.22542
O 5.48307 11.9995 1.70902
O 3.55097 2.20533 7.66512
O 4.33878 13.2234 3.45725
Si 9.26875 13.339 13.4577
Si 7.59474 9.06788 16.9996
Si 6.58432 15.5947 3.52884
Si 8.29759 10.9919 4.52543
Si 6.94171 11.2817 1.71493
Si 9.1368 15.2012 2.02686
O 5.64564 14.7804 4.63666
O 8.14152 9.59208 5.39718
O 7.74287 12.2386 0.39644
O 8.90344 12.3065 5.4112
O 6.54095 10.0375 0.658871
O 9.20249 14.0859 0.931
O 8.84942 11.961 14.2276
O 7.62419 0.763419 2.15742
O 8.55797 15.1884 3.56652
O 9.75819 10.3617 3.48178
O 5.97275 17.2081 3.62156
O 7.31773 11.2047 3.28786
Si 9.4349 12.5695 0.503933
Si 12.3973 7.53406 15.4852
Si 11.8896 16.4621 2.02696
Si 12.2568 8.92606 0.821912
Si 9.55704 9.56259 2.10086
Si 14.7814 15.7798 2.13256
O 11.1504 13.0047 7.38283
O 0.444205 8.70686 7.99097
O 11.132 9.27834 1.72594
O 1.91265 15.1765 1.84626
O 11.6338 8.25352 16.7771
O 15.5595 15.7063 0.682847
O 9.71002 11.1696 1.2297
O 14.9803 17.2531 2.57781
O 10.7817 15.4807 2.30603
O 0.134019 10.8063 1.12011
O 12.0229 17.2042 3.31152
O 13.34 15.7748 1.78352
Si 13.4369 2.69921 7.51679
Si 3.20807 1.23067 8.85478
Si 0.822524 5.68205 9.29346
Si 6.04162 1.52748 10.5022
Si 13.825 17.9623 6.86746
Si 4.01509 5.33974 9.40987
O 0.233242 4.62505 10.119
O 6.03112 0.366902 11.6039
O 2.32811 1.65858 10.0223
O 6.69267 7.58371 9.40403
O 0.993622 16.5213 8.87181
O 4.63565 4.66075 8.23778
O 13.8677 1.38237 6.85228
O 2.52393 5.89542 9.1422
O 3.45112 3.94835 10.3044
O 6.9274 1.44287 9.18392
O 0.482005 7.12496 9.5798
O 5.62427 2.96588 11.0779
Si 4.6728 4.8089 6.52246
Si 6.30834 1.28594 6.19381
Si 5.78867 8.77982 10.1159
Si 9.32308 4.85715 9.46435
Si 8.09589 2.07322 8.36879
Si 7.74063 7.50839 8.36471
O 5.08545 5.77327 11.0068
O 10.5245 16.409 12.9583
O 8.74335 3.5444 8.60195
O 8.96112 8.50106 8.93079
O 7.21934 2.33283 7.06351
O 8.21545 5.9995 9.11369
O 8.16084 3.54209 4.37777
O 7.73907 5.85856 4.74206
O 7.2135 8.44614 7.33045
O 10.5286 5.81408 9.78753
O 6.73011 10.11 9.83298
O 8.93602 4.33245 10.8476
Si 11.4491 5.31837 3.26545
Si 12.4192 0.484692 4.18561
Si 9.96044 9.66373 9.59853
Si 1.23902 1.98425 11.1671
Si 10.7962 1.14091 6.63848
Si 0.0273672 6.23648 6.25031
O 11.0319 8.71776 10.2334
O 11.7879 16.8915 10.1083
O 11.8117 2.27335 7.10714
O 0.293788 5.55927 7.67322
O 10.8373 17.7015 6.79746
O 14.1494 2.6857 9.0536
O 9.29469 1.18005 7.70657
O 13.8155 10.7605 8.81206
O 13.9017 6.02023 6.43706
O 12.9669 17.3338 7.88297
O 10.423 10.9687 8.92422
O 15.4544 2.7216 11.2183
Si 14.5189 14.1002 8.45178
Si 2.84368 10.0251 5.04819
Si 14.1358 12.974 11.2747
Si 4.01322 15.0444 10.1287
Si 1.10519 8.66135 9.37094
Si 1.24367 17.6971 7.50148
O 5.75544 15.4283 15.1508
O 2.09702 10.0659 9.09956
O 4.40867 11.4199 7.78868
O 1.77659 16.325 6.7504
O 2.13216 9.98754 6.74881
O 3.11349 14.832 4.23179
O 0.183126 14.3454 7.91105
O 2.80017 17.8976 8.43329
O 15.4089 13.4637 12.1135
O 3.09433 15.3648 8.78329
O 15.2545 17.4158 7.1936
O 3.96664 11.3552 12.8129
Si 4.20154 13.9462 4.81665
Si 6.73504 9.05996 5.99937
Si 6.8522 15.5216 9.54702
Si 10.1425 12.2662 8.24453
Si 5.03665 11.5953 6.2618
Si 7.08772 16.3826 6.47415
O 5.49928 14.7211 9.43348
O 9.03077 9.98446 10.8118
O 12.5275 13.5967 5.51451
O 11.2076 1.16268 5.01626
O 5.95733 10.4035 6.12893
O 7.33435 14.787 6.22148
O 4.59448 13.1986 6.41652
O 6.62448 17.8335 6.46284
O 6.91599 16.1875 8.15364
O 10.3589 13.4825 9.56928
O 6.72415 16.3386 10.8815
O 8.70081 13.0726 7.55909
Si 8.58081 13.7219 6.08728
Si 0.575062 9.15234 6.32141
Si 10.1776 16.2647 6.47262
Si 14.4475 10.2555 10.158
Si 12.5036 12.6544 6.49392
Si 12.2276 16.1774 8.77252
O 8.65153 16.733 6.54679
O 13.3874 9.05555 10.1958
O 1.25558 9.5686 4.64394
O 14.5617 13.5023 9.85951
O 13.7748 12.9005 7.57769
O 1.71207 17.177 3.33744
O 9.89292 14.7005 6.17539
O 13.0683 17.8406 5.31549
O 10.8813 15.5888 8.09148
O 0.257013 9.4926 10.3506
O 11.4989 0.778183 15.7139
O 14.14 11.2874 11.2051
Si 14.1452 3.58534 10.6178
Si 6.40812 0.900038 15.7259
Si 1.3394 6.76512 15.5788
Si 4.07169 1.99137 2.0093
Si 3.73172 2.90192 16.4072
Si 3.64803 5.17265 14.3183
O 0.260781 5.33213 15.6948
O 5.66543 17.7147 15.3189
O 3.42839 2.11071 0.586614
O 4.93579 6.0672 14.5945
O 1.87271 2.42225 12.7262
O 3.60813 4.73777 12.8801
O 0.923332 0.495727 13.8895
O 4.52086 9.32348 9.13652
O 2.50648 6.25239 14.7276
O 6.62185 16.6805 13.324
O 1.37079 8.24099 15.4501
O 3.77267 5.73314 1.19888
Si 4.65688 3.96898 11.7843
Si 5.70803 17.0401 11.8634
Si 5.91976 6.98658 15.3611
Si 11.6333 2.19723 15.0767
Si 8.42917 2.99652 14.9676
Si 7.42659 7.27151 12.586
O 6.83209 5.84934 15.84
O 9.47359 0.304098 0.195209
O 7.43266 1.87389 15.1129
O 8.94732 7.77161 13.3862
O 10.0115 2.61813 14.8442
O 7.39976 5.76584 12.1397
O 4.99329 1.79518 16.0362
O 6.38321 8.11377 11.453
O 6.69447 7.53708 13.9651
O 12.0011 2.04964 13.5174
O 4.00707 3.69095 2.74172
O 8.20859 3.71753 16.4948
Si 8.52863 4.57148 12.3319
Si 11.4717 16.694 11.7114
Si 9.8454 6.4198 14.1261
Si -0.0801452 18.1173 12.911
Si 12.9504 1.37646 12.5121
Si 12.1734 5.68433 9.66772
O 9.18679 5.92946 15.3841
O 14.7324 0.996914 15.9325
O 14.8465 17.2834 14.5281
O 3.80279 4.26656 15.6252
O 12.7841 15.661 12.3
O 12.7783 4.40395 10.2997
O 10.1454 5.50603 12.7442
O 12.6198 6.83258 10.9324
O 13.1453 2.28464 11.3563
O 14.3715 0.934453 12.8618
O 10.995 7.29461 14.5599
O 0.789144 0.425447 11.5108
Si 0.360386 13.4377 13.5549
Si 3.64311 10.5665 9.11446
Si 1.85255 15.6088 15.1339
Si 4.60821 12.0894 11.5089
Si 2.58717 11.0327 13.4924
Si 3.27159 2.0864 13.6589
O 2.1661 14.8987 16.512
O 2.90046 10.3578 15.1226
O 6.23448 11.6012 11.6711
O 3.8411 0.841449 13.3315
O 1.95187 9.71734 12.813
O 8.27121 3.94487 13.7294
O 1.79575 12.4477 13.3941
O 4.44659 16.1405 11.0419
O 0.773365 14.6498 14.5289
O 9.87013 13.913 12.0238
O 2.7738 2.15217 15.293
O 4.14958 13.6464 11.1287
Si 1.69138 15.0475 8.12767
Si 7.53796 10.9069 10.9978
Si 7.36108 15.5664 14.0769
Si 9.38593 10.8649 15.3099
Si 9.01667 13.6081 10.4679
Si 10.3062 16.0077 14.5608
O 4.14683 14.0342 0.933437
O 10.011 14.2996 14.583
O 7.90816 14.4567 13.2906
O 9.88822 11.9836 16.374
O 8.03684 12.3936 10.4634
O 8.17117 14.7737 9.77951
O 3.68432 11.5132 10.4205
O 12.3411 -0.0346968 12.046
O 8.74053 16.2003 14.7206
O 10.6866 10.1912 14.623
O 8.48606 16.5134 1.51853
O 7.93271 10.0203 15.8278
Si 12.1415 14.2361 13.0036
Si 12.1814 8.45954 11.3098
Si 10.8077 -0.105696 16.7864
Si 14.7291 10.8107 17.0817
Si 11.9792 10.0371 13.8753
Si 13.6118 12.6009 14.9368
O 10.7097 16.582 16.1496
O 13.8098 9.52141 0.164177
O 12.9846 8.98407 14.7256
O 1.24205 16.9297 15.7702
O 12.5076 9.67292 12.399
O 15.2823 12.3805 14.4357
O 12.9825 11.4268 13.8701
O 12.9093 13.1471 12.1738
O 13.2862 14.0521 14.2319
O 0.082361 10.3538 15.7717
O 11.7333 17.5334 0.885897
O 13.7397 11.8524 16.4194
324
 Atoms. Timestep: 30000
Si 15.5371 5.1704 0.161333
Si 4.85926 16.5082 15.4029
Si 4.37099 7.88824 4.76039
Si 3.45505 2.45766 6.16128
Si 2.04498 0.865816 3.69019
Si 4.23034 5.26215 2.996
O 4.00625 6.90502 6.46306
O 4.55921 1.2101 9.10511
O 2.44419 1.53084 5.17194
O 6.51892 8.00252 16.6957
O 2.91651 1.64343 2.6373
O 2.49515 5.46138 2.97464
O 1.32249 4.7035 0.663592
O 2.49134 6.49971 17.0907
O 4.50408 6.55678 4.02007
O 4.82562 1.48243 5.99364
O 3.10861 8.63725 4.41678
O 3.89031 3.96007 5.84642
Si 2.28437 6.21869 1.24741
Si 8.06862 17.9565 0.566319
Si 7.00527 4.86449 4.70068
Si 9.43985 3.53318 3.99767
Si 6.45504 0.528959 3.03137
Si 8.4372 5.69321 2.29444
O 6.18226 5.33761 6.02245
O 6.56709 1.13212 4.36719
O 8.91603 4.11053 2.47917
O 11.8244 5.24996 2.21686
O 6.99329 0.536216 16.8581
O 8.65762 5.96216 0.737504
O 5.25366 1.13616 2.4054
O 8.98199 8.96681 0.947994
O 6.14844 3.5952 4.62992
O 10.7135 4.4139 4.21001
O 5.75988 8.77418 4.97907
O 9.69831 6.34707 3.03714
Si 8.69552 5.32251 16.5726
Si -0.0328362 17.9223 15.3573
Si 13.795 5.09093 5.49916
Si 15.2088 0.708135 2.1613
Si 14.3279 2.18572 16.9802
Si 12.7498 5.75288 1.09826
O 12.7227 5.54165 4.56264
O 13.967 0.871995 3.28515
O 14.6074 2.03136 1.20722
O 12.8633 7.35925 1.51441
O 12.6971 2.33594 16.5085
O 15.1306 3.61554 16.5316
O 14.2071 5.21421 1.42666
O 13.3012 6.41623 16.6212
O 15.5112 4.5975 4.86725
O 0.574411 0.805866 3.29817
O 0.519195 7.62802 5.69225
O 13.4363 4.24439 6.67515
Si 1.06389 14.3095 0.734982
Si 1.34509 9.82002 15.9191
Si 2.85236 16.0463 3.14634
Si 4.1539 12.692 2.17253
Si 1.54438 11.3605 1.25679
Si 5.03195 15.2747 1.05529
O 13.3365 15.5117 9.39333
O 3.67558 10.7664 4.99162
O 3.13751 11.6152 1.7911
O 6.29879 15.1008 1.96425
O 2.08314 10.434 17.1454
O 3.31365 16.2107 14.8102
O 1.42228 12.8357 0.678063
O 4.91268 16.1322 17.0015
O 4.19138 16.1667 2.17166
O 5.43668 11.8508 1.87308
O 2.62605 2.34844 7.58506
O 4.30729 12.9817 3.69211
Si 9.20772 13.1328 13.7999
Si 7.6488 8.91848 -0.0501339
Si 6.86113 15.578 3.33548
Si 8.48748 11.2747 4.24702
Si 6.9999 11.1854 1.7036
Si 9.275 15.5118 1.4878
O 5.84862 14.891 4.29547
O 7.52224 10.4553 5.38109
O 7.85266 12.1379 0.829776
O 8.46827 12.8186 4.6315
O 6.665 9.69071 1.12799
O 9.41077 14.0268 1.24903
O 8.87501 11.5914 14.3315
O 7.71607 0.720349 1.94296
O 8.46789 15.4018 3.00542
O 9.40965 10.1326 3.39517
O 6.69499 17.0623 3.43272
O 7.14018 11.226 3.28016
Si 9.47505 12.683 0.522069
Si 12.8562 7.51146 15.5421
Si 12.0537 16.5652 2.12958
Si 12.8259 8.92357 0.767384
Si 10.0232 10.0099 1.74755
Si 14.9849 15.8955 2.43405
O 11.8735 11.5555 7.67168
O 0.115819 9.08214 7.58219
O 11.406 9.31845 1.54427
O 2.18423 15.0045 1.93903
O 11.9146 8.18857 16.8065
O 15.5922 15.0675 1.24501
O 10.2087 11.6329 1.54669
O 15.1807 17.3685 1.82428
O 10.6047 15.8881 2.09868
O 15.6258 11.0847 0.950691
O 11.9914 17.4816 3.3642
O 13.5102 15.6771 2.52031
Si 13.5813 2.69635 7.37544
Si 2.95549 1.32716 8.87871
Si 0.611147 5.79148 8.67545
Si 5.93914 1.75455 9.62683
Si 14.2537 17.8723 6.86637
Si 3.43766 4.96478 9.53533
O 15.4549 4.82102 9.51454
O 6.17148 0.383446 10.7103
O 1.89778 1.63737 9.88015
O 6.61977 8.01061 9.28637
O 0.850394 16.6688 9.58142
O 3.96144 4.92747 8.10312
O 14.5694 1.34106 7.24288
O 2.07236 5.66538 9.22753
O 3.20172 3.79789 10.5786
O 7.2896 1.59288 8.89511
O 0.486102 7.31591 9.08749
O 5.76721 3.09264 10.3618
Si 4.58853 5.4058 6.38502
Si 6.37925 0.942552 6.04223
Si 5.82109 8.56383 10.4988
Si 9.05428 4.65708 9.28884
Si 8.32084 2.09282 7.79741
Si 7.79048 7.85267 8.34855
O 4.74379 5.58022 10.7174
O 10.5987 16.729 13.317
O 8.3742 3.71856 8.36009
O 8.98001 8.63728 9.10204
O 7.06277 2.2512 6.84248
O 8.42429 6.25842 8.93864
O 8.49852 4.22448 5.09099
O 6.81598 5.50845 3.065
O 7.20038 8.55726 7.06271
O 10.6141 5.00451 9.28747
O 6.64978 10.0501 10.6147
O 8.77196 4.44956 10.8669
Si 11.3587 5.72828 3.6033
Si 12.7588 0.495688 4.22918
Si 9.75438 9.76734 9.93165
Si 0.740976 1.60931 11.0996
Si 11.1134 1.71264 6.30668
Si 0.638528 6.1329 5.67204
O 11.1004 9.09824 10.4549
O 11.4486 16.8071 10.2686
O 12.0911 2.1301 7.66333
O 0.706091 5.53186 7.11665
O 10.6176 0.183686 6.6438
O 13.8024 3.04424 8.96964
O 9.59764 2.13302 6.81196
O 13.7306 9.83363 8.61919
O 14.5217 6.1734 6.21488
O 13.2334 17.4914 7.912
O 9.95839 10.6775 8.70078
O 15.4275 2.75752 11.3843
Si 14.1261 14.3181 8.65954
Si 2.49789 10.0788 4.38525
Si 13.8924 12.76 11.2106
Si 3.98022 14.8331 10.8309
Si 1.05796 8.84672 9.06558
Si 1.24068 17.2444 7.7874
O 6.032 15.5579 14.9807
O 2.26015 9.8189 9.0504
O 3.77015 11.4716 7.69705
O 1.95937 15.4859 7.7475
O 1.87682 9.75663 6.14409
O 3.47261 15.1585 4.25414
O -0.0755812 14.5462 8.30149
O 2.44925 -0.0401476 8.15372
O 15.3164 12.903 12.0683
O 2.45781 14.9095 10.3469
O 15.4903 17.1324 7.43555
O 3.91909 11.7013 13.2958
Si 4.44267 14.1935 4.80351
Si 6.56968 9.50075 6.04335
Si 6.85181 14.9244 9.58868
Si 10.3228 11.927 7.88895
Si 4.42222 11.5613 6.26914
Si 7.44396 16.1263 6.73776
O 5.2697 14.5486 9.89972
O 8.88169 10.4195 11.2595
O 11.8995 13.2273 6.12148
O 12.0837 1.62575 5.08851
O 5.54873 10.6078 6.6031
O 7.93803 14.7103 6.03031
O 4.50356 13.2213 6.00424
O 7.05691 17.7054 6.75582
O 6.88884 15.6815 8.18413
O 10.338 12.9597 9.08253
O 6.77486 16.2474 10.4194
O 9.42244 12.9784 6.79356
Si 9.26703 13.8788 5.47196
Si 0.383372 9.23938 5.84759
Si 10.3945 16.6013 6.58671
Si 14.1771 9.90898 10.1759
Si 12.8558 12.371 6.56244
Si 12.1561 16.6665 8.91461
O 8.94443 16.4605 7.21138
O 13.4507 8.4919 10.7028
O 0.670192 9.57685 4.20122
O 14.3999 13.5126 9.8973
O 13.7554 13.3336 7.51731
O 2.57005 17.5165 3.56034
O 10.1533 15.2245 5.72529
O 13.483 17.7634 5.41241
O 11.1565 16.0575 7.93081
O 0.0295053 9.59207 10.207
O 11.2021 0.697649 15.852
O 13.6455 11.4301 10.4585
Si 14.1342 3.58644 10.6382
Si 6.27713 0.899865 15.4725
Si 1.64868 6.76243 15.6898
Si 4.11748 1.96414 1.87166
Si 3.75945 2.23719 16.0453
Si 3.89259 4.89536 14.7343
O 0.237282 6.25836 16.4099
O 5.06878 -0.108773 15.3726
O 3.75546 1.88114 0.363374
O 4.70561 5.67906 15.6734
O 1.75521 1.72887 12.2721
O 4.44404 4.52491 13.2468
O 0.330009 0.394233 13.7771
O 4.64914 9.22241 9.63966
O 2.41912 5.73093 14.5042
O 6.4288 16.5462 12.7482
O 1.05223 8.21817 15.8335
O 4.19758 5.87463 1.38481
Si 4.86734 3.94872 11.5786
Si 5.90962 17.0611 11.3923
Si 5.80168 6.80234 16.0676
Si 11.5539 2.13204 15.3313
Si 8.62974 2.80751 14.601
Si 7.14922 7.33318 13.1656
O 7.19186 5.91839 16.0576
O 9.60739 0.0166134 0.106364
O 7.40225 1.8413 14.8859
O 8.56783 7.88608 13.8406
O 10.1429 2.68491 14.6423
O 7.46099 5.81994 12.8125
O 5.3457 2.31264 15.9647
O 6.39856 8.18497 12.0607
O 6.06785 7.25562 14.5308
O 12.3215 2.10942 13.9179
O 4.31109 3.59475 2.68514
O 8.57592 3.95438 15.8373
Si 8.73345 4.98665 12.3886
Si 11.0407 16.8915 11.7687
Si 9.84751 6.99041 14.3569
Si 15.1635 17.6717 12.6592
Si 12.7332 1.41671 12.58
Si 11.9178 5.52082 9.81922
O 9.56308 6.31498 15.756
O 14.8765 1.03142 16.2448
O 14.4964 16.9716 14.4645
O 3.31025 3.74908 15.6685
O 12.2619 15.7564 12.2583
O 12.4903 4.65889 10.9018
O 9.68263 5.40656 13.6346
O 11.5737 6.87578 10.5855
O 13.2392 2.33475 11.2646
O 14.0824 0.54692 12.5397
O 11.449 6.97375 14.4827
O 0.143492 0.139458 11.2443
Si 0.472283 13.4629 13.2537
Si 3.7231 10.4144 9.12542
Si 1.90106 15.4468 15.0672
Si 4.5255 12.1318 11.6205
Si 2.41105 11.1074 13.4825
Si 3.24062 2.07216 13.0554
O 1.55394 14.9155 16.4788
O 1.6784 10.1152 14.4274
O 6.17262 11.8422 11.9746
O 4.37207 1.44935 12.6079
O 2.11708 10.3895 11.879
O 8.23457 3.56793 13.0709
O 1.7126 12.4339 13.0199
O 4.4578 16.2989 11.5439
O 1.27486 14.7432 13.72
O 9.54547 13.369 12.157
O 3.22265 1.36814 14.8001
O 4.15203 13.5619 11.6779
Si 1.23565 15.0379 9.29214
Si 7.60023 11.2067 11.3766
Si 7.1237 15.4393 13.8226
Si 9.60263 10.5983 15.451
Si 9.34328 13.3277 10.3151
Si 9.96183 15.8738 14.3614
O 4.32888 13.9449 0.998204
O 10.384 13.7763 14.56
O 7.8068 13.9965 14.069
O 9.57279 11.6319 16.5689
O 8.2299 12.3494 10.0996
O 8.34651 14.5184 10.1498
O 3.95336 11.3137 10.3308
O 11.78 0.205711 12.1995
O 8.35014 16.3857 14.2592
O 10.9374 10.2706 14.8349
O 8.17764 16.2833 0.486678
O 8.38415 9.60315 16.061
Si 11.8032 14.2735 12.8048
Si 12.064 8.2874 11.3995
Si 11.0049 17.6674 16.7815
Si 14.7353 11.231 17.0096
Si 12.2358 10.079 13.9785
Si 13.4685 12.7559 14.7041
O 10.6162 16.4055 15.7338
O 13.2517 10.3115 0.362413
O 12.8949 8.84977 14.7379
O 1.04466 16.8899 15.4588
O 11.8864 9.60106 12.5678
O 15.0889 13.3505 14.5109
O 13.2875 11.1586 14.125
O 12.5469 13.3251 11.7007
O 12.7491 13.9224 14.0207
O -0.0867926 10.6396 15.8283
O 11.9656 17.4855 0.69265
O 13.8053 12.3241 16.1897
324
 Atoms. Timestep: 30500
Si 0.26083 4.65897 -0.0687031
Si 4.68267 16.4392 15.4663
Si 4.80195 7.29312 4.63162
Si 3.60326 2.15898 6.03271
Si 2.35212 0.754499 3.63819
Si 4.67024 5.18057 2.525
O 4.35366 6.00991 5.40417
O 4.78953 1.80611 9.29434
O 2.91005 1.65213 4.77249
O 7.46478 7.86933 16.6745
O 3.23587 1.23296 2.39461
O 2.9479 5.6414 2.86237
O 1.42594 4.99449 1.05058
O 2.58231 7.10063 0.0794074
O 5.16853 6.45948 3.42951
O 4.94051 1.25866 6.30366
O 3.97356 8.52526 4.09076
O 4.27931 3.73905 6.66642
Si 2.38897 6.22622 1.4606
Si 8.24818 17.8299 0.272329
Si 7.67119 5.30889 5.34723
Si 9.80502 3.57021 4.32275
Si 6.92664 0.705561 2.66925
Si 8.36955 5.21453 2.39468
O 6.41736 6.02514 6.59454
O 6.56893 1.41144 4.2362
O 8.80437 3.80589 3.01355
O 12.3744 5.12334 2.42398
O 6.98789 0.818505 16.906
O 8.62131 4.54233 0.83941
O 5.9474 1.65321 1.79751
O 9.02724 9.15639 1.33066
O 6.39925 4.37789 4.98776
O 10.6763 4.74715 4.22688
O 6.10046 7.96052 5.15615
O 9.9431 5.88319 2.19698
Si 8.47718 5.11991 16.5533
Si 15.4465 17.929 14.943
Si 13.4009 5.15025 5.71643
Si 15.0619 0.996819 2.34414
Si 14.5534 1.89095 16.7473
Si 13.231 5.84913 1.27878
O 12.631 6.02688 4.56234
O 13.9363 1.13587 3.4594
O 14.1637 1.8263 1.07976
O 13.6099 7.48327 1.49833
O 13.4109 2.62781 15.8133
O -0.0217757 3.11041 16.6701
O 14.546 5.08059 0.72638
O 12.3652 6.36138 -0.0882351
O 15.1367 4.95619 4.95643
O 0.891015 1.29797 3.23435
O 0.174292 7.37285 5.73403
O 13.7689 3.89016 6.66355
Si 1.04639 14.6984 0.829145
Si 0.890192 9.8669 15.539
Si 2.54584 15.9077 3.12302
Si 3.98701 12.3839 1.80366
Si 1.23502 11.6942 0.69045
Si 4.59152 15.1264 1.06388
O 13.1535 15.3208 9.08237
O 3.42107 10.9278 5.62144
O 2.43441 12.0094 1.70591
O 5.89562 15.237 1.93676
O 1.69992 10.4413 16.7783
O 3.23277 15.6537 14.9873
O 0.966936 13.2547 0.149466
O 4.99965 15.8319 16.8662
O 3.70999 16.2905 1.79841
O 5.41156 11.728 1.36121
O 2.99778 1.77041 7.59212
O 4.3233 12.6831 3.40465
Si 9.011 13.2017 13.1467
Si 8.05624 9.20534 -0.0237889
Si 6.46608 15.7966 3.31764
Si 8.31361 11.4152 4.39902
Si 6.85072 11.3131 1.60704
Si 9.39017 15.3229 1.84219
O 5.97682 14.4005 4.1684
O 7.76107 9.99913 4.96084
O 7.78264 12.1304 0.68817
O 9.1754 12.7502 4.602
O 6.78927 9.85774 0.770421
O 9.78589 14.0669 0.928107
O 9.302 11.7531 13.6353
O 8.30556 0.468422 1.8493
O 8.09886 15.4841 3.01266
O 9.51904 10.6326 3.6416
O 6.33823 17.2997 3.014
O 7.43663 11.7589 3.12997
Si 9.28859 12.6617 0.340407
Si 12.1248 7.63057 16.1583
Si 11.7423 17.0197 2.12413
Si 12.5819 8.84992 1.65469
Si 9.92291 10.1513 2.1761
Si 14.4919 15.9591 2.28636
O 11.8598 12.501 6.95519
O 0.431903 9.34563 7.59041
O 11.3585 9.58338 2.10032
O 1.71452 15.0703 2.14811
O 11.566 8.51176 0.0108299
O 15.3657 15.2805 1.13881
O 10.0753 11.566 1.24569
O 14.9841 17.4735 2.33688
O 10.6364 15.9481 2.73168
O 15.4567 11.1874 0.932279
O 12.1264 17.6875 3.45374
O 13.1275 16.0914 1.66308
Si 13.6123 2.53241 7.63457
Si 3.35692 1.10883 9.00312
Si 0.628009 5.52036 9.2406
Si 6.06453 1.8974 10.2619
Si 14.4623 17.8931 7.10256
Si 3.66704 5.28705 9.57712
O 14.2564 5.1476 9.63593
O 6.02038 0.554995 11.2876
O 2.07114 1.74193 9.66916
O 6.51334 7.75654 9.81502
O 0.867584 16.8484 9.3755
O 4.79307 4.85967 8.68371
O 15.0154 1.43167 7.18543
O 2.14255 5.56734 9.50976
O 3.53833 3.9983 10.5555
O 7.54944 1.66857 9.60358
O 0.445049 7.17304 9.27959
O 5.88281 3.09712 11.3883
Si 5.10576 5.15314 6.67955
Si 6.36929 1.01079 5.74452
Si 5.7824 8.84649 10.6818
Si 8.81237 4.79643 9.15278
Si 8.13398 2.14336 8.10598
Si 7.42844 7.61083 8.61263
O 4.23357 6.14139 10.6839
O 9.92421 16.4876 12.9063
O 8.31813 3.62166 8.27377
O 8.66551 8.4734 9.08379
O 7.36988 1.84899 6.72955
O 7.94242 6.11471 8.69187
O 8.80452 3.9256 5.64426
O 7.91986 5.62164 3.87669
O 6.85761 8.51004 7.48784
O 10.3352 5.2647 9.04049
O 6.3511 10.3169 9.83885
O 8.5268 4.78029 10.7209
Si 11.365 5.97268 3.4608
Si 12.9041 0.530601 4.45843
Si 9.58024 9.74269 9.74786
Si 1.17162 1.92848 11.0184
Si 10.9021 1.51337 6.38025
Si 0.0877017 5.90296 6.30374
O 10.7655 9.12266 10.5492
O 11.523 16.8646 10.3922
O 12.1702 1.99237 7.30636
O 0.391776 4.78988 7.57049
O 10.7172 -0.0658176 6.57941
O 14.1125 2.89187 9.1048
O 9.62988 1.68006 7.75815
O 12.4023 10.189 9.33663
O 13.9917 6.16366 6.93271
O 13.2314 17.6628 8.24338
O 9.59636 10.9348 8.70856
O 0.322842 3.22469 10.4728
Si 14.1322 14.0509 8.78916
Si 2.96284 9.64678 4.87344
Si 13.6421 12.6014 11.3311
Si 4.06531 15.0588 10.7368
Si 0.750766 8.78098 9.20417
Si 1.83863 17.1252 7.58244
O 5.40059 15.2626 14.5309
O 2.08813 9.48212 9.43726
O 3.90541 10.2565 7.9533
O 1.58538 15.399 7.71392
O 2.37572 8.53129 6.18368
O 3.54949 15.0496 4.04184
O 0.0745959 14.163 9.31144
O 3.17952 17.4574 8.5412
O 14.7415 13.1602 12.1469
O 2.74699 15.0595 9.96408
O 0.251062 17.4439 7.13985
O 3.33114 11.4592 12.4834
Si 4.41083 13.7131 4.6576
Si 6.68791 9.09572 5.93101
Si 6.65741 15.6769 9.23829
Si 10.5719 12.0262 7.96502
Si 4.48135 11.3473 6.65492
Si 7.33829 15.8429 6.19447
O 5.31196 14.7978 9.66727
O 8.61138 10.1769 11.0927
O 13.5905 12.6884 5.1912
O 11.7791 1.61631 4.9267
O 5.67174 10.3782 6.11662
O 8.1375 14.481 5.99796
O 4.98486 12.7928 5.8516
O 6.79766 17.4676 5.6902
O 6.86265 15.3796 7.67837
O 10.3107 12.9586 9.4275
O 6.75575 16.6852 10.46
O 9.54567 12.8003 7.10958
Si 9.53446 13.8098 5.62129
Si 0.65969 8.81332 6.14778
Si 10.5966 16.5557 6.45692
Si 13.7728 9.83787 10.1878
Si 13.3455 12.4005 6.55652
Si 12.2964 16.7298 9.01054
O 8.79762 16.5028 6.65294
O 13.2821 8.58794 11.1581
O 1.261 9.8182 4.6332
O 13.4262 13.0831 9.8463
O 14.027 13.6812 7.2768
O 2.48751 17.3378 3.82739
O 10.5737 15.0013 5.89288
O 13.7122 -0.0622427 5.67753
O 11.1065 16.2967 7.97811
O 15.2685 9.32992 10.131
O 11.9294 0.820058 15.6486
O 14.1892 11.0889 11.0695
Si 14.4671 3.71469 10.5038
Si 6.4416 0.849197 15.3647
Si 1.69812 6.92753 15.8217
Si 4.39022 2.24222 1.70666
Si 4.12095 2.60234 15.7936
Si 4.12622 5.58071 14.4949
O 0.641438 5.89526 16.3548
O 5.71041 17.5507 15.0762
O 4.10977 2.53397 0.115565
O 4.7121 6.49117 15.7888
O 1.90619 1.97986 12.3779
O 4.19293 5.02293 12.9943
O -0.0205365 0.895053 13.7379
O 4.29529 8.80779 10.0728
O 2.65371 6.0429 14.8737
O 7.01626 16.0611 12.6192
O 1.18016 8.43003 15.5826
O 4.23651 5.46608 1.0275
Si 4.62021 3.76037 12.0228
Si 6.15229 17.0715 11.7657
Si 6.24195 6.90699 16.0922
Si 11.813 2.33109 15.114
Si 8.78469 2.75749 14.2087
Si 7.22096 7.65489 13.0259
O 6.91458 5.54428 16.1519
O 9.47496 0.488522 16.8413
O 7.70628 1.55823 14.6205
O 8.67238 7.94757 13.6054
O 10.0519 2.15931 14.6935
O 7.4849 5.86044 12.8516
O 5.33871 1.92633 15.0865
O 5.90172 8.18975 12.314
O 6.4416 7.57307 14.3984
O 12.4097 2.0132 13.6768
O 4.01325 3.56532 2.36669
O 8.43135 3.75745 15.6046
Si 8.76415 5.10468 12.2871
Si 11.2473 16.8708 11.9444
Si 9.90103 7.01842 14.394
Si 15.2067 17.8356 12.1636
Si 12.5874 1.47642 12.1834
Si 11.7246 5.55627 9.84976
O 8.97346 6.09343 15.4214
O 14.4911 0.391058 16.1008
O 14.6017 16.8292 13.3535
O 4.18357 4.12674 15.1667
O 12.2272 15.7656 12.7289
O 11.8533 4.9419 11.0447
O 9.74191 6.13656 13.1235
O 11.5964 7.13971 10.5021
O 13.5231 2.87378 11.6587
O 13.8845 0.609037 12.3194
O 11.3009 6.70127 15.0303
O 0.684307 0.486523 11.311
Si 0.0780124 13.6204 13.5543
Si 3.43295 10.1949 9.42459
Si 1.73294 15.5701 15.2585
Si 4.38792 12.1404 11.6261
Si 1.7284 11.1544 12.9695
Si 3.06601 1.44957 13.3073
O 1.86881 15.4336 16.9559
O 1.84779 10.3972 14.3881
O 5.80818 11.7043 11.8755
O 4.23756 2.4904 12.8233
O 1.00913 9.96026 11.9702
O 9.04957 3.78309 12.9721
O 1.23626 12.5448 13.2012
O 4.64028 16.1537 11.6278
O 0.785839 14.7002 14.2946
O 9.29027 13.2529 11.6011
O 2.7563 2.0765 15.0253
O 4.1057 13.6874 11.535
Si 1.20007 15.2581 9.47162
Si 7.3281 11.298 10.744
Si 6.77112 15.0644 13.8953
Si 9.47917 10.9207 15.0987
Si 9.01603 13.5939 10.0187
Si 9.75105 15.9169 14.4648
O 3.91925 13.6969 1.01809
O 10.0237 14.3027 14.6357
O 7.48765 13.4929 13.5262
O 9.68476 12.1625 16.0496
O 8.01353 12.5112 9.95212
O 7.95722 14.8406 9.7454
O 4.0818 11.4108 10.1907
O 11.5682 0.346514 12.3661
O 8.08615 15.8913 14.5708
O 11.1251 10.793 15.1149
O 9.10258 16.3143 0.587035
O 9.25699 9.58954 16.0513
Si 11.7148 14.1788 13.0203
Si 11.6552 8.30085 11.62
Si 11.059 17.9023 16.3502
Si 14.2032 10.8647 17.1742
Si 12.1361 9.92955 14.1441
Si 13.2287 12.7034 15.0438
O 10.4168 17.0267 15.2878
O 13.4065 9.88432 0.876305
O 12.622 8.75176 15.0217
O 1.06649 16.95 15.138
O 11.4491 9.18565 12.9224
O 14.9681 12.7764 14.5515
O 13.1363 11.2746 14.106
O 12.3299 13.1246 12.01
O 12.506 13.7412 14.1954
O 15.0577 9.84166 16.1369
O 11.4796 17.6548 0.775658
O 13.2344 11.8762 16.64
324
 Atoms. Timestep: 31000
Si 0.54415 4.3291 0.0105777
Si 4.55934 16.7079 15.2597
Si 4.97701 6.92965 4.41064
Si 3.80712 2.00798 5.86729
Si 2.38805 0.654653 3.65933
Si 4.66007 4.8443 2.24811
O 4.66653 5.88112 5.59263
O 4.71949 0.965953 9.62737
O 2.70905 1.59115 4.8741
O 6.85424 8.04637 16.9223
O 2.99903 1.40264 2.33625
O 2.72028 5.4572 2.5914
O 1.87883 4.8294 0.644544
O 2.14964 7.15103 17.0538
O 5.10277 5.97518 3.26184
O 5.29263 1.58243 5.61641
O 3.21957 7.50649 4.47375
O 3.97764 3.55052 5.72219
Si 2.54468 6.23828 1.16298
Si 8.17768 0.306543 0.252742
Si 7.73364 5.09847 4.95962
Si 9.67469 2.93923 4.14764
Si 7.05174 0.618879 2.8881
Si 8.97235 5.07506 2.1719
O 7.2241 5.21427 6.64591
O 7.15867 1.40725 4.29101
O 9.10059 3.49711 2.60905
O 12.8505 4.72301 2.45847
O 6.88886 0.22346 16.3743
O 9.10622 5.10753 0.583279
O 5.56944 1.24689 2.52744
O 9.38831 9.19529 0.840687
O 6.5914 3.73708 4.91703
O 11.0716 3.80948 4.22092
O 6.02985 7.96825 4.97013
O 10.378 5.57873 2.78434
Si 8.16588 4.73098 16.4996
Si 15.0139 0.0756641 14.3608
Si 13.135 5.04459 6.01268
Si 15.1213 1.02027 2.46976
Si 14.3407 1.94327 16.8013
Si 13.2416 5.57609 0.990534
O 12.5907 5.92058 4.8257
O 13.8875 1.46441 3.48611
O 14.3621 1.50508 1.17584
O 13.4885 7.08781 1.63741
O 12.807 2.57386 16.3021
O 15.2883 3.28405 16.5133
O 14.8173 5.17096 0.837345
O 13.0634 6.22065 16.6944
O 15.2051 4.71303 5.47725
O 0.66642 1.04455 3.44761
O -0.000975871 7.23943 5.82787
O 13.3436 3.79372 7.2836
Si 0.689849 15.0752 0.998463
Si 1.08178 9.89515 15.4958
Si 2.82325 15.7729 3.3625
Si 3.88703 12.4255 1.64589
Si 1.21168 12.0897 0.43885
Si 4.32516 15.3319 0.903455
O 13.4208 15.3711 9.34986
O 3.49648 10.4472 5.42923
O 2.49198 11.7066 1.39356
O 6.03056 15.2433 1.42149
O 1.42935 11.2061 16.2604
O 3.05577 16.6208 14.5612
O 0.634094 13.501 0.537895
O 4.58021 16.2909 16.7906
O 3.90204 16.2718 2.19159
O 4.99215 11.2068 1.39887
O 3.88717 2.16277 7.54049
O 3.94779 12.4984 3.27038
Si 8.81762 13.1187 12.7739
Si 8.01506 9.1271 0.034406
Si 6.45988 15.4928 2.90763
Si 8.29868 11.0724 4.31857
Si 6.71567 11.6239 1.68036
Si 9.11202 15.6432 1.58268
O 5.91514 14.0351 3.46479
O 7.93328 9.86681 5.30746
O 7.77388 12.4997 0.988719
O 8.37152 12.6404 4.6166
O 7.03245 10.2841 0.799537
O 9.87266 14.3354 0.882755
O 8.78012 12.0916 13.8773
O 7.82568 1.16482 1.50236
O 8.00146 15.0295 2.46897
O 9.47478 10.5889 3.47678
O 6.66378 17.0637 2.97507
O 7.17195 10.8413 3.08255
Si 9.32205 12.7553 0.678673
Si 12.348 7.41703 15.9871
Si 11.5202 17.2557 1.94844
Si 12.6516 8.54267 1.90025
Si 10.0754 10.1189 2.03682
Si 14.2336 16.1881 2.85508
O 12.0306 11.7097 7.4086
O 0.0230956 8.60482 7.80325
O 11.3911 9.37017 2.39038
O 1.60812 15.3388 2.27134
O 11.9917 8.17667 0.41716
O 14.866 15.26 1.61067
O 9.96742 11.6988 1.50184
O 14.7571 17.5231 2.38062
O 10.0495 16.683 2.38951
O 15.5509 10.9857 0.887424
O 11.8284 0.366068 2.99303
O 12.6911 16.2536 2.45988
Si 13.3123 2.52934 8.01302
Si 3.40324 1.35318 8.84064
Si 0.78894 5.60142 9.25601
Si 6.09203 1.82117 10.2003
Si 14.3362 17.9023 6.94316
Si 3.72627 5.0975 9.39258
O 0.0612934 4.74956 10.4559
O 6.36659 0.902627 11.4703
O 2.23553 2.27812 9.83592
O 6.15965 8.04278 9.42629
O 1.19465 16.8827 9.48282
O 4.62849 4.58026 7.8489
O 14.2793 1.43888 7.287
O 2.22695 4.85045 9.1623
O 4.09485 4.85943 10.8947
O 7.87551 1.82679 9.94378
O 1.13244 7.14781 9.58682
O 5.7185 3.20267 10.8562
Si 5.15707 4.61637 6.37754
Si 6.91015 1.56104 5.85606
Si 5.7831 8.92793 10.7253
Si 8.75249 4.9829 9.3444
Si 8.39477 1.963 8.52972
Si 7.75158 7.94658 8.72847
O 3.98637 6.53993 8.84981
O 10.1562 16.7488 13.1402
O 8.60338 3.61331 8.63701
O 8.87979 8.90258 9.19932
O 7.08558 2.2389 7.34691
O 7.95518 6.38173 9.21676
O 8.9378 4.1335 5.07802
O 7.95589 5.5501 3.46346
O 7.22995 8.12804 7.18392
O 10.2703 5.59161 9.34608
O 6.43894 10.4612 9.88971
O 8.31721 4.79347 10.8258
Si 11.7587 5.02809 3.43435
Si 12.7623 0.543721 4.35571
Si 9.78241 10.1215 9.88369
Si 1.33394 1.59221 11.0508
Si 10.9313 1.37442 6.63469
Si 0.150068 5.79993 6.4372
O 10.5396 9.46949 11.1135
O 11.9556 17.0509 10.4806
O 11.9081 1.78253 7.71897
O 0.280218 5.00545 7.71823
O 11.118 17.7293 6.88402
O 14.2125 2.87416 9.32394
O 9.58178 1.54583 7.55901
O 13.0647 10.5916 9.61492
O 13.8211 6.01823 6.9571
O 13.1402 17.4946 7.73446
O 10.2831 11.1478 8.93789
O 15.6161 2.38997 11.1212
Si 14.2454 14.0558 9.04171
Si 2.81905 9.01627 4.79272
Si 13.9705 12.7968 11.7674
Si 4.00652 14.99 10.7499
Si 0.693913 8.79617 9.18741
Si 1.56276 17.2284 7.79396
O 5.62196 15.6992 14.5751
O 2.023 9.50598 8.89184
O 3.91737 10.8729 7.96116
O 1.86742 15.6552 7.45587
O 2.1689 8.70286 6.51838
O 3.38083 14.7235 4.5281
O -0.0423376 14.6866 8.85849
O 2.95747 17.9852 8.28827
O 15.0939 13.7068 12.3462
O 2.82643 15.2815 9.72022
O 0.0545697 17.4552 7.38803
O 3.21927 11.4884 12.59
Si 4.63651 13.5554 4.41628
Si 6.76734 9.07007 5.87411
Si 6.55399 15.671 9.12178
Si 10.5391 12.3293 7.97425
Si 4.51291 11.2171 6.43631
Si 7.46962 16.2867 6.54831
O 5.3432 14.783 9.769
O 8.60323 10.9847 10.6328
O 13.3806 12.8318 5.30868
O 11.8004 1.53026 5.27776
O 5.84375 10.3683 6.203
O 7.95261 14.6876 6.4111
O 4.56663 12.6976 5.80795
O 7.34702 0.0111141 6.29622
O 6.4277 16.3048 7.70196
O 10.0091 13.3968 9.04931
O 6.88774 16.8305 10.3143
O 9.76449 12.5391 6.53143
Si 9.09195 13.7531 5.69693
Si 0.501927 8.78365 6.26664
Si 10.4971 16.2054 6.82909
Si 13.9766 9.85365 10.7683
Si 13.3656 12.0695 6.49918
Si 12.5674 16.6144 8.97358
O 9.0815 16.5591 7.16328
O 12.9693 8.31491 10.537
O 1.06373 9.26794 4.40986
O 14.1206 13.05 10.1842
O 14.271 13.0269 7.66168
O 2.38683 17.1749 4.12251
O 10.2956 14.8308 5.9787
O 13.7367 17.9149 5.44553
O 11.2133 15.9574 8.26077
O 15.4145 9.65704 10.0662
O 11.3625 0.809373 15.1432
O 14.1825 11.14 11.6986
Si 14.6026 3.57575 10.7339
Si 6.46204 0.865098 14.9965
Si 1.37394 6.81642 15.6387
Si 4.41093 1.75908 1.5873
Si 4.13107 2.72158 15.8506
Si 3.92027 5.54553 14.7242
O 0.401009 5.43644 15.8551
O 5.19757 -0.0228882 14.7899
O 3.90869 1.93275 0.066151
O 4.88374 6.7951 15.4662
O 1.65238 2.31077 12.6968
O 4.64453 5.22601 13.3595
O 15.3895 1.00096 13.3132
O 4.37768 9.23655 10.3574
O 2.59809 6.17233 14.8969
O 6.65325 15.9522 12.4635
O 1.59976 8.48147 15.1811
O 4.50211 5.69018 0.852868
Si 4.98541 4.24506 12.0813
Si 6.05922 17.2483 11.6519
Si 6.35529 7.03543 15.821
Si 11.9639 2.32531 15.0556
Si 9.03066 2.63383 14.4598
Si 7.69753 7.53848 13.0666
O 6.93297 5.70205 16.7426
O 9.61358 0.572067 16.788
O 7.86871 1.35859 14.4801
O 9.23344 7.4539 13.7984
O 10.5293 2.8212 14.4456
O 7.14139 5.95644 12.6938
O 5.5978 2.26881 15.4396
O 7.03275 8.49989 11.899
O 6.97995 7.6475 14.5613
O 12.9531 2.10498 13.8176
O 4.56917 3.38353 1.94158
O 8.6861 3.321 15.968
Si 8.30851 4.63288 12.5118
Si 11.3033 16.9738 11.8796
Si 10.1061 6.15853 14.3882
Si 14.8675 17.6286 11.6844
Si 12.7231 1.54858 12.2403
Si 11.3688 5.73972 10.4049
O 8.81071 5.74169 15.5584
O 14.9131 0.94708 15.643
O 14.4251 16.8353 13.2015
O 4.05724 4.29313 15.7382
O 12.2062 15.8308 12.6306
O 11.1229 4.74203 11.3163
O 9.63512 5.45734 13.0111
O 10.8288 7.13772 11.189
O 13.2259 3.06975 11.3936
O 13.7339 0.709612 11.527
O 11.0249 7.06992 15.2392
O 0.84484 17.8685 11.4066
Si 0.393762 13.8631 13.7305
Si 3.386 10.1389 9.35778
Si 1.65256 16.2122 15.4682
Si 4.14034 12.1663 11.4496
Si 1.68102 11.3805 12.8845
Si 3.38035 1.79411 13.0803
O 1.23576 16.0597 17.0593
O 0.741988 10.4841 13.9116
O 5.55397 11.9141 11.8763
O 4.06537 3.13691 12.4739
O 1.64345 10.4542 11.5014
O 8.10143 3.7494 13.7087
O 1.31984 12.8086 13.2624
O 4.5819 16.6422 11.2538
O 1.35646 14.7986 14.9739
O 9.16074 13.8416 11.257
O 3.27197 2.0845 14.5516
O 3.56745 13.5752 11.1322
Si 1.45054 14.9618 9.21599
Si 7.07978 11.4141 11.0243
Si 6.75238 15.074 13.6965
Si 9.24707 11.1511 15.2934
Si 8.63603 13.6609 9.81068
Si 9.76051 15.684 14.3409
O 4.26314 13.7865 0.848586
O 10.1243 14.0206 13.6217
O 7.35986 13.7751 12.9958
O 9.49206 12.3792 16.2802
O 7.33629 12.8716 9.86442
O 7.95591 15.0275 9.20485
O 3.22458 11.4723 10.2642
O 11.6038 0.488312 12.2308
O 8.07777 15.6902 14.4007
O 10.6946 10.4407 15.2155
O 8.36407 16.7113 0.62466
O 8.21055 10.1922 15.8769
Si 12.2974 14.5816 13.593
Si 11.7082 8.46668 11.607
Si 10.8232 17.7991 16.098
Si 14.2686 10.4032 0.0242443
Si 11.8435 9.80146 14.3098
Si 13.5989 12.3218 14.9416
O 10.1899 16.4477 15.6793
O 13.7064 9.52778 1.29674
O 12.8744 8.86501 15.2548
O 0.638065 17.2886 14.9943
O 12.2181 9.01825 13.1173
O 15.0332 13.2474 14.7523
O 12.86 11.0863 14.3742
O 12.569 13.5517 12.4028
O 12.1073 13.371 14.7984
O 15.2282 9.33737 16.4399
O 11.667 17.7851 0.375126
O 13.8299 11.8974 16.6169
324
 Atoms. Timestep: 31500
Si 0.360662 4.26087 17.0707
Si 4.51671 16.4219 15.4087
Si 4.81524 7.2487 4.59291
Si 3.93572 1.9704 6.01372
Si 2.18168 0.861219 3.76987
Si 4.35024 4.86056 2.87183
O 4.42593 5.98348 5.72059
O 4.95896 2.14229 9.36523
O 2.87872 1.60807 4.85094
O 7.01656 8.10251 16.9712
O 2.9406 0.937113 2.33294
O 2.40459 5.3161 2.96629
O 1.66866 4.50879 0.816016
O 2.46954 6.46714 16.884
O 5.02973 6.23587 3.31899
O 5.20443 0.650445 6.17946
O 3.3134 7.91696 4.23638
O 4.74063 3.47965 5.94046
Si 2.34722 5.86759 1.35425
Si 7.98322 17.9873 0.433431
Si 7.81344 4.63431 4.6377
Si 9.64675 2.45643 3.5861
Si 6.15795 0.279261 2.82355
Si 9.04916 5.01545 2.08947
O 6.72406 4.70634 5.98045
O 6.57107 1.16561 4.12665
O 9.13553 3.24309 2.41294
O 12.6573 4.69023 1.89368
O 6.8675 0.160509 16.4932
O 9.08568 4.93125 0.554938
O 5.06884 0.914251 1.84349
O 9.17705 9.68172 1.03319
O 7.007 3.75839 3.65077
O 11.0281 3.22711 3.66372
O 6.00657 7.94252 5.34371
O 10.5987 5.39153 2.56066
Si 8.61739 5.25881 16.2864
Si 14.4985 17.737 15.1104
Si 12.8327 4.58192 6.18302
Si 14.9258 1.0333 2.6541
Si 13.9236 2.06404 16.9207
Si 13.5731 5.6384 0.906044
O 12.4897 5.38116 4.74442
O 13.8887 1.01133 3.81071
O 14.1592 1.72057 1.35346
O 13.7137 7.25345 1.59904
O 12.9765 2.78127 15.7618
O 15.1466 3.04642 16.6392
O 14.9513 5.08823 0.703811
O 13.0699 5.72272 16.1004
O 14.4289 3.91506 6.08206
O 0.65387 1.19578 3.31248
O 0.273506 6.84601 5.92559
O 12.038 3.87476 7.48848
Si 0.862438 15.0969 1.41481
Si 0.984572 9.66767 15.512
Si 2.95549 15.9932 3.38814
Si 3.93856 12.6621 1.58201
Si 1.5083 12.1684 17.1283
Si 4.80923 15.3704 1.0173
O 13.095 15.1497 9.33592
O 2.97711 10.6879 5.22326
O 2.63619 11.8811 1.07551
O 6.09159 15.1457 1.95074
O 2.00613 10.9137 16.1697
O 2.93779 16.7383 16.0194
O 1.13543 13.6084 0.807931
O 5.0951 16.3001 16.9321
O 3.90335 16.4458 2.07901
O 5.42464 12.4536 1.37865
O 3.54851 2.24578 7.52956
O 3.70565 13.1946 3.11009
Si 9.11619 13.278 13.2333
Si 7.91047 9.40452 0.218283
Si 6.76812 15.2466 3.37305
Si 8.1709 11.2355 4.27887
Si 6.83338 11.6888 1.78371
Si 9.09614 15.4356 1.50181
O 5.85032 14.2511 4.19366
O 7.6923 10.111 5.24526
O 7.96622 12.4404 0.749169
O 9.01606 12.6165 4.70807
O 6.82299 10.4074 0.960462
O 9.73013 14.3033 0.602489
O 8.55071 11.7372 13.7091
O 7.38471 0.504462 1.95544
O 8.25022 15.2758 2.749
O 9.1833 10.4072 3.3205
O 6.25893 16.9699 3.45675
O 7.08196 11.3026 3.19246
Si 9.36101 12.6941 0.349712
Si 12.6685 7.2433 15.7983
Si 11.6513 17.4399 2.17244
Si 12.6449 8.54643 1.34738
Si 10.1843 10.2186 2.11561
Si 14.2342 16.1993 2.95292
O 11.5262 12.0458 7.84956
O 0.707453 8.32252 8.03857
O 11.6844 9.7754 1.47508
O 1.84696 14.98 2.67557
O 12.0999 7.74503 0.0547446
O 15.0163 15.0907 1.98642
O 10.1907 11.6413 1.37453
O 14.8783 17.4062 2.32937
O 10.2542 16.5025 1.91574
O 0.266931 11.3315 0.549378
O 11.5968 -0.0126875 3.68845
O 12.7563 16.3332 2.44992
Si 13.2751 2.43084 7.97613
Si 3.87032 0.979703 8.73598
Si 0.932443 5.52185 9.33852
Si 6.09012 2.17158 10.3748
Si 14.1558 17.8265 6.94736
Si 3.95679 5.66798 9.26831
O 15.5284 4.64963 10.128
O 5.88482 0.899641 11.1989
O 2.65216 1.49389 9.90824
O 6.41073 7.66415 9.21736
O 0.985792 16.8518 9.15846
O 4.70423 4.96337 7.96283
O 14.2683 1.33813 7.48722
O 2.4386 5.34408 9.37864
O 4.64726 5.11658 10.4699
O 7.35401 1.6482 9.22648
O 0.644767 6.95731 9.84445
O 5.77287 3.1572 11.4834
Si 5.25632 4.90376 6.51835
Si 6.72742 0.807928 5.68822
Si 5.77301 8.57983 10.413
Si 9.26535 4.88675 9.29958
Si 8.00161 2.54462 7.86204
Si 7.81361 7.79252 8.42842
O 3.6632 6.90663 8.43766
O 9.791 16.7093 12.8208
O 8.35929 4.05954 8.28073
O 8.83693 8.54513 9.41868
O 7.04388 2.32013 6.5597
O 8.44121 6.33874 8.95069
O 8.93056 3.4632 4.66539
O 8.4995 5.62402 3.44515
O 7.37478 8.92064 7.36947
O 10.6187 5.60102 9.86461
O 6.48608 10.0782 9.99789
O 8.46437 4.96361 10.6255
Si 11.7427 4.62379 3.18803
Si 12.5691 0.822009 4.59954
Si 9.51887 9.89092 9.8574
Si 1.54072 1.20393 11.1443
Si 10.599 1.48372 6.77593
Si 15.4567 5.37825 6.40079
O 10.9254 9.22986 10.2084
O 11.4487 16.4301 10.49
O 11.6288 1.78249 7.99208
O 0.418743 5.01204 7.9304
O 10.2345 17.9041 6.34813
O 13.9435 3.27523 9.12795
O 9.24193 1.85914 7.49368
O 14.5274 10.6737 9.17627
O 13.9377 5.95247 6.98815
O 13.251 17.4721 8.27792
O 9.17735 11.1197 8.77251
O 0.460885 2.33584 10.8826
Si 14.4278 14.4341 8.91123
Si 2.38469 9.27139 4.66822
Si 14.2315 12.8441 11.6574
Si 3.83721 15.4051 10.8872
Si 1.29265 8.59764 9.43677
Si 1.4414 17.5437 7.63084
O 5.89267 15.5619 14.8851
O 2.14454 9.99811 9.4318
O 3.66984 10.9215 7.68717
O 2.19228 15.7769 7.40177
O 2.38449 8.40172 6.34966
O 3.54522 15.2084 4.55632
O 0.199855 14.698 8.39097
O 2.83235 17.984 8.18086
O 15.5083 13.5711 12.6515
O 2.59396 15.5161 9.98764
O 15.5878 17.2813 6.9697
O 3.63436 11.4632 12.4709
Si 4.46171 13.8851 4.76996
Si 6.65024 9.24659 5.91031
Si 6.43551 15.616 9.31175
Si 9.99845 12.2582 8.11002
Si 4.06381 11.2426 6.21851
Si 7.30581 15.9876 6.5041
O 4.76649 15.1679 9.62863
O 8.51539 10.4354 11.0631
O 12.5431 12.6278 5.6661
O 11.4342 1.84446 5.51819
O 5.38822 10.2175 6.24866
O 7.95994 14.6039 5.79495
O 4.53941 12.6121 5.6048
O 7.19431 17.4442 5.80048
O 6.30463 15.7898 7.70188
O 10.0247 13.3201 9.44401
O 6.39544 16.7891 10.3031
O 9.27024 13.2585 7.06605
Si 9.40626 13.9082 5.62716
Si 0.569535 8.40429 6.56186
Si 10.2023 16.4651 7.04712
Si 14.486 10.0888 10.6229
Si 12.8996 12.1234 6.89472
Si 12.2735 16.5048 9.12771
O 8.73771 16.1666 7.31493
O 13.0203 9.88546 11.2885
O 0.856677 9.23079 4.74618
O 14.6454 13.3697 10.1875
O 13.752 13.4631 7.60982
O 2.39699 17.2127 4.01221
O 10.7208 15.1296 6.01167
O 13.117 17.9366 5.77375
O 11.0251 16.0854 8.25752
O 0.0219249 9.14784 10.2856
O 11.5752 0.867624 15.4364
O 14.8578 11.1799 11.5428
Si 14.9142 3.1205 10.3571
Si 6.33497 0.646084 15.1094
Si 1.47066 6.56624 15.4807
Si 3.97855 1.91798 1.61729
Si 4.23497 2.69296 15.6041
Si 4.23865 5.69637 14.6519
O 1.0111 5.04689 15.6497
O 4.99118 17.8728 14.9727
O 3.96626 2.45642 -0.0313266
O 4.9306 6.7835 15.6871
O 2.37734 1.31556 12.4539
O 4.8428 5.35203 13.171
O 14.891 0.833788 13.8196
O 4.29488 8.9471 9.64214
O 2.80117 6.18294 14.386
O 7.04961 16.5572 12.5425
O 1.24849 8.08772 15.657
O 4.19159 5.29405 1.12798
Si 4.86331 4.48133 11.8872
Si 6.01513 17.3586 11.7322
Si 6.37306 7.27266 15.7144
Si 11.6886 2.39076 14.9603
Si 8.66591 2.65418 14.3725
Si 7.70986 7.43908 12.9755
O 7.53328 6.20726 15.8464
O 9.40559 17.9898 17.1449
O 7.59538 1.50978 14.2519
O 9.00774 7.45704 13.9635
O 10.2643 2.72005 14.6062
O 7.54943 5.86824 12.7969
O 5.61532 1.97224 15.405
O 6.60957 7.89964 11.6682
O 6.64377 7.79778 13.9498
O 12.2863 2.09109 13.435
O 4.24334 3.20429 2.52518
O 8.06731 3.56751 15.5792
Si 8.52771 4.68192 12.189
Si 11.1106 17.0252 11.8951
Si 10.1802 6.34318 14.1556
Si 14.8399 17.6789 12.4176
Si 12.6726 1.54818 11.9199
Si 11.9971 6.01831 10.3467
O 9.82821 5.39426 15.3934
O 14.2465 0.707838 16.2006
O 14.3451 16.4467 13.7223
O 4.24569 4.27688 15.4747
O 12.0332 15.981 12.6943
O 12.4861 5.19834 11.3045
O 9.9778 5.32068 12.7484
O 12.0134 7.36844 10.9972
O 13.8574 2.76845 11.5836
O 13.8085 0.537425 11.8022
O 11.2707 7.12469 15.0178
O 0.511101 0.108068 11.6772
Si 0.487145 13.6086 14.1086
Si 3.80144 10.4068 9.15085
Si 1.24611 16.1752 15.8646
Si 4.42672 12.4023 11.3702
Si 2.15352 11.4365 13.0857
Si 3.67485 2.03697 12.8165
O 0.818131 15.9879 0.149039
O 1.24169 10.2863 13.9466
O 5.91956 11.9034 11.8563
O 3.51144 3.6305 12.3233
O 1.44764 11.9111 11.6429
O 8.18394 3.49692 13.1483
O 1.79681 12.7621 14.0366
O 4.5971 16.5972 11.7417
O 1.02783 15.1498 14.6532
O 8.82342 13.8051 11.7675
O 3.50388 2.08454 14.3038
O 3.70582 13.7768 11.5524
Si 1.6243 14.9861 8.78886
Si 7.07965 11.0625 11.1384
Si 7.04272 15.503 13.8672
Si 9.10778 10.9624 15.0998
Si 8.41855 13.5362 10.1499
Si 9.74323 16.0953 14.3167
O 3.7006 14.0956 0.857721
O 10.5541 13.9592 13.5302
O 8.03281 14.2679 14.173
O 9.40047 12.4148 15.9979
O 7.68563 12.2215 10.0604
O 7.71617 14.9405 9.60336
O 4.09988 11.8754 9.96133
O 11.424 0.521296 11.9131
O 8.19416 16.6926 14.7436
O 10.7635 10.452 15.1565
O 8.01383 16.1574 0.433864
O 8.19016 10.0009 16.0284
Si 12.1768 14.3347 13.2918
Si 11.7466 8.98345 11.3976
Si 10.7751 17.8819 16.4493
Si 14.6795 10.5501 0.253613
Si 11.8024 9.72112 14.3792
Si 13.478 12.4488 15.1364
O 10.716 16.4387 15.6699
O 13.8799 9.27537 0.592287
O 12.8663 9.03313 15.2525
O 0.395717 17.3094 15.2749
O 11.4344 9.39214 12.9623
O 15.0162 12.7793 14.8856
O 12.9967 11.1461 14.2605
O 12.9302 13.6986 12.1227
O 12.8884 13.8922 14.7138
O 15.122 10.0407 15.6259
O 11.7864 17.7896 0.515746
O 13.7962 11.7428 16.6838
324
 Atoms. Timestep: 32000
Si 0.106287 4.38512 0.0836525
Si 4.64612 16.6965 15.3305
Si 5.09572 7.15808 4.47986
Si 3.48734 2.36617 5.93379
Si 1.86967 0.981264 3.64382
Si 4.37388 4.98752 2.50961
O 5.03412 6.45428 5.78905
O 4.50439 1.394 9.40846
O 2.4702 2.0223 4.72578
O 7.03927 8.3407 16.3473
O 2.60494 1.32075 2.33862
O 2.53003 5.54392 2.99374
O 1.43072 4.64506 1.00598
O 2.10834 6.59906 0.0426511
O 4.7839 6.2156 3.35023
O 4.72778 1.27123 5.69535
O 3.7395 8.0711 4.49908
O 4.23229 3.76837 5.56021
Si 2.04944 6.02451 1.51157
Si 7.90873 17.8756 0.56693
Si 7.72135 4.34502 4.4656
Si 9.58782 2.61767 2.90788
Si 6.56454 0.505969 3.10505
Si 8.83493 5.32613 1.87736
O 6.68941 4.71807 5.56299
O 6.69905 1.19075 4.46974
O 9.2285 3.69941 1.90367
O 12.4406 4.52398 1.56703
O 6.90801 0.610813 16.9652
O 8.63651 5.73657 0.426852
O 5.09778 0.991363 2.29591
O 9.16738 9.21248 1.39122
O 6.66646 3.37199 3.55683
O 11.1563 3.33471 3.2443
O 6.26928 8.32302 4.67646
O 10.5142 5.73678 2.39701
Si 8.54565 5.01165 16.139
Si 0.0776691 0.226919 15.4581
Si 13.0029 4.41385 5.75049
Si 14.7325 1.16523 2.5861
Si 13.7698 1.98409 17.0721
Si 13.0107 5.5585 0.274066
O 12.3083 5.2827 4.32633
O 13.8493 1.34519 3.98602
O 13.8308 1.61964 1.37885
O 12.9499 6.85416 1.18947
O 12.4474 2.56712 16.5181
O 14.8691 3.13016 16.815
O 14.833 5.57691 0.749188
O 13.1598 6.26981 16.1152
O 14.4751 4.34841 5.1134
O 0.469512 1.46042 3.12513
O 0.113889 7.22676 6.37798
O 13.4348 3.75253 7.2554
Si 0.768731 14.4257 1.36168
Si 1.17079 9.42136 15.4444
Si 2.49348 16.0663 3.44915
Si 3.92235 12.548 1.88996
Si 1.4874 11.7922 0.264118
Si 4.2204 15.3821 0.937827
O 12.8522 15.2743 9.33146
O 3.24652 10.2429 5.27645
O 2.53587 11.4566 1.69907
O 5.74533 15.3113 1.68044
O 1.72367 10.2911 16.6074
O 3.04916 15.7567 15.0098
O 0.558173 13.0851 0.703922
O 4.48476 16.5854 16.85
O 3.32877 16.0775 2.05623
O 5.48479 12.1734 1.56325
O 3.34635 2.40823 7.46762
O 3.60214 12.8697 3.34689
Si 9.36748 13.7968 13.317
Si 8.21869 9.24532 0.0295764
Si 6.43291 15.5723 3.1596
Si 8.45284 11.2357 4.07149
Si 6.94865 11.6595 1.31055
Si 9.16671 15.3884 2.12921
O 5.27659 14.9521 4.08528
O 7.58181 10.4901 5.06477
O 8.02919 12.5621 0.503341
O 9.22322 12.2969 5.03016
O 6.9938 10.436 0.414405
O 9.64088 14.0391 1.35165
O 9.51644 12.1847 14.0216
O 7.71498 0.595308 1.8333
O 7.80563 15.0119 2.77607
O 9.59282 10.3354 3.5085
O 6.78308 17.1514 3.31344
O 7.61072 11.5902 2.80071
Si 9.5457 12.7808 0.439769
Si 12.7439 7.68191 15.2788
Si 11.7601 16.8652 2.39521
Si 12.5571 8.35159 0.881967
Si 10.3354 10.1496 2.2196
Si 14.6488 16.2697 2.42003
O 11.5198 12.1576 8.10989
O 0.483723 8.55078 8.38897
O 11.5348 9.30905 1.99986
O 1.18667 15.1699 2.75855
O 11.955 8.32158 16.6748
O 14.8485 15.8171 0.920033
O 10.0523 11.6191 1.50275
O 14.9459 17.7091 2.38016
O 10.7216 15.6994 2.92951
O 0.285843 10.8277 0.840635
O 12.0391 17.8331 3.5573
O 13.1173 15.9222 2.33493
Si 13.3023 2.45345 7.98362
Si 3.06014 1.46366 8.89178
Si 0.497772 5.18638 9.15474
Si 5.91286 1.91116 10.1371
Si 14.3666 17.6971 7.20811
Si 3.6985 5.40502 9.07025
O 0.176844 4.29615 10.3587
O 6.40981 0.62231 10.7856
O 2.05765 1.19316 10.0462
O 6.76473 7.48369 9.5068
O 1.06483 17.2496 9.11138
O 4.80681 4.8738 7.92862
O 14.2581 1.18866 7.4092
O 2.22771 4.81549 8.97631
O 3.96647 5.16152 10.5584
O 7.1316 2.10949 9.0751
O 0.45265 6.72795 9.83631
O 5.59841 3.24444 10.7642
Si 5.3744 4.92337 6.44875
Si 6.20011 0.819217 5.94652
Si 5.99474 8.36176 10.5502
Si 9.1259 5.03623 8.7438
Si 8.15821 2.38834 7.6078
Si 7.76123 7.83687 8.19176
O 3.53506 6.95877 9.15341
O 10.1275 17.3874 13.2818
O 8.85124 3.6355 8.17614
O 8.93233 8.5552 9.1303
O 7.10398 1.79703 6.70863
O 8.29281 6.23782 7.95604
O 8.86135 3.22101 4.11439
O 7.83589 5.44781 3.16366
O 7.366 8.97311 7.14439
O 10.5507 5.81783 9.12183
O 6.73012 9.73155 10.6313
O 8.65895 5.05928 10.2841
Si 11.7351 4.7647 2.90431
Si 12.766 0.460824 4.77053
Si 9.94737 9.67177 9.69847
Si 1.28383 0.84391 11.413
Si 10.7144 1.23949 6.8235
Si 15.3456 5.688 6.45903
O 11.5417 9.46297 9.694
O 11.2311 16.7353 10.3924
O 11.8885 2.09775 7.80219
O 14.6921 5.65667 8.16602
O 10.6348 17.8339 6.56517
O 14.0577 2.76991 9.48542
O 9.21835 1.2378 7.79008
O 15.1782 11.0365 9.24167
O 13.7484 6.10575 6.27779
O 13.0935 17.2441 8.12893
O 9.4897 10.7865 8.77209
O 15.6148 1.82576 11.522
Si 14.2148 14.1693 8.87798
Si 2.43108 9.04787 4.86538
Si 14.5026 13.1303 11.8366
Si 3.72085 15.0734 10.7856
Si 1.14745 8.10429 9.80343
Si 1.72688 17.3606 7.38472
O 5.86218 15.6436 14.9404
O 2.28634 9.27614 9.69324
O 3.71779 10.7139 7.85861
O 2.01964 15.5304 7.58937
O 2.22859 8.66643 6.68178
O 2.88457 14.897 4.64802
O 15.5163 15.1578 8.36482
O 2.82347 0.0125954 8.16991
O 15.441 14.5752 12.3632
O 2.35956 15.1887 10.0918
O 0.213458 17.7289 7.00021
O 3.77221 11.8371 12.8038
Si 4.1584 13.9233 4.70377
Si 6.51715 9.43596 5.76027
Si 6.08991 15.2435 9.1064
Si 9.91919 12.2754 8.13007
Si 4.02025 11.1213 6.38011
Si 7.14899 15.8907 6.43136
O 4.6822 14.7608 9.59653
O 9.07027 10.3077 10.9309
O 12.5708 13.228 6.23347
O 11.8522 1.32487 5.54069
O 5.33887 10.4313 6.06359
O 7.28939 14.1978 5.70047
O 3.92716 12.7202 5.81607
O 6.48363 17.4383 6.28449
O 6.34258 15.4378 7.65514
O 9.65278 13.0207 9.47772
O 6.31953 16.6529 9.8884
O 9.51184 13.4955 7.27635
Si 9.27433 13.7944 5.71038
Si 0.5627 8.81489 6.91455
Si 10.0844 16.3892 6.71941
Si 15.181 10.5197 10.684
Si 12.8214 12.2108 7.12862
Si 11.9774 16.5089 9.01893
O 8.29953 16.7215 7.37591
O 13.6356 10.1571 10.6033
O 0.65685 9.39511 5.24115
O 14.8796 13.5327 10.1704
O 14.0428 12.7573 8.03475
O 1.9368 17.4982 3.81971
O 9.64785 15.2086 5.45397
O 13.6869 17.7205 5.78361
O 11.1166 15.9313 7.87493
O 0.0902368 9.12911 10.6073
O 11.313 0.810463 15.8366
O 14.769 11.4709 11.9951
Si 14.7559 3.17697 10.7909
Si 6.3814 1.18592 15.5813
Si 1.61861 6.59368 15.8592
Si 3.96297 2.05114 1.74185
Si 4.07242 3.04485 16.0506
Si 4.24072 5.62539 14.4312
O 0.320524 5.42731 16.0865
O 5.40474 -0.115601 15.0799
O 3.51626 2.17002 0.117075
O 5.40921 6.77765 14.5867
O 1.99169 1.46377 12.6165
O 4.61231 5.17217 12.9029
O 0.501527 0.0266178 14.0293
O 4.80038 8.97542 9.22158
O 2.8681 6.127 15.1115
O 6.97475 16.5312 12.2159
O 1.85222 8.11023 15.5975
O 3.90054 5.71739 1.20507
Si 4.63558 4.1802 11.6607
Si 5.783 17.2858 11.2924
Si 6.66342 7.17213 15.323
Si 11.535 2.24439 15.0924
Si 8.52053 2.81741 14.2738
Si 8.04967 7.59771 12.5119
O 7.22166 5.64957 15.733
O 9.29082 0.237974 17.1199
O 7.25562 1.77761 14.441
O 9.61588 7.42361 12.8533
O 10.0981 2.26246 14.1131
O 7.86654 5.93942 12.5115
O 5.30976 2.12951 16.0538
O 6.4125 7.91346 11.9514
O 7.59038 7.73107 13.9868
O 12.6959 1.96189 14.0746
O 4.08227 3.46114 2.2256
O 8.31462 3.52394 15.5597
Si 8.80471 4.78577 11.932
Si 10.9737 16.9885 11.9236
Si 10.4304 6.18155 13.8298
Si 15.0682 17.4472 13.0887
Si 12.8841 1.5819 12.4976
Si 11.8906 6.31997 9.7455
O 9.79311 5.94711 15.334
O 14.7689 0.755835 16.5527
O 14.29 17.2963 14.5212
O 4.62752 4.47989 15.5238
O 11.986 15.9339 12.6106
O 12.2403 5.10764 10.2603
O 10.3859 5.22936 12.5237
O 11.8777 7.34918 11.0576
O 13.6016 3.00674 11.8723
O 14.2875 0.700486 12.6747
O 11.4035 7.29856 14.4661
O 0.661114 17.6128 11.7915
Si 0.253 13.7689 14.2774
Si 3.5286 10.1461 9.19944
Si 1.73515 15.8554 15.9398
Si 4.49458 12.3041 11.4813
Si 2.03269 11.4067 13.3004
Si 3.47947 1.78232 13.1736
O 1.67443 15.2513 0.351484
O 2.18518 10.2315 14.3578
O 6.10135 11.6889 12.1094
O 3.7962 3.07406 12.3112
O 1.64678 11.5984 11.8714
O 8.33222 3.51122 12.8022
O 1.36889 12.7376 13.8716
O 4.38673 16.4122 11.4125
O 0.899093 14.6625 15.3612
O 9.01216 13.2377 11.9049
O 3.27463 2.49568 14.6528
O 4.38329 13.8673 11.6666
Si 1.21967 15.2815 9.01791
Si 7.3786 11.0928 11.3943
Si 6.99775 15.8813 13.6552
Si 9.61941 11.0796 15.1653
Si 8.52746 13.6364 10.466
Si 9.63667 16.4877 14.4708
O 3.91137 13.7567 0.910551
O 10.8644 14.211 13.4063
O 8.26492 14.5613 14.3379
O 10.2582 12.1358 16.3059
O 7.3461 12.1098 10.0739
O 7.37893 14.5088 9.90746
O 4.0948 10.9682 10.5876
O 11.983 0.224058 12.1762
O 8.04194 17.1425 14.3172
O 10.8163 10.2031 14.6599
O 8.72223 16.6753 1.50693
O 9.03543 10.0568 16.3226
Si 12.3236 14.7407 13.4305
Si 12.3789 8.9298 11.0976
Si 10.8128 17.9655 16.9099
Si 14.5615 10.3911 17.1109
Si 12.2014 10.3028 13.854
Si 13.5226 12.7035 15.5234
O 10.3096 16.5981 16.0986
O 13.7919 9.28826 1.00928
O 13.0684 9.23066 14.5244
O 0.856252 17.0842 15.9945
O 11.6832 9.66596 12.4188
O 14.7394 12.8493 14.3941
O 12.7103 11.6811 14.7197
O 12.8882 13.5525 12.425
O 12.7271 13.8909 14.7863
O 15.2565 9.60208 15.8663
O 11.2527 17.2116 0.982921
O 13.8403 11.595 16.6472
324
 Atoms. Timestep: 32500
Si 0.0318444 4.77406 -0.137175
Si 4.59199 16.7821 15.7051
Si 4.69738 7.31444 4.77051
Si 3.55875 2.27234 5.84902
Si 2.13075 0.484961 3.59889
Si 4.28731 5.09315 2.53391
O 4.80721 6.14805 5.79421
O 4.71555 1.5154 9.04784
O 2.75661 1.28433 4.69497
O 7.36475 8.50036 16.1999
O 2.69033 1.35451 2.41352
O 2.58881 5.6491 2.99126
O 1.14151 5.2853 1.09529
O 2.05095 7.12751 0.023386
O 4.73302 6.57375 3.30533
O 4.87884 1.49601 5.9983
O 3.23448 8.01887 5.04523
O 4.1055 3.69271 5.82784
Si 2.13367 6.44733 1.45898
Si 8.06432 17.9378 0.787765
Si 7.35818 4.20267 4.27713
Si 9.44174 2.58175 2.78535
Si 6.06982 0.146138 3.02955
Si 8.96039 5.28183 1.92364
O 6.5741 4.51073 5.74636
O 6.39526 1.02176 4.27748
O 8.85696 3.67941 1.77589
O 12.3379 4.67278 1.491
O 6.93046 0.127158 16.9919
O 9.06635 5.78549 0.313148
O 5.27096 1.23564 1.9825
O 9.11202 9.60903 1.05967
O 6.36293 3.58979 3.41678
O 10.7263 3.45807 3.29408
O 5.4909 8.91988 4.87503
O 10.4039 5.68177 2.68024
Si 8.80274 5.3657 16.2146
Si 0.663995 0.448238 16.1687
Si 13.565 4.31689 5.35459
Si 14.9116 1.15615 2.5633
Si 14.1416 2.36319 17.0299
Si 12.8363 5.66392 0.341627
O 12.9081 4.13518 3.82198
O 13.8421 1.38481 3.71603
O 14.5963 2.05966 1.25007
O 12.8747 7.11162 1.03962
O 12.5654 2.42682 16.4683
O 15.0437 3.51165 16.6235
O 14.4465 5.343 0.577562
O 13.0838 6.29942 16.1173
O 15.1528 4.7301 5.14002
O 0.499526 0.785383 3.23421
O 15.056 7.94819 6.4841
O 13.4356 3.25339 6.40522
Si 0.362353 14.3779 1.2313
Si 0.948596 9.75044 15.6148
Si 2.51123 15.7886 2.8142
Si 3.98518 12.5325 1.74532
Si 1.48254 11.6819 0.583727
Si 5.06231 15.2702 0.993491
O 13.0272 15.1574 8.97618
O 3.26739 10.2389 5.83306
O 2.5963 11.3667 1.67784
O 5.79912 14.7507 2.18483
O 1.77903 10.8463 16.3775
O 3.17906 16.212 15.3203
O 0.668694 12.8364 1.17377
O 4.98272 16.2721 17.0667
O 3.52333 15.8811 1.60854
O 5.09279 11.4231 1.3517
O 3.01059 2.33306 7.31667
O 4.22217 12.7527 3.47363
Si 9.14845 13.4968 13.3049
Si 8.16882 9.51517 16.9173
Si 6.33153 15.434 3.68279
Si 7.9451 11.1829 4.0656
Si 6.67686 11.5353 1.34745
Si 8.93292 15.3347 1.88197
O 5.49494 14.4832 4.54921
O 7.32299 10.3261 5.08647
O 8.13181 12.1692 0.914494
O 8.06783 12.8109 4.67805
O 6.83827 10.4683 0.208702
O 9.65996 13.949 1.03153
O 9.41829 12.2484 14.1594
O 7.5657 -0.0490453 2.23009
O 7.71892 15.5738 3.03625
O 9.30021 10.64 3.51058
O 5.77585 16.8937 3.76406
O 6.91778 11.2489 2.91766
Si 9.55984 12.5011 0.742047
Si 12.6843 7.85766 15.1992
Si 11.7237 16.7132 2.15404
Si 12.299 8.52884 0.844176
Si 10.1007 9.88914 2.222
Si 14.5623 16.4453 2.71795
O 11.4968 12.3504 7.41867
O 15.5333 8.67245 8.58101
O 11.3664 8.93711 2.152
O 1.26007 14.8244 2.29641
O 11.8049 8.3373 16.4327
O 15.0801 15.4923 1.25746
O 10.6157 11.2722 1.38834
O 14.5667 17.8247 1.95252
O 10.2971 16.0112 2.18318
O 0.211135 10.2962 0.985003
O 11.4172 17.7466 3.5848
O 13.0424 16.0342 2.54952
Si 13.2895 2.35743 7.78836
Si 3.12958 1.35596 8.74767
Si 0.492816 5.28433 8.9251
Si 5.89473 1.73055 10.0688
Si 13.7783 17.8051 6.90469
Si 3.39643 4.74401 9.08544
O 15.1934 4.74512 10.0406
O 5.62712 0.395384 10.9345
O 2.48333 1.43079 10.1401
O 7.0725 8.38264 9.09183
O 0.751161 17.2261 9.33444
O 4.79753 4.6505 8.06253
O 14.042 1.1309 7.13699
O 1.88186 4.34649 9.06309
O 3.82845 4.15979 10.695
O 7.20042 2.1581 9.4111
O 0.891204 6.72211 9.55143
O 5.69831 3.09629 10.8775
Si 5.11079 4.82288 6.40255
Si 6.48656 1.18207 5.83242
Si 6.06837 8.51257 10.2999
Si 8.80847 4.96842 9.18774
Si 8.3261 2.18755 8.12906
Si 8.02846 7.89096 7.98528
O 3.5436 6.25801 9.4375
O 10.2695 16.8702 12.7812
O 8.37682 3.75248 8.36463
O 9.39448 8.77804 8.59728
O 7.09804 1.83259 7.1011
O 8.21386 6.34398 8.37696
O 8.44592 2.86902 4.05253
O 7.84936 5.50411 3.17002
O 7.48643 8.60705 6.70481
O 10.3291 5.59023 9.06368
O 6.80203 9.99214 10.6225
O 8.77718 4.16214 10.6314
Si 11.6264 4.68513 3.08985
Si 12.4956 0.448146 4.28059
Si 9.59558 10.1039 9.60735
Si 1.22672 1.46102 11.2601
Si 10.7815 1.00963 6.73806
Si 15.016 6.24986 6.28758
O 11.1286 9.91157 10.0972
O 12.0215 16.6896 10.7748
O 11.8787 1.88991 7.49391
O 15.4719 5.3052 7.59844
O 10.5909 17.6691 5.97774
O 13.7705 2.75296 9.42037
O 9.56643 2.03188 7.02078
O 15.5461 11.1478 9.79893
O 13.3014 5.95747 6.35699
O 13.1155 17.6495 8.44266
O 9.56835 10.9952 8.34588
O 0.383909 2.47452 10.4522
Si 14.2499 14.2732 9.05075
Si 2.29904 9.19256 5.2596
Si 14.0824 13.1838 11.9849
Si 3.78214 14.3885 10.7027
Si 0.812082 8.33769 9.84009
Si 1.04093 17.6427 7.76431
O 5.60699 16.1992 14.6882
O 1.97986 9.40591 9.46821
O 3.71219 11.2655 8.31046
O 1.54344 15.8907 7.70971
O 1.80321 8.3268 6.85609
O 3.17414 14.9115 3.95111
O -0.165044 14.9643 9.05484
O 2.63316 0.0787583 8.06771
O 15.5984 13.7115 12.6252
O 3.0048 15.4086 9.72308
O 15.3571 17.2725 7.15769
O 3.69554 11.1916 13.3144
Si 3.98215 13.8838 4.64041
Si 6.38999 9.58312 6.08174
Si 6.23455 15.1958 9.01674
Si 9.98276 12.488 7.82213
Si 4.07413 11.3709 6.69446
Si 7.33008 16.3445 6.45554
O 5.07491 14.2726 9.64943
O 8.71006 9.71537 11.2036
O 12.7894 13.0755 5.61397
O 11.4273 1.48903 5.17381
O 5.67805 10.9234 6.71055
O 7.96151 14.8507 6.00458
O 4.27944 12.8893 6.04538
O 6.44767 17.8345 6.28544
O 6.48187 15.8569 7.6498
O 9.69348 13.3299 9.06024
O 6.41834 16.3744 10.0618
O 9.07794 12.6249 6.65869
Si 9.06361 13.814 5.42994
Si 0.173292 9.05101 7.04087
Si 10.1247 16.3963 6.83893
Si 14.9296 10.3576 11.2192
Si 13.1281 12.6376 6.87899
Si 12.2043 16.5938 9.14307
O 8.70775 16.8834 7.28118
O 13.476 10.0213 10.0839
O 0.692794 9.86436 5.49349
O 14.2634 13.5361 10.4102
O 14.3937 13.5874 7.58778
O 2.47147 17.0624 3.59228
O 10.1316 14.8728 6.1405
O 13.1561 17.7276 5.39923
O 10.8301 16.613 8.43073
O -0.109626 8.87308 11.2051
O 11.597 -0.0352824 15.6496
O 14.26 11.4957 11.9177
Si 14.798 3.27793 10.4947
Si 6.48383 1.12468 15.3708
Si 1.50952 6.83324 15.6792
Si 3.91202 2.02008 1.63983
Si 4.17772 3.00448 15.8593
Si 4.12364 5.71945 14.3602
O 0.243928 5.98511 16.2806
O 4.99207 0.384763 15.237
O 4.08009 2.64799 0.174918
O 4.99014 6.69662 15.097
O 1.94061 2.42423 12.5857
O 4.60476 5.53075 12.7999
O 1.18579 0.895853 14.4696
O 4.70635 9.04313 9.72896
O 2.62297 6.05358 14.5586
O 6.47134 16.6123 12.5574
O 0.823379 8.12868 15.5636
O 3.92123 5.68158 1.02129
Si 4.95175 4.14511 11.7511
Si 5.48822 16.8399 11.317
Si 6.56374 7.25371 15.4652
Si 11.717 1.61353 15.352
Si 8.90291 2.6854 14.7246
Si 7.55927 7.20673 12.594
O 7.47111 6.14744 16.1775
O 9.38688 0.110347 -0.010139
O 8.03561 1.4483 15.2928
O 9.1812 7.43666 12.8322
O 10.3157 2.30356 15.0173
O 7.52346 5.46147 12.3068
O 5.74485 2.39978 15.8899
O 6.63541 7.75493 11.5202
O 7.10003 7.07016 14.0337
O 12.5281 1.85901 14.1529
O 4.03127 3.5025 2.59566
O 8.37744 3.90799 15.6374
Si 8.85103 4.27913 12.1568
Si 11.8711 17.2663 12.1882
Si 10.3872 6.43761 13.6234
Si 0.0352824 18.0424 13.5374
Si 13.3883 1.67549 12.8555
Si 11.7441 6.10271 9.62744
O 9.62717 6.15614 15.0084
O 14.8591 0.925154 16.5096
O 15.4202 17.3979 15.0403
O 3.99773 4.38207 15.094
O 12.5095 15.9943 12.9174
O 12.7629 5.19426 9.50049
O 9.97863 5.13721 12.9062
O 12.3961 7.80171 9.50139
O 14.2831 2.79909 11.9224
O 14.7077 1.20049 13.5464
O 11.5678 7.49582 13.9627
O 0.735464 0.175274 12.1746
Si 0.67185 13.7398 13.9182
Si 3.4164 10.1132 9.39576
Si 1.8504 15.7817 16.0045
Si 4.71513 11.8261 12.0698
Si 2.03407 11.3121 13.12
Si 3.52481 2.0128 13.1397
O 1.28196 14.7532 17.1045
O 1.55442 10.13 14.1891
O 6.15535 11.4679 12.2976
O 4.18397 3.30286 12.889
O 1.88713 10.5582 11.6306
O 8.4014 3.23312 13.2224
O 2.03388 12.7807 14.0004
O 4.42405 15.6434 11.4887
O 0.817509 15.1588 14.7213
O 9.70821 13.3803 11.7406
O 3.4797 2.0755 14.7745
O 4.17832 13.1244 11.5827
Si 1.33958 15.3374 9.19885
Si 7.57607 11.0306 11.5561
Si 6.99823 15.8199 13.9875
Si 9.95991 11.3147 15.2757
Si 8.56142 13.6004 10.2185
Si 9.73341 16.3498 14.1061
O 4.21989 13.9396 0.599848
O 10.667 14.1134 13.6884
O 8.01123 14.6429 13.8263
O 10.1502 12.3102 16.5238
O 7.68676 12.1506 10.4038
O 7.52762 14.3226 9.28218
O 3.89596 10.8853 10.6996
O 13.0171 0.154081 12.2812
O 8.32089 17.1129 14.3245
O 11.1685 10.489 14.4518
O 8.24199 16.3303 0.685938
O 9.35369 10.0457 16.0743
Si 12.0714 14.7081 13.8189
Si 12.2409 9.03723 10.6415
Si 10.6897 17.3979 16.7297
Si 14.609 10.5146 0.195464
Si 12.5374 10.4332 13.7237
Si 13.8599 12.6105 15.3601
O 10.1949 16.2763 15.6598
O 13.5552 9.20255 0.524388
O 13.0808 9.24403 14.6375
O 1.4927 17.3234 16.5621
O 12.1574 9.54941 12.1949
O 15.3296 12.8843 14.713
O 13.3501 11.7171 14.1699
O 12.6903 13.7377 12.2569
O 12.6504 13.7886 15.0912
O 15.2131 9.72571 16.1317
O 11.743 16.7921 0.511319
O 13.4136 11.6594 16.6214
324
 Atoms. Timestep: 33000
Si 0.105562 4.92645 0.0515897
Si 4.98368 16.5571 15.5915
Si 4.6076 7.27816 5.11057
Si 3.62539 2.03646 6.04759
Si 2.0683 0.708902 3.50296
Si 3.56294 5.13338 3.01688
O 4.12795 6.25992 6.32025
O 4.97883 1.06623 9.2061
O 2.86057 1.43551 4.74727
O 6.94283 8.43468 16.1939
O 2.82824 1.16045 2.20103
O 1.98864 5.74846 3.04404
O 1.50183 5.06865 0.633914
O 2.52314 6.97123 16.8967
O 4.11803 6.62187 3.78186
O 4.91475 1.20331 6.08554
O 3.63481 8.693 5.15666
O 4.17768 3.45965 5.93168
Si 2.20047 6.51908 1.33405
Si 8.28086 -0.00838104 0.80893
Si 7.5202 4.32216 4.59955
Si 9.28187 2.79097 3.02132
Si 5.9783 0.121895 2.68492
Si 8.70808 5.45906 2.04303
O 6.26458 4.67883 5.53243
O 6.33357 1.00291 3.95499
O 8.83713 3.95133 1.90967
O 12.2895 4.77538 1.37561
O 7.23476 0.676274 -0.0992768
O 8.37699 5.78441 0.508759
O 5.15335 1.24077 1.89124
O 8.75475 9.31284 1.09188
O 6.60269 3.48679 3.45572
O 10.8827 2.94722 2.93289
O 6.13113 7.96794 5.28599
O 10.3065 5.5537 2.62032
Si 8.42824 5.16816 16.4168
Si 0.0386292 17.9734 15.7938
Si 13.6308 4.43379 5.10044
Si 14.9175 0.766452 2.64516
Si 14.5356 2.16479 -0.0880269
Si 13.15 6.03841 0.631493
O 12.7247 5.01025 3.92199
O 13.7676 1.25289 3.76698
O 14.4479 1.75667 1.59415
O 12.4788 7.24013 1.48
O 13.0298 2.40691 16.5349
O 15.5331 3.32649 16.9912
O 14.6092 5.74515 0.104846
O 12.4946 6.0946 16.2761
O 15.1473 5.27745 5.18496
O 0.564533 1.01982 3.34135
O 14.5211 8.31805 6.16986
O 13.7791 3.27476 6.22383
Si 0.67201 14.7119 1.14729
Si 0.651977 9.63652 15.8254
Si 2.72096 15.7703 3.35523
Si 3.93936 12.2153 1.78001
Si 1.12923 11.4933 0.878995
Si 4.39017 15.0991 0.964623
O 13.1291 15.235 9.19117
O 2.85464 10.669 6.07274
O 2.61432 11.4296 1.61557
O 5.65118 14.5817 2.14584
O 1.26668 10.2846 17.1548
O 3.59532 15.9172 15.3727
O 0.996341 13.0493 1.50886
O 5.26558 15.9278 17.0373
O 3.75594 16.0697 2.06457
O 5.42458 12.2615 0.65667
O 3.38047 1.98469 7.62963
O 3.91374 12.2039 3.4676
Si 9.25612 13.5088 12.9821
Si 7.98474 9.28818 17.0927
Si 6.30741 15.3892 3.2953
Si 7.8324 11.3919 3.90309
Si 6.73505 11.6981 1.03176
Si 8.95676 15.4146 1.8723
O 5.70317 14.3259 4.297
O 7.29057 10.1318 4.91815
O 8.00154 12.3444 0.230713
O 8.22814 12.7424 4.82052
O 6.70727 10.1859 0.333394
O 9.71549 14.2724 0.792666
O 9.20059 12.2328 13.8631
O 7.49681 0.26298 2.09629
O 8.0221 15.031 3.05419
O 9.10594 10.493 3.49695
O 6.04882 16.8556 3.22164
O 7.12703 11.6517 2.54018
Si 9.54424 12.7558 0.529019
Si 12.5054 7.48194 15.3963
Si 11.5828 17.096 2.17623
Si 11.939 8.51239 0.814744
Si 9.69982 9.96023 2.17246
Si 14.2497 15.9142 2.78781
O 11.6707 12.2835 6.96434
O 0.353108 8.94424 8.37892
O 11.1812 9.31091 2.34786
O 1.57784 15.3528 2.32666
O 11.9177 8.32213 16.5559
O 14.9322 15.0809 1.79536
O 9.95769 11.4368 1.39821
O 14.8168 17.3337 2.81399
O 10.1107 16.4945 2.52643
O 15.2187 11.2612 1.2148
O 11.8726 0.120775 3.21733
O 12.7257 15.9084 2.26916
Si 13.3346 2.25345 7.27584
Si 3.47023 1.07587 8.92662
Si 0.581692 5.51435 8.66457
Si 6.26946 1.64012 10.0538
Si 14.0669 17.5495 6.74455
Si 3.77442 4.97114 9.27631
O 15.3396 4.61549 9.55579
O 6.28704 0.540552 11.4049
O 2.48093 1.7442 10.021
O 6.50185 7.57113 8.96076
O 0.623583 17.0255 9.62306
O 4.93526 4.5821 8.0507
O 14.217 0.858679 6.70803
O 2.23794 5.25065 8.9093
O 4.08438 4.62727 10.8861
O 7.43108 2.03033 9.07278
O 0.759079 6.88678 9.78066
O 5.83895 3.02207 10.6082
Si 4.92851 4.80242 6.45445
Si 6.45943 1.03781 5.44525
Si 5.9882 8.52544 10.0828
Si 9.25532 4.77927 9.22818
Si 8.15785 2.24358 7.68461
Si 8.02084 7.47045 8.23595
O 4.10082 6.53059 9.53873
O 10.6878 17.5101 12.8517
O 9.02593 3.60781 8.22366
O 8.86311 8.49272 9.34232
O 7.19168 2.11957 6.35626
O 8.60868 6.08908 8.76538
O 8.99331 3.41551 4.5893
O 7.86006 5.45627 3.55352
O 7.62715 8.55684 7.10968
O 10.8871 4.98064 9.42398
O 6.74703 9.96459 9.93436
O 8.8178 4.70283 10.6627
Si 11.5854 4.37723 2.79166
Si 12.61 0.717819 4.55044
Si 9.62542 9.9119 9.24804
Si 1.48299 2.04787 11.2745
Si 10.6452 0.800578 6.77373
Si 14.4286 6.47605 6.57107
O 11.31 9.63972 9.81992
O 12.0745 17.089 10.7156
O 11.9668 1.48889 7.47901
O 15.2348 6.21321 7.78269
O 10.9675 17.4497 6.87819
O 14.2176 2.5124 8.46882
O 9.09947 1.17123 7.00778
O 14.6009 10.3572 9.35834
O 13.0752 5.71055 6.41363
O 13.0523 17.3245 7.93587
O 9.76062 10.9091 8.05066
O 0.227207 2.19703 10.3432
Si 13.9679 14.1307 8.73204
Si 2.14074 9.53076 5.15107
Si 14.2818 13.204 11.548
Si 3.83662 14.6774 10.9169
Si 1.11725 8.34379 9.82016
Si 1.36928 17.3914 7.7714
O 6.10396 15.5151 14.7387
O 2.41288 9.6004 9.68633
O 4.19486 11.3468 8.1363
O 1.60546 15.5516 7.99907
O 1.47248 8.39226 6.46689
O 3.39634 14.6782 4.28077
O 15.4646 14.7522 8.96197
O 2.69176 17.8186 8.46328
O 15.3513 13.8052 12.5497
O 2.31995 14.6978 10.3962
O 15.6343 17.3682 7.30112
O 3.62305 11.482 13.1753
Si 4.44417 13.4097 4.61791
Si 6.7289 9.17315 5.97644
Si 6.16679 15.2667 9.17407
Si 10.1103 12.5429 7.7488
Si 4.39991 11.1494 6.56892
Si 7.30816 16.2225 6.57133
O 4.58236 14.8508 9.51733
O 8.88245 10.4717 10.5142
O 13.2281 13.2039 5.12218
O 11.108 1.08572 5.31793
O 5.37574 10.0725 6.68153
O 7.82462 15.1573 5.55031
O 4.91555 12.4847 5.78577
O 6.90096 17.7523 5.95845
O 6.30356 15.5133 7.48152
O 9.58701 13.0544 9.1683
O 6.00164 16.7446 9.86712
O 9.02828 13.4342 7.05899
Si 8.9438 14.0526 5.59294
Si 0.00163178 9.14346 6.85571
Si 10.1649 16.1281 7.47806
Si 14.8054 10.1383 11.0026
Si 13.0952 12.4431 6.24583
Si 12.573 16.8176 9.23864
O 8.63419 16.9369 7.37955
O 13.3986 9.44034 11.2028
O 0.66448 10.3042 5.51548
O 13.9898 13.3221 10.0872
O 13.8002 13.1129 7.53395
O 2.23715 17.3903 3.63897
O 10.1322 14.9937 6.17862
O 13.2331 17.5375 5.30432
O 10.8839 16.3739 8.89054
O 0.118061 8.96958 10.8262
O 11.452 0.679056 15.7779
O 14.5148 11.589 11.822
Si 14.7868 3.0763 9.92318
Si 6.70519 0.933433 15.6983
Si 1.61177 6.6998 15.5379
Si 4.01958 2.30437 1.74402
Si 4.21336 2.8255 16.1141
Si 3.906 5.30697 14.4358
O 0.530959 5.3798 15.7297
O 5.86541 17.882 15.4529
O 3.55685 2.40727 0.203749
O 4.66808 6.79307 15.0801
O 2.96447 2.40469 12.2925
O 4.59864 4.99969 13.1053
O 0.739266 0.788229 14.5712
O 4.57585 9.02919 9.45949
O 2.48492 6.08331 14.3613
O 6.61374 16.5623 12.3074
O 1.49024 8.33148 15.1327
O 3.8948 6.18548 1.45057
Si 5.10295 3.89258 11.7628
Si 5.58822 17.1653 11.3844
Si 6.29667 7.31004 15.2717
Si 12.0239 2.09815 15.2957
Si 9.07843 2.47678 15.09
Si 7.40017 6.90099 12.4908
O 6.90092 5.7717 16.0045
O 9.61051 -0.0203808 17.1196
O 7.68277 1.5993 14.7047
O 8.9459 7.34439 12.9957
O 10.7047 2.86936 15.5526
O 7.76438 5.33947 12.7634
O 5.68242 2.16089 16.0778
O 7.33831 7.72383 11.1159
O 6.70952 7.31832 13.8793
O 12.845 2.30611 13.998
O 3.40315 3.8492 2.20949
O 8.19504 3.60326 16.0496
Si 9.11956 4.37758 12.1757
Si 12.1488 17.4116 12.3427
Si 9.90199 6.45489 14.0403
Si 0.00818503 0.0495198 13.0933
Si 13.4455 2.12779 12.4911
Si 11.9823 6.12442 10.123
O 8.97219 5.75931 15.0506
O 15.0323 0.969255 16.4092
O 14.9325 17.3485 14.366
O 4.30092 4.30994 15.6017
O 12.7402 15.9891 12.9743
O 12.6697 6.69212 9.02408
O 10.1636 5.43614 12.8456
O 11.8116 7.34437 11.3244
O 13.876 2.84865 11.1632
O 14.7966 1.37553 12.9584
O 11.0866 7.31095 14.5663
O 1.30134 0.531836 12.0123
Si 0.29904 13.9588 13.9874
Si 3.7792 10.353 9.43552
Si 2.10795 15.5902 15.8764
Si 4.71547 11.8593 12.0519
Si 1.86695 11.523 13.2994
Si 4.02976 1.67608 13.2466
O 1.54043 14.8779 17.098
O 0.92403 10.7567 14.6414
O 6.18651 11.092 12.2492
O 5.2981 2.63166 12.8915
O 1.53961 11.7012 11.7857
O 9.06295 3.51555 13.7767
O 1.58261 12.9998 13.7356
O 4.44255 16.1237 11.6551
O 1.15187 15.0717 14.5605
O 9.35913 14.0166 11.5357
O 3.68324 2.35182 14.714
O 4.32908 13.3475 11.6164
Si 1.00145 15.3965 9.48079
Si 7.38891 10.9532 10.9315
Si 7.22723 15.6226 13.6194
Si 9.52066 11.3946 15.2324
Si 8.74158 13.9504 10.1337
Si 10.0248 16.5588 14.0584
O 3.52488 13.6762 1.41811
O 10.7652 14.2788 13.5447
O 8.14028 14.4251 13.5126
O 10.101 12.4157 16.3696
O 7.70218 12.5494 10.5418
O 7.61743 14.7739 9.42955
O 4.10647 11.0874 10.7185
O 12.6637 0.707648 12.1433
O 8.38187 16.5677 14.0387
O 10.8293 10.6458 14.8793
O 8.27486 16.509 0.981917
O 8.55246 10.363 16.0777
Si 12.3248 14.6986 13.5844
Si 11.7628 8.96879 11.2139
Si 11.1164 17.5272 16.4914
Si 14.1038 10.4881 0.262034
Si 12.0648 10.1222 13.9737
Si 13.6369 12.4773 15.2505
O 10.6342 16.1612 15.5317
O 13.2475 9.46346 1.13186
O 13.0272 8.9137 14.5787
O 1.43611 17.1804 15.8051
O 11.2337 9.40354 12.7911
O 15.1933 12.77 14.7376
O 13.0786 11.3565 14.3378
O 12.9483 13.6851 12.279
O 12.7942 13.5736 14.6843
O 14.9465 9.89019 16.4828
O 11.597 17.1102 0.648778
O 13.4716 11.5577 16.6177
324
 Atoms. Timestep: 33500
Si 0.197559 4.51422 16.8633
Si 4.86496 16.4877 15.4733
Si 4.33182 7.05789 4.90756
Si 3.5009 2.0143 5.95852
Si 1.98918 0.664207 3.84052
Si 3.97889 4.95312 2.80751
O 4.65217 5.98614 6.04004
O 4.96946 1.59525 8.95547
O 2.18012 1.507 5.13066
O 6.41481 8.41551 16.4153
O 3.27128 1.15562 2.89341
O 2.34552 5.63911 2.56349
O 1.36663 4.69009 0.617413
O 2.46357 6.7099 16.6504
O 4.61219 6.14474 3.70234
O 4.88321 1.1346 5.69146
O 3.03347 7.89977 4.67903
O 4.2941 3.45421 5.68935
Si 2.21669 6.11564 0.919607
Si 8.3873 0.221018 0.475612
Si 7.37264 4.69954 4.84467
Si 9.23316 2.87655 3.4477
Si 6.52243 0.794729 3.00822
Si 8.31038 5.41973 2.09765
O 6.61283 4.49232 6.27994
O 6.97884 1.38275 4.43245
O 8.59403 3.73362 2.23981
O 12.0137 5.35713 2.02234
O 7.21204 -0.00100464 16.6933
O 8.46233 5.25723 0.479227
O 5.55182 1.67081 2.12548
O 9.10028 9.39383 0.805265
O 6.183 3.76688 4.01669
O 10.6171 3.51134 3.45718
O 5.78919 8.1782 4.95774
O 9.81978 5.79154 2.47301
Si 8.50345 5.51385 16.165
Si 0.174693 0.0251507 15.2782
Si 13.0431 4.49611 5.55393
Si 14.8671 0.620273 2.54656
Si 14.3828 2.02597 17.0318
Si 13.2396 5.94199 0.682719
O 12.2343 5.31451 4.44318
O 13.5909 1.0306 3.47472
O 14.7868 0.971799 1.11834
O 13.4858 7.49882 1.38809
O 13.2124 2.99901 16.3312
O 0.099267 2.70535 -0.0225316
O 14.6238 5.17813 0.5574
O 13.0946 6.24695 16.4066
O 14.4417 5.59922 5.36715
O 0.630745 0.866091 3.02145
O 15.313 7.84527 6.25565
O 14.0587 3.35245 6.31714
Si 0.72889 14.5675 1.13278
Si 0.930181 9.70917 15.8184
Si 2.65616 15.724 3.46947
Si 3.79465 12.3344 2.14915
Si 1.26892 11.5987 0.831335
Si 4.34981 15.2755 1.01416
O 13.0644 15.2489 9.70041
O 3.37447 10.7 5.39634
O 2.11522 11.8902 2.16645
O 5.87494 15.0842 1.70983
O 1.61248 10.9811 16.6568
O 3.63167 15.4749 15.1207
O 1.42809 13.2022 0.306303
O 4.63354 16.2844 17.0323
O 3.50353 16.1523 2.1259
O 4.95612 11.5052 1.37633
O 3.01706 1.79796 7.52699
O 4.35865 12.8144 3.63093
Si 9.38944 13.63 13.213
Si 7.80684 9.13764 16.9692
Si 6.36522 15.8011 3.00733
Si 8.03859 11.2389 3.99722
Si 6.5963 11.441 1.30763
Si 9.07363 15.4734 1.55984
O 5.84769 14.5688 4.00056
O 7.49788 10.0847 5.00622
O 7.65781 12.5627 0.582142
O 8.63027 12.6377 4.54429
O 6.90304 10.263 0.381447
O 9.31656 14.3273 0.462317
O 8.89656 11.9931 13.4296
O 7.8292 0.706169 1.94527
O 7.99 15.6574 2.53563
O 9.36835 10.415 3.24398
O 6.062 17.4114 2.82253
O 7.3459 11.281 2.62277
Si 9.18956 12.7626 0.237916
Si 12.5848 7.60161 15.4959
Si 11.661 16.6972 2.09608
Si 12.2593 8.63204 1.0044
Si 9.84441 10.2987 1.82871
Si 14.4166 15.7384 2.98198
O 11.3956 11.7328 6.82329
O 0.0369958 9.10602 8.33966
O 11.2548 9.38973 2.06805
O 1.75351 14.7068 2.41798
O 11.566 7.83283 17.037
O 14.8521 14.8665 1.71081
O 9.95935 11.6831 0.973471
O 14.9172 17.2652 2.61553
O 10.4402 15.6066 2.50275
O 15.2068 11.5051 1.10749
O 11.6293 17.8702 3.22252
O 12.8302 15.8159 2.69341
Si 13.9184 2.27876 7.56172
Si 3.62356 0.897876 8.81431
Si 0.606944 5.58527 8.92902
Si 6.37667 1.65081 9.86889
Si 14.3003 17.5313 7.02981
Si 3.4791 4.92932 9.29016
O 15.3653 4.81311 9.98146
O 5.95483 0.635544 10.9466
O 2.84023 1.47374 10.0139
O 6.40262 7.60439 8.94077
O 0.634538 16.4884 9.99418
O 4.59175 4.82209 8.1786
O 14.7296 0.933956 7.19061
O 1.96077 4.56844 8.84725
O 3.76479 3.85888 10.5705
O 7.76417 1.2452 9.14063
O 1.28666 7.13317 9.6993
O 6.19733 3.11037 10.8055
Si 5.10607 4.46507 6.81033
Si 6.57491 1.08497 5.89297
Si 5.91464 8.27249 10.2257
Si 9.37193 4.88189 9.21955
Si 8.59913 2.2564 7.97937
Si 7.97629 7.44104 8.22037
O 4.02529 6.13697 10.2017
O 10.8649 17.4775 12.977
O 8.49323 3.78349 8.43812
O 9.0176 8.65918 8.90211
O 7.837 1.61615 6.71729
O 8.51416 6.26624 9.14545
O 8.68958 3.71271 4.55814
O 7.80143 5.87028 3.64071
O 7.44134 7.98879 6.87876
O 10.9025 5.10399 9.30569
O 6.84858 9.85689 9.95971
O 9.04269 4.30501 10.8824
Si 11.0003 5.14862 3.49334
Si 12.6001 0.26248 4.50752
Si 9.86032 9.68882 9.8449
Si 1.60899 1.73804 10.9935
Si 11.1799 1.10542 6.91968
Si 14.4124 6.59387 6.84975
O 11.0857 9.1765 10.6411
O 11.8875 17.3014 10.5408
O 12.4267 1.65943 7.83783
O 15.5358 5.58567 7.47055
O 10.598 17.8419 6.88032
O 14.2301 3.13613 8.85236
O 10.1484 2.29095 7.67347
O 13.6862 10.2173 9.51491
O 13.1338 5.54635 7.01214
O 13.4576 17.2239 8.28373
O 10.1961 10.8316 8.86689
O 0.252825 2.4795 10.4446
Si 14.0735 13.9762 9.00117
Si 2.48276 9.32624 5.10669
Si 14.59 12.7148 11.7016
Si 3.68906 15.2341 11.1336
Si 1.0158 8.58512 9.59955
Si 1.26118 17.2299 8.23285
O 6.06767 15.8498 14.712
O 2.32528 9.33238 9.20299
O 3.93764 10.9549 7.9855
O 1.82888 15.6944 8.05011
O 1.90272 8.51708 6.62468
O 3.31611 14.6771 4.61716
O -0.0530095 14.1673 8.76268
O 2.64284 17.7517 8.53014
O 15.6197 13.9052 12.1512
O 2.46113 14.7008 10.217
O 0.00277348 17.0469 7.20156
O 3.90112 11.3754 12.8726
Si 4.67348 13.8254 4.92266
Si 6.68494 9.06926 6.0251
Si 5.99861 15.3545 9.11757
Si 10.3967 12.2936 7.94655
Si 4.60486 11.3454 6.51271
Si 7.06766 16.0895 6.42687
O 4.70663 14.7943 9.64398
O 8.84705 10.3076 10.7872
O 12.6656 13.238 5.49356
O 11.7084 1.25533 5.36019
O 5.61145 10.0871 6.16782
O 7.52249 14.5435 6.11853
O 4.54569 12.8041 6.08662
O 6.49532 17.5917 5.98149
O 6.111 15.9029 7.70079
O 9.92968 13.2596 9.21825
O 6.37605 16.6948 9.94896
O 9.08169 12.6058 7.07336
Si 8.89063 13.7863 5.62749
Si 0.292414 9.1352 6.7649
Si 10.1031 16.1844 7.17375
Si 14.2999 9.80182 10.8385
Si 12.9645 12.4671 6.57404
Si 12.3806 16.56 9.29122
O 8.41643 16.6693 7.31163
O 13.4619 8.67012 11.2777
O 0.806559 10.0064 5.20238
O 14.0862 12.8393 10.1869
O 13.3875 13.3978 7.77524
O 2.38262 17.4147 4.17919
O 9.88138 15.0745 5.96116
O 13.3935 17.4801 5.67133
O 10.9129 16.2103 8.48432
O 0.262432 9.55079 10.5686
O 12.1915 0.866764 15.5808
O 14.0668 11.1904 11.7688
Si 14.7063 3.45293 10.3024
Si 6.47211 0.904903 15.476
Si 1.61132 6.68149 15.2762
Si 4.10684 1.97265 1.81649
Si 4.14148 2.74051 15.8673
Si 3.85723 5.26899 14.1593
O 0.382065 5.65092 15.8337
O 5.18337 -0.0459824 15.3237
O 4.26164 2.26856 0.211196
O 4.59292 6.38815 15.1867
O 2.04318 2.11337 12.6155
O 4.17657 4.72329 12.7755
O 0.675308 1.24506 14.2065
O 4.58182 8.99704 10.2993
O 2.40032 5.53923 14.3979
O 7.03098 16.4855 12.1916
O 0.937977 8.0983 15.6849
O 4.0833 5.32522 1.13423
Si 4.94062 3.59159 11.6417
Si 5.89986 17.2559 11.4181
Si 6.02219 7.05635 15.723
Si 11.827 2.55891 15.5035
Si 8.78284 2.73505 14.704
Si 7.51303 7.52506 12.7846
O 7.05977 5.95385 16.0654
O 9.68658 0.700528 16.8051
O 7.87882 1.40004 14.9182
O 9.02401 7.57924 12.9383
O 10.4162 2.67392 14.9614
O 7.59371 6.00229 12.2573
O 5.9287 2.30419 15.729
O 6.24237 7.76222 11.8894
O 6.7668 7.49598 14.2548
O 12.7945 2.68651 14.0783
O 3.758 3.34759 2.72461
O 8.51079 4.01509 15.545
Si 8.26525 4.61725 12.3834
Si 12.2812 17.5767 12.1571
Si 10.174 6.55412 13.8315
Si 15.3024 0.380412 12.6693
Si 13.2138 2.36888 12.6363
Si 12.0631 6.0917 9.85536
O 8.9872 6.49995 15.0057
O 14.6762 1.00283 15.7704
O 15.3648 17.3466 13.74
O 4.23972 4.04006 15.1169
O 12.905 16.1779 12.7642
O 12.1053 7.06654 8.86648
O 9.58442 5.24077 13.0294
O 11.5839 6.94721 11.3157
O 13.586 2.87435 11.1671
O 14.5547 1.70754 12.8974
O 11.2229 7.47306 14.5102
O 0.922264 0.279463 11.4016
Si 0.454265 13.8484 13.9246
Si 3.83712 10.0559 9.36705
Si 1.81132 15.7554 15.7938
Si 4.45374 12.2772 11.6213
Si 2.12609 11.2559 13.4383
Si 3.45197 1.25068 13.1603
O 1.23684 15.68 0.092005
O 1.21268 10.3004 14.2768
O 6.02042 12.0075 11.5332
O 4.52812 2.31845 12.6219
O 1.83143 11.2022 11.9129
O 8.13764 3.28365 13.2422
O 1.75492 12.8429 13.6502
O 4.6329 16.4761 11.4397
O 1.00258 14.8232 14.9247
O 8.942 13.5718 11.5953
O 3.54848 1.73201 14.751
O 4.07673 13.7194 11.7089
Si 1.15861 14.796 9.4687
Si 7.42113 10.9285 10.803
Si 7.49691 15.9028 13.5769
Si 9.23197 11.3175 14.7774
Si 8.57208 13.5293 10.0291
Si 10.3359 16.3586 14.055
O 3.88774 13.8506 1.49419
O 10.8066 14.3192 12.6672
O 8.15066 14.4919 13.8739
O 9.15301 12.3908 15.8289
O 7.72404 12.0615 9.80287
O 7.35302 14.5979 9.87517
O 3.72525 11.4251 10.5156
O 12.3245 0.995974 12.3098
O 8.70256 16.8237 14.1439
O 10.5738 10.5923 14.7103
O 8.71629 16.7877 0.655269
O 8.22025 10.1867 15.6662
Si 12.4284 14.6435 12.962
Si 11.8927 8.5222 11.788
Si 11.0246 -0.0547096 16.4504
Si 14.204 10.9335 -0.0445853
Si 12.17 10.2401 14.5479
Si 13.6262 13.0403 15.4404
O 10.7571 16.9406 15.3782
O 13.3919 9.6715 0.423827
O 12.7553 9.11912 15.3715
O 1.53821 17.171 15.1688
O 12.149 9.66554 13.0708
O 15.0335 13.0793 14.7359
O 13.1895 11.6389 14.559
O 13.1029 13.4178 12.1834
O 13.0164 14.1724 14.3217
O 15.259 10.1655 16.0484
O 11.3769 17.3893 0.627105
O 13.9716 12.4381 16.8322
324
 Atoms. Timestep: 34000
Si 0.190093 4.4653 0.0948569
Si 4.62645 16.4611 15.5718
Si 4.97985 7.00867 4.38843
Si 3.78172 1.86751 5.86824
Si 2.05978 0.906721 3.61845
Si 4.24561 4.6134 2.52362
O 4.45476 6.40721 5.95615
O 4.47074 1.39813 9.74167
O 3.13809 1.27525 4.61094
O 6.87002 7.97114 16.7673
O 2.81255 1.18013 2.14309
O 2.81134 5.54735 2.95671
O 1.45148 5.03496 1.12507
O 2.3069 6.74217 16.9032
O 5.09247 5.92417 3.11253
O 5.23602 1.23915 6.04086
O 3.68412 7.82418 4.04213
O 4.01893 3.46905 5.91596
Si 2.49227 6.28138 1.28476
Si 8.45179 0.0816376 0.671462
Si 7.19916 4.87693 4.81642
Si 9.62954 3.38051 4.00295
Si 6.53699 0.651946 2.9593
Si 8.58576 5.4778 2.18192
O 6.30686 4.66975 6.38588
O 7.01357 1.14593 4.4771
O 9.05176 3.9341 2.66025
O 12.1634 5.44758 2.07281
O 7.38029 0.374115 16.8391
O 8.34125 5.35946 0.619618
O 5.20224 1.15677 2.45774
O 9.06462 9.49655 0.492467
O 6.76231 3.29429 4.42826
O 10.9617 4.27735 3.86666
O 6.19152 7.80847 4.89486
O 9.97176 5.90118 2.52307
Si 8.10562 4.99811 16.1342
Si 15.3796 0.146468 15.5098
Si 13.1836 4.67697 5.66617
Si 14.9989 0.645622 2.48039
Si 13.9974 2.12227 -0.0172703
Si 13.3777 5.968 1.23482
O 12.6243 5.87229 4.45727
O 14.0066 0.861022 3.73415
O 14.723 1.62973 1.27416
O 13.3062 7.50866 1.91438
O 12.6177 2.61485 16.2216
O 14.9691 3.25656 16.6986
O 14.7807 5.62924 0.812928
O 12.6446 6.38578 16.9883
O 15.0419 5.23676 5.28295
O 0.616363 1.06908 3.27731
O 0.423626 7.54541 5.86691
O 13.7348 3.43322 6.57688
Si 1.00968 14.492 0.928848
Si 0.967706 9.67327 15.772
Si 2.69335 15.9025 3.09987
Si 4.05858 12.5985 2.08623
Si 1.64841 11.5699 0.591497
Si 5.05423 15.3709 1.15938
O 13.0497 15.2904 9.79789
O 3.31674 10.6698 5.22485
O 2.56235 11.9267 1.93198
O 6.01254 15.2078 2.39683
O 2.18602 10.3022 16.9488
O 3.32033 15.8373 15.0863
O 0.913613 13.0412 0.63574
O 4.96396 15.9179 16.9089
O 3.88791 16.0555 1.99371
O 5.31678 11.8154 1.85133
O 3.60563 1.76687 7.44192
O 4.20973 13.4476 3.42955
Si 9.32652 13.5854 13.2533
Si 7.74395 9.30023 16.9137
Si 6.77921 15.5829 3.65018
Si 8.58749 10.8821 4.22698
Si 6.7622 11.2379 1.80992
Si 9.15823 15.4498 1.79378
O 5.53304 15.2646 4.63454
O 7.97477 9.73898 5.1219
O 7.68552 12.4016 1.21059
O 9.13483 12.3715 4.76819
O 6.5449 10.1531 0.542379
O 9.29061 14.1369 0.722342
O 8.99146 11.899 13.4443
O 7.82625 1.05302 1.88703
O 8.40651 15.4628 3.24875
O 9.43383 10.3819 3.0395
O 6.51497 17.2505 3.48465
O 7.26704 11.2639 3.43925
Si 8.9394 12.6809 0.25237
Si 12.463 7.5515 15.9045
Si 11.803 17.1848 2.02954
Si 12.532 8.87066 1.43073
Si 10.0224 10.3385 1.58873
Si 14.3603 15.732 2.35657
O 11.8414 12.0684 7.29366
O 0.099259 9.06851 7.5287
O 11.6819 10.1041 1.76179
O 1.679 14.875 2.40041
O 11.5558 8.34398 -0.0272011
O 15.1345 14.8618 1.52692
O 9.98951 11.7758 0.837108
O 15.0815 17.1386 2.07714
O 10.4002 16.3105 1.91418
O 0.0274244 11.0049 1.49599
O 11.9404 17.474 3.70382
O 12.9226 16.0548 1.81186
Si 13.4752 2.47261 7.91075
Si 3.26109 0.988117 8.74566
Si 0.787582 5.66896 9.08154
Si 6.03373 1.676 10.1073
Si 14.3746 17.6643 7.07386
Si 3.70221 4.91816 9.49775
O 15.2442 5.1447 10.0164
O 6.6075 0.58485 11.1092
O 1.90772 1.30783 9.55361
O 6.05999 8.07592 9.0542
O 0.81673 16.6398 9.04027
O 4.37373 4.89718 8.09263
O 14.2278 1.25613 7.19149
O 2.08439 4.77412 9.10871
O 3.96241 3.8835 10.8561
O 7.63911 1.8349 9.43244
O 1.22745 7.21274 8.82826
O 6.10487 3.00741 11.0555
Si 4.73986 4.80157 6.64156
Si 6.73876 0.842367 6.01536
Si 5.39942 8.95365 10.1992
Si 8.8367 4.85083 8.93995
Si 8.63923 1.94592 8.16266
Si 7.36129 7.44484 8.31719
O 3.50772 6.40049 9.9163
O 10.5486 17.3381 13.0609
O 8.38093 3.50613 8.13576
O 8.48856 8.20537 9.43189
O 7.56034 1.61077 7.14425
O 7.66321 5.94828 8.67885
O 8.6894 4.2463 4.99862
O 7.56847 5.67326 3.38634
O 7.45791 8.61834 7.31122
O 10.4634 5.13566 9.51507
O 6.50067 10.2907 9.93285
O 8.71739 4.30924 10.8099
Si 11.3862 5.83217 3.49161
Si 12.9092 0.150966 4.53323
Si 9.50822 9.34077 10.0094
Si 1.31197 1.68466 11.0735
Si 11.0758 0.942116 6.8557
Si 14.9111 6.45698 6.61108
O 11.1727 9.2633 10.419
O 11.2422 16.9997 10.4718
O 12.0377 2.04396 7.75361
O 0.102606 5.24166 7.48259
O 10.7643 17.5561 6.49009
O 14.0022 2.78477 9.2757
O 9.92407 1.98446 6.97137
O 13.2788 9.92739 9.51864
O 13.2647 5.63292 7.01154
O 13.3504 17.1422 8.12707
O 9.64065 10.6565 8.79986
O 0.376649 3.02912 10.5793
Si 13.7162 13.989 8.83693
Si 2.95138 9.29109 4.67753
Si 14.2575 12.6832 11.5856
Si 3.7757 15.1178 10.9201
Si 0.80765 8.91393 9.00947
Si 1.65326 16.8797 7.45436
O 5.95779 15.5785 14.812
O 1.68948 10.2672 9.15281
O 3.9951 11.0478 7.59168
O 1.72241 15.0046 7.76537
O 2.34237 8.85659 6.3524
O 2.93318 15.1357 4.533
O 15.2965 14.5881 8.8513
O 3.01441 17.5077 8.41651
O -0.0338243 13.2788 12.4362
O 2.35347 14.9983 10.4206
O 0.082312 16.7862 6.80708
O 3.85411 11.5206 12.8772
Si 4.30718 14.1501 4.84376
Si 6.74935 8.9678 5.82322
Si 6.31855 15.0699 9.29528
Si 10.5431 12.0579 8.23859
Si 4.46708 11.3179 6.25137
Si 7.50956 15.7564 6.61635
O 4.66457 15.0464 9.44676
O 8.78994 10.2448 11.1743
O 12.6687 13.3861 5.59611
O 11.9678 1.30027 5.44453
O 5.58941 10.2786 5.96643
O 7.94299 14.2884 6.43305
O 4.4613 12.9697 5.86214
O 7.22112 17.3422 6.16825
O 6.61282 15.6219 7.91847
O 10.2225 13.2222 9.28428
O 6.82257 16.3848 10.2833
O 9.53066 12.2835 7.13014
Si 9.25034 13.3809 5.88862
Si 0.6506 9.31545 6.14758
Si 10.5688 15.8893 6.59767
Si 14.1671 9.69256 10.8735
Si 13.111 12.3144 6.33769
Si 12.1738 16.4861 9.02953
O 8.99973 16.0354 7.17752
O 13.51 8.49557 11.6961
O 1.15602 9.59206 4.35981
O 13.8869 13.0306 10.0059
O 14.0872 12.972 7.46956
O 2.07819 17.3449 3.44508
O 10.6005 14.4045 6.18887
O 13.7988 17.5643 5.6702
O 11.2755 15.6439 7.9922
O -0.0936343 9.26881 10.3246
O 11.7822 0.913644 15.3545
O 14.4707 11.1354 11.4542
Si 14.5985 3.74325 10.3746
Si 6.52344 1.2869 15.9124
Si 1.2979 6.76338 15.7142
Si 4.10394 1.81894 1.47653
Si 3.72723 2.74372 15.7044
Si 3.75446 5.46673 14.3496
O 0.330778 5.30495 15.887
O 5.5458 17.9222 15.4063
O 3.66514 1.91185 17.2308
O 4.44835 6.81118 15.0468
O 2.41787 2.06559 12.0209
O 4.57932 4.88696 13.2433
O 0.184013 0.988415 14.1399
O 4.07449 9.40641 9.3764
O 2.21752 6.08959 14.4602
O 6.96052 16.6565 12.6909
O 0.231416 8.13898 15.5104
O 4.05902 5.51481 0.916779
Si 5.139 3.87419 11.9486
Si 6.15595 17.1124 11.3943
Si 5.95292 7.20578 15.6446
Si 11.6205 2.56817 15.0871
Si 8.52731 2.85279 14.2322
Si 7.32423 7.74243 12.9805
O 6.71842 5.77893 15.6957
O 9.78145 0.243789 16.9367
O 7.36786 1.44242 14.5997
O 8.92829 8.09219 13.4622
O 10.1156 2.77764 14.5216
O 7.57456 6.14073 12.9755
O 5.34497 2.15854 15.436
O 6.61629 8.17537 11.3008
O 6.71282 7.80735 14.3848
O 12.6735 2.72643 13.8647
O 4.04643 3.22895 1.90267
O 8.29963 3.49696 15.7159
Si 8.62688 5.15483 12.2753
Si 11.7234 17.4609 11.9219
Si 9.8965 6.84873 14.3861
Si 15.2443 17.9548 12.7737
Si 12.8472 2.17286 12.4287
Si 11.4786 6.32771 9.79394
O 9.09522 5.90341 15.4456
O 14.2894 1.01017 16.2061
O 14.374 17.3664 14.095
O 3.7802 4.30236 15.5341
O 12.4928 15.9945 12.2694
O 11.6938 6.93956 8.53963
O 9.99911 5.46528 13.1779
O 11.2901 7.08223 11.1629
O 13.7709 3.36121 11.6947
O 14.0429 1.15503 12.6257
O 11.3462 6.82969 15.0531
O 0.440056 0.511755 11.5806
Si 0.590138 13.3705 13.8064
Si 3.20748 10.801 9.09767
Si 1.59804 15.7947 15.4202
Si 4.52175 11.9442 11.58
Si 2.40534 11.0006 13.4088
Si 3.51245 1.42591 13.059
O 1.66646 15.1021 16.8669
O 1.43295 10.1272 14.4417
O 6.34585 11.7264 11.8852
O 4.5982 2.55001 12.7073
O 1.3819 11.0313 12.1528
O 8.01537 3.96669 13.1944
O 1.92451 12.4082 13.9905
O 4.68497 16.3508 11.3495
O 1.05135 14.7478 14.3884
O 9.09242 13.5991 11.6077
O 2.99161 2.13529 14.4643
O 4.43454 13.6258 11.591
Si 1.05345 14.9473 9.29853
Si 7.39642 11.0177 11.0053
Si 7.30287 15.8283 14.0876
Si 9.02875 11.198 14.7853
Si 8.92689 13.7044 10.0535
Si 10.3175 16.2338 14.1896
O 4.11052 13.8119 1.09061
O 10.9782 14.0612 13.1909
O 7.94274 14.6116 13.423
O 8.77441 12.214 15.9755
O 8.14178 12.2804 10.0183
O 7.62797 14.4247 9.57298
O 4.19171 11.6415 10.1866
O 11.7522 1.10578 12.0022
O 8.71975 16.6424 14.7296
O 10.6387 10.7731 15.0583
O 8.37706 16.3321 0.819811
O 8.29209 10.0559 15.5589
Si 12.6304 14.7269 13.1064
Si 11.6549 8.52698 11.8986
Si 11.2971 17.902 16.4024
Si 14.5048 10.8377 0.122903
Si 11.8973 10.0939 14.3952
Si 13.6264 12.6707 15.1044
O 10.8633 16.5275 15.5957
O 13.6399 9.62489 0.542798
O 12.5987 8.88442 15.0116
O 0.865327 17.0947 15.6515
O 11.4668 9.87371 12.8834
O 15.1751 12.6156 14.6048
O 12.9898 11.2168 14.2817
O 13.0562 13.3582 12.1895
O 13.0816 14.1736 14.4574
O 15.2876 10.4066 16.013
O 11.9567 0.055243 0.804861
O 13.1012 11.9232 16.4039
324
 Atoms. Timestep: 34500
Si 0.0679364 4.26722 0.0882552
Si 4.45396 16.7204 15.3953
Si 4.75282 7.17473 4.62497
Si 3.65893 1.87076 5.8667
Si 2.02195 0.978343 3.51097
Si 5.07416 4.96193 2.49155
O 4.2186 6.21363 5.7003
O 4.80811 1.04475 9.29646
O 2.6805 1.35047 4.85609
O 6.65196 8.33711 16.4031
O 3.01469 1.54056 2.5059
O 3.11301 5.19655 3.01255
O 1.47462 4.34424 0.825875
O 2.01128 6.65249 0.343906
O 5.23843 6.56537 3.25499
O 4.94252 0.970907 6.07055
O 3.22274 7.88809 3.94874
O 4.1752 3.41611 5.88741
Si 2.54765 5.65408 1.3647
Si 8.01504 -0.0876229 0.260142
Si 7.34109 4.71677 4.86019
Si 9.52781 3.09107 3.81955
Si 6.29832 0.374413 2.83475
Si 8.69277 5.42453 2.22369
O 6.49267 4.74696 6.14539
O 6.38674 1.13971 4.24749
O 9.1519 3.79463 2.58273
O 12.4113 4.86147 2.08036
O 6.99116 0.939608 16.7751
O 7.86438 5.0479 0.97702
O 5.48644 1.39409 1.88543
O 9.27584 9.22608 0.779749
O 6.30012 3.85462 3.90252
O 10.8699 3.81906 3.8192
O 5.88838 8.1471 5.02026
O 10.1232 5.83209 2.87095
Si 7.74767 5.15618 16.5772
Si 15.4984 0.127819 15.686
Si 13.3318 4.90015 5.67907
Si 14.9412 1.31731 2.27543
Si 13.4234 2.41615 16.9335
Si 13.2911 5.70646 1.16256
O 13.0868 5.63426 4.31026
O 14.054 1.29832 3.46721
O 13.7783 1.41825 1.08195
O 13.3932 7.16105 1.7977
O 12.3019 3.05697 16.049
O 14.5198 3.44005 16.6975
O 14.7145 5.11215 1.11266
O 12.7817 6.33192 16.9275
O 15.4383 4.99235 5.4436
O 0.650912 1.68177 3.05936
O 0.894697 7.47405 5.47145
O 13.215 3.52567 6.47956
Si 1.10208 14.5923 0.567706
Si 0.956417 9.82888 15.7327
Si 2.70771 15.8262 2.84538
Si 4.12085 12.4332 1.94569
Si 1.5618 11.5207 0.983007
Si 4.94065 15.4153 0.858115
O 13.4195 14.841 9.10698
O 3.66763 10.7408 5.14643
O 3.05585 11.3511 1.45878
O 6.11237 15.2695 1.83815
O 1.85383 10.9391 16.6955
O 2.97004 16.8581 15.3128
O 1.36179 13.1016 0.62122
O 4.35874 16.2052 16.8818
O 4.20962 16.243 2.25743
O 5.48045 11.7527 1.83058
O 2.74172 1.6039 7.26101
O 3.97882 12.6208 3.45752
Si 8.98217 13.2599 13.1211
Si 8.02294 9.18313 17.009
Si 6.48686 15.4963 3.44402
Si 8.42195 10.9572 4.28369
Si 6.98305 11.3481 1.65164
Si 9.27451 15.7646 1.84045
O 5.31742 14.4709 4.11064
O 7.84449 9.54309 4.91126
O 7.76175 12.5802 0.940695
O 8.77665 12.6756 4.59377
O 7.19483 10.009 0.914054
O 9.40217 14.3259 1.4559
O 8.73222 11.7019 14.0667
O 7.73181 0.366703 1.97252
O 8.10781 15.2591 3.14973
O 9.60695 10.2523 3.3564
O 6.23 17.0332 3.40177
O 7.65257 11.1577 2.99244
Si 9.11595 13.0368 0.577683
Si 12.1843 7.51973 16.0444
Si 12.0578 17.0764 1.90279
Si 12.7052 8.64365 1.62256
Si 10.1756 10.2996 1.80755
Si 15.0351 16.2984 2.29145
O 11.7108 11.3814 7.22336
O 0.550909 9.15205 7.31616
O 11.6994 9.88748 1.9916
O 2.21599 15.0387 1.64925
O 11.8803 8.34031 0.247603
O 0.0208429 15.7859 0.918947
O 9.94181 11.8735 1.4307
O 15.2582 17.9169 2.16687
O 10.6722 16.2658 2.19128
O 0.0241821 11.1752 1.01801
O 12.3264 17.898 3.38085
O 13.488 16.3317 1.57772
Si 13.4522 2.61123 7.71533
Si 3.31377 0.998972 8.67968
Si 0.870468 5.94605 9.29237
Si 6.02927 1.67977 10.0975
Si 14.6135 18.138 6.87263
Si 3.85504 5.23099 9.49409
O 0.0344705 4.69107 9.90961
O 5.95204 0.762805 11.346
O 2.48065 1.33141 9.99257
O 6.67651 7.67217 10.0567
O 0.985718 16.9818 8.86524
O 4.26435 4.74665 8.06078
O 14.7048 1.43373 7.5314
O 2.30702 5.36844 9.26148
O 4.21154 4.93694 11.0474
O 7.19181 1.51909 8.98095
O 1.3125 7.56983 9.32117
O 5.80124 3.144 10.8582
Si 4.7944 4.85586 6.4983
Si 6.5608 0.813397 5.82859
Si 5.78448 8.9987 10.7589
Si 8.72006 4.95806 9.3979
Si 8.16256 2.18027 7.99645
Si 7.32404 7.61748 8.61914
O 4.57703 6.77508 9.27852
O 10.1717 16.6856 12.8897
O 8.25623 3.66277 8.55618
O 8.64764 8.428 8.96779
O 7.57905 1.85875 6.64389
O 7.75208 6.1013 8.81947
O 8.85491 4.18232 4.86515
O 7.74923 5.70489 3.49209
O 6.3564 7.85406 7.36969
O 9.89968 6.13024 9.37179
O 6.55805 10.2258 10.2743
O 8.85352 4.7531 10.959
Si 11.5374 5.3308 3.48051
Si 12.7777 0.973757 4.45803
Si 9.48043 9.37582 9.72695
Si 1.23673 1.72897 11.073
Si 11.0153 1.22081 6.7768
Si 15.5497 6.42888 6.22954
O 10.8953 8.67043 10.5942
O 11.9586 16.5014 10.5957
O 12.1066 1.93422 7.67376
O 0.41114 6.08956 7.6305
O 10.8217 17.607 7.07647
O 13.9375 3.27373 9.03607
O 9.65249 1.56464 7.82246
O 13.1934 11.098 9.13321
O 13.9094 5.83891 6.75694
O 13.1595 17.5532 8.05078
O 10.1425 10.2523 8.70155
O 15.646 2.27148 10.4905
Si 14.6548 13.8968 8.93453
Si 3.04074 9.53171 4.26543
Si 14.0345 12.6458 11.7389
Si 4.42004 15.0998 10.4481
Si 0.742123 9.04446 8.84682
Si 1.72916 16.882 7.34018
O 5.75158 15.7778 14.9337
O 2.07574 10.1623 8.94602
O 4.08815 11.1041 7.69377
O 2.015 15.1851 7.6389
O 2.5231 8.93882 5.9643
O 2.99922 14.8224 3.97093
O 0.145121 14.7931 9.24747
O 3.09389 17.4638 8.25328
O 15.435 13.0114 12.349
O 3.05783 15.6782 10.0548
O 0.148591 17.1332 6.70019
O 3.75833 11.3429 12.5288
Si 3.95075 13.7168 4.67447
Si 6.84099 8.96424 6.03415
Si 7.12683 15.6017 9.43687
Si 10.3898 11.5667 7.90726
Si 4.87262 11.3523 6.31019
Si 7.51855 16.1041 6.60392
O 5.96536 14.787 10.1498
O 8.78352 10.2741 10.6858
O 12.891 12.5383 5.44139
O 11.4954 1.3294 5.13371
O 5.96406 10.1897 6.2748
O 7.86948 14.5132 6.05966
O 4.50771 12.8462 5.99797
O 7.197 17.6961 6.68176
O 6.42153 15.675 7.97793
O 10.5765 12.5375 9.28816
O 7.05931 16.7801 10.4962
O 9.33475 12.8455 6.99022
Si 9.20121 13.7066 5.73683
Si 0.795223 9.13951 5.8383
Si 10.5376 16.1438 6.83739
Si 13.9481 10.0566 10.1844
Si 13.06 12.1817 6.72081
Si 12.5278 16.1466 9.08939
O 8.99977 16.118 7.31887
O 13.1881 8.83437 10.6265
O 1.43417 9.50733 3.95891
O 14.4599 12.8167 10.1708
O 14.0033 13.116 7.64993
O 2.23945 17.364 3.41875
O 10.5026 14.8154 6.15956
O 13.5176 0.171591 5.80368
O 11.0814 15.7736 8.49217
O 15.426 9.79494 9.85866
O 11.3238 0.701061 15.1011
O 13.7972 10.9386 11.6547
Si 14.6042 3.61995 10.5454
Si 6.00973 1.24677 15.5689
Si 1.46423 6.82833 16.0136
Si 4.08468 2.04069 1.54538
Si 3.54336 2.91834 15.8807
Si 3.46374 5.5657 14.3873
O 0.0626707 5.89144 16.395
O 5.07574 0.176376 14.752
O 3.45995 2.1509 0.216683
O 4.30816 6.46088 15.3952
O 1.80349 2.20802 12.4064
O 4.73876 5.15826 13.2102
O 0.749433 0.351717 14.0886
O 4.58219 9.14916 9.62861
O 2.20027 6.31355 14.7524
O 6.80053 16.3927 12.9797
O 1.82254 8.56124 16.0963
O 4.05377 5.43905 0.829371
Si 5.03246 3.99412 11.953
Si 6.36414 17.2408 11.8007
Si 5.70896 7.10811 15.8791
Si 11.4567 2.25214 14.7884
Si 8.34565 2.88825 14.5648
Si 7.23569 7.89272 13.2491
O 6.25632 5.66534 16.434
O 9.50036 0.186079 16.9999
O 7.31135 1.61274 14.4052
O 8.7457 7.43201 14.0463
O 9.96986 3.01899 14.9089
O 7.53775 6.73744 12.1238
O 5.19516 2.72581 15.5496
O 5.94825 8.5778 12.1693
O 6.41505 6.99296 14.2158
O 12.1313 2.45915 13.376
O 4.72348 3.4994 2.32969
O 7.8067 3.63202 15.8185
Si 7.85641 5.10339 12.5771
Si 11.4426 16.9385 11.931
Si 9.80633 6.31835 14.5085
Si 15.1395 0.0812119 12.9441
Si 12.8223 1.65933 12.1688
Si 11.4182 6.32437 9.56178
O 8.64555 5.76737 15.4853
O 14.4078 1.21646 16.0359
O 14.1357 17.5643 14.3876
O 3.37377 4.23976 15.1858
O 12.4929 15.8616 12.7723
O 11.9687 7.04602 8.50457
O 9.41813 5.5772 13.2523
O 12.2525 6.67955 11.0446
O 13.5021 3.00711 11.4447
O 14.3674 1.38159 12.7923
O 10.7889 6.96861 15.4365
O 0.586026 0.257809 11.7274
Si 0.467011 13.2612 13.7273
Si 3.66646 10.3817 9.12894
Si 1.58738 15.9032 15.0957
Si 4.57901 12.119 11.3862
Si 2.46115 11.1598 13.2796
Si 3.35069 1.6325 13.1239
O 1.86152 14.8257 16.3018
O 1.79995 10.4524 14.3723
O 6.11305 12.0015 11.7375
O 3.99843 2.86471 12.5608
O 1.57639 10.6171 11.9986
O 7.76102 3.77445 13.3895
O 1.96135 12.6221 13.3856
O 4.8908 16.5975 11.3798
O 0.860878 14.8407 13.9225
O 9.15698 13.232 11.4466
O 3.17551 2.04185 14.5959
O 4.20897 13.7511 11.5363
Si 1.62055 15.3999 9.45831
Si 7.63428 11.3107 11.1407
Si 6.93036 15.2604 14.0509
Si 9.35894 11.0139 15.3142
Si 9.15375 13.3761 9.77976
Si 9.77842 15.8376 14.2973
O 4.42459 13.9504 1.22006
O 10.4537 13.6901 13.4291
O 7.54649 13.7896 13.4726
O 9.4397 12.3827 16.2826
O 7.85308 12.2271 9.67462
O 8.30592 14.5277 9.22566
O 3.61895 11.5045 10.2808
O 12.1029 0.252122 12.3436
O 8.28097 15.8665 14.7681
O 10.4436 9.75816 15.3104
O 8.13694 16.5266 0.867844
O 8.05048 10.3428 15.9677
Si 12.1727 14.3578 13.6844
Si 11.9618 8.301 11.7068
Si 10.8094 17.7319 16.2721
Si 14.3704 10.5899 0.331244
Si 11.9023 9.85272 14.2599
Si 13.6553 12.3834 15.2486
O 10.4398 16.4826 15.4572
O 13.9738 9.41262 1.23227
O 12.7252 8.81237 15.0026
O 0.363119 16.7297 15.8349
O 11.2445 8.75151 13.2509
O 15.2276 12.4586 14.6761
O 12.5515 11.2824 14.9485
O 12.7958 13.4353 12.3622
O 12.8355 13.6666 14.9663
O 15.0517 9.87295 16.2638
O 11.8074 17.5099 0.316682
O 14.13 11.9519 16.7838
324
 Atoms. Timestep: 35000
Si 0.369676 4.54045 0.168616
Si 4.41925 16.359 15.2255
Si 5.02763 7.38106 4.86104
Si 3.54337 2.25 5.73881
Si 2.18096 0.795063 3.44933
Si 4.94501 4.30843 2.23431
O 4.61799 6.18523 5.71666
O 4.68439 2.15402 9.29831
O 2.31686 1.56368 5.04764
O 7.33839 7.80192 16.9203
O 2.90726 1.59314 2.25203
O 3.48811 4.47302 2.90464
O 1.88582 4.59302 0.86388
O 2.6973 6.67014 0.333058
O 5.1818 7.00016 3.4488
O 4.90066 1.39309 6.0265
O 3.76337 8.32836 4.80083
O 3.90611 3.75383 5.78478
Si 2.63374 5.65324 1.69329
Si 7.93331 17.6139 0.431986
Si 6.95105 4.68292 4.52766
Si 9.14592 2.93582 3.52685
Si 6.54225 0.517273 2.82179
Si 8.96158 5.57905 2.3456
O 6.27901 4.49586 5.99258
O 7.06803 0.957089 4.32475
O 8.99287 3.97958 2.39341
O 12.4783 4.25787 2.47253
O 6.88767 -0.0268078 16.4954
O 7.58554 5.27721 1.01105
O 5.0584 0.533073 1.9925
O 9.29239 9.34707 1.33804
O 5.77386 4.31999 3.56402
O 10.532 3.66475 3.95944
O 6.42381 8.09336 5.2906
O 10.4648 5.62182 2.72581
Si 7.73253 5.12457 16.6333
Si 15.2762 17.9187 15.514
Si 13.8738 4.70652 5.9387
Si 15.0851 1.75254 2.40098
Si 13.8284 2.58389 16.7707
Si 13.1007 5.10761 1.06471
O 12.9456 4.75959 4.65955
O 13.8725 1.70173 3.40666
O 13.9927 2.20385 1.06157
O 13.3162 6.58651 1.88303
O 12.5438 2.99737 15.764
O 15.2402 3.57111 16.4475
O 14.7182 4.87489 1.18668
O 12.932 5.84076 16.8016
O 15.5443 4.89157 5.17978
O 0.551401 1.08279 3.39309
O 0.267217 7.47095 5.42045
O 14.1056 3.18293 6.48009
Si 0.695105 14.8067 1.05137
Si 0.902853 9.96483 15.4197
Si 2.66101 15.7904 3.23182
Si 4.29504 12.7086 1.9244
Si 1.14099 11.8308 0.758185
Si 4.9473 15.448 0.959924
O 12.9271 14.5816 9.18641
O 2.97724 10.8321 5.57275
O 2.67795 12.4474 1.69147
O 6.21311 15.3054 1.87645
O 1.39988 11.12 16.3353
O 3.06399 15.4008 14.5903
O 0.527169 13.2376 0.39678
O 4.51802 16.0615 16.7322
O 3.78009 15.9633 2.02874
O 5.57241 11.987 1.39311
O 3.032 2.24716 7.25734
O 4.47306 13.145 3.3792
Si 9.28876 13.1373 13.2432
Si 8.07789 9.14634 0.232049
Si 6.76545 15.448 3.41662
Si 8.26024 11.1742 4.25178
Si 7.0457 11.4651 1.65668
Si 9.36315 15.1722 1.93046
O 5.88323 14.771 4.40018
O 7.81775 10.0628 5.394
O 8.39273 12.1271 1.05719
O 8.98593 12.45 4.74592
O 6.90642 10.218 0.590433
O 10.0356 14.0329 0.905486
O 8.99309 11.8116 14.2549
O 7.72615 0.130269 1.84863
O 8.31804 15.3113 3.28445
O 9.54939 10.351 3.69034
O 6.33841 17.0694 3.48168
O 7.14995 11.4159 3.21887
Si 10.0572 12.3985 0.661165
Si 12.5188 7.27095 15.8964
Si 11.554 17.2141 2.16727
Si 12.5048 8.03317 1.6418
Si 10.3512 9.99179 2.44305
Si 14.5644 16.6861 2.26709
O 11.7212 11.8419 7.22194
O -0.00689177 9.09734 7.60242
O 11.7237 8.94632 2.70018
O 1.59168 15.2403 2.4084
O 11.8652 7.81391 0.0778838
O 15.092 16.1251 0.733148
O 10.6603 11.2825 1.51071
O 14.6517 0.225886 1.72313
O 10.7157 15.9627 2.15892
O 15.6773 10.7909 0.998082
O 11.9043 0.400212 3.14077
O 13.0801 16.6066 2.07839
Si 13.6551 2.17378 7.80136
Si 3.24664 1.57837 8.74605
Si 0.309149 5.63488 9.28103
Si 5.86232 2.16465 10.3318
Si 14.1946 17.3924 6.71733
Si 3.63657 5.44672 9.31743
O 14.8481 4.82598 9.999
O 5.64253 0.684298 11.1595
O 2.31683 2.42622 9.87665
O 6.48071 7.88929 9.76028
O 1.12359 16.6811 9.4287
O 4.07826 4.68553 7.98727
O 13.9453 0.76258 7.17265
O 1.97848 5.36343 9.31012
O 4.23587 4.80642 10.5522
O 7.28446 2.1698 9.23444
O 15.5561 7.26458 9.27251
O 5.76753 3.35462 11.4152
Si 4.84959 4.87615 6.5837
Si 6.39182 1.0736 5.81338
Si 5.78433 9.00295 10.7095
Si 8.84138 4.82763 9.16164
Si 8.31075 2.18145 7.85258
Si 7.44998 7.42145 8.70571
O 4.22063 6.91669 9.28045
O 9.91697 16.5121 13.0868
O 8.50353 3.71355 8.00648
O 8.60866 8.54643 9.49905
O 7.20955 1.84816 6.86321
O 8.49718 6.19218 8.64862
O 7.9014 3.33055 4.44907
O 7.82716 5.68097 3.57885
O 7.50497 8.35154 7.36031
O 10.3421 5.24625 9.22599
O 6.69548 10.3012 10.0774
O 8.43649 4.78808 10.8461
Si 11.5761 4.99537 3.66274
Si 13.0113 0.783769 4.30277
Si 9.68169 9.71209 10.065
Si 1.15741 1.42099 10.8836
Si 11.1196 1.46301 6.48644
Si 0.500827 6.23394 6.40153
O 10.9255 9.03387 10.7136
O 11.5833 16.4405 10.5582
O 11.8673 2.51519 7.61143
O 0.391764 5.39017 7.65479
O 11.2046 17.9012 6.78771
O 13.8029 3.08641 8.92342
O 9.71773 1.77165 7.12174
O 13.0455 10.8359 9.47922
O 13.9688 6.21661 6.57227
O 13.5546 16.6017 7.91772
O 10.2821 10.565 8.65537
O -0.136293 2.39228 10.6378
Si 14.3531 13.9073 8.73131
Si 2.71928 9.41699 4.82636
Si 13.9178 12.7458 11.454
Si 4.52989 15.1996 10.0712
Si 0.782914 8.5594 9.07546
Si 1.20333 17.5067 7.99472
O 5.69466 15.3211 14.7294
O 1.87311 9.81681 9.28385
O 4.0727 10.7179 7.91443
O 2.01759 15.8752 7.43483
O 2.04478 8.70217 6.23213
O 3.37473 15.1938 4.51199
O 0.222726 14.5533 8.61947
O 2.73953 0.133858 8.41357
O 15.2485 13.014 12.431
O 3.02406 15.5076 9.71699
O 0.134189 17.5037 6.71393
O 3.79143 11.7223 12.6616
Si 4.58088 13.9139 4.79937
Si 6.58991 9.32643 6.40748
Si 7.37307 15.7353 9.50108
Si 10.5298 12.0172 8.0809
Si 4.37419 11.3961 6.45881
Si 7.72238 16.1685 6.31846
O 5.99011 14.9758 9.42231
O 9.12304 10.794 11.0643
O 12.975 13.0061 5.36268
O 11.9458 1.70263 5.08185
O 5.39273 10.3697 5.93896
O 7.92479 14.5293 5.94816
O 4.9166 12.6025 5.59713
O 6.81981 17.6992 6.44794
O 7.86677 16.1713 7.99857
O 10.7275 13.1357 9.22018
O 6.96759 16.9261 10.3495
O 9.56277 12.9114 7.13889
Si 9.46785 13.7583 5.78437
Si 0.339357 9.12358 5.99526
Si 10.4902 16.4913 7.00557
Si 13.8977 9.91121 10.263
Si 13.153 12.2581 6.48315
Si 12.2847 16.0437 9.09147
O 9.20838 16.799 6.11054
O 13.2255 8.43854 10.402
O 1.18959 9.68825 4.21873
O 14.6125 12.8791 10.1349
O 14.1191 13.1362 7.49938
O 2.33692 17.304 3.74317
O 10.4634 14.9752 6.24852
O 13.2023 17.4657 5.2736
O 10.6864 15.632 8.50801
O 15.4866 9.42515 10.1821
O 11.1747 1.11264 15.447
O 13.6385 11.0725 11.7173
Si 14.2693 3.35667 10.3823
Si 6.21644 0.704295 15.3417
Si 1.44905 7.08536 16.28
Si 4.09604 1.42572 1.13574
Si 3.89725 2.85886 15.7049
Si 3.78787 5.81237 14.8585
O 0.349395 6.0793 16.5152
O 5.43532 17.5976 14.5935
O 3.30067 2.30623 17.0987
O 4.5215 6.93604 15.7341
O 1.4767 1.97555 12.2691
O 4.37324 5.57062 13.2365
O 0.000829647 0.626258 13.8507
O 4.30776 9.40345 9.91594
O 2.26946 6.42424 15.0086
O 6.72959 16.2554 12.6311
O 1.69699 8.69345 15.9921
O 4.22234 5.23604 0.870893
Si 4.43859 4.45631 12.0427
Si 5.9857 17.2544 11.5753
Si 6.01673 7.42831 16.0486
Si 11.3939 2.76322 14.7372
Si 8.42743 2.81989 14.3404
Si 7.29438 7.76572 13.1646
O 6.41977 5.87509 16.2244
O 9.20229 0.336538 16.9645
O 7.48195 1.48278 14.3923
O 8.82125 7.76097 13.8324
O 9.88866 2.47638 14.1567
O 7.60264 6.16826 12.6289
O 5.17653 1.95003 15.5769
O 6.63593 8.98548 12.1231
O 6.51285 7.38765 14.468
O 12.2287 2.07881 13.5588
O 4.66832 2.8842 1.65769
O 8.15053 3.90965 15.4827
Si 8.86385 5.08518 12.33
Si 11.0742 16.8346 11.9409
Si 9.6341 6.65561 14.8271
Si 14.9688 17.9772 12.6964
Si 12.4208 1.51113 12.1385
Si 11.8139 5.52305 9.80635
O 8.95619 6.25561 16.3294
O 14.4359 1.23671 16.0989
O 14.2978 16.9929 14.2866
O 4.11581 4.42726 15.5914
O 12.2471 15.8192 12.8149
O 12.441 6.07676 8.68921
O 9.76101 5.60871 13.6864
O 11.4671 6.56716 10.9375
O 13.0113 2.96652 11.5254
O 13.7613 0.860803 12.4164
O 11.1548 7.0239 15.1215
O 0.0647654 -0.00570515 11.21
Si 0.459883 13.4379 13.72
Si 3.3537 10.4263 9.4367
Si 1.62647 15.6328 15.4928
Si 4.60034 12.4213 11.3988
Si 2.33033 11.2018 12.8817
Si 3.04281 2.08203 12.9686
O 1.66124 15.2891 17.1581
O 1.72527 10.2173 14.1066
O 6.06337 12.0604 11.6288
O 3.38591 3.42915 12.4609
O 1.89669 10.6179 11.5712
O 8.21145 3.75434 13.0531
O 1.82157 12.6885 13.1511
O 4.66434 16.4089 11.1908
O 0.926697 14.5026 14.6642
O 9.72678 13.2571 11.8371
O 2.78916 2.44998 14.5492
O 4.34502 14.0462 11.017
Si 1.69649 15.0368 9.00301
Si 7.50312 11.4098 10.9825
Si 6.92544 15.2113 13.7042
Si 9.59459 10.8173 15.4023
Si 9.44633 13.6249 10.2755
Si 9.71854 15.8907 14.5646
O 4.42955 14.0158 0.829162
O 10.3067 13.8746 14.5142
O 7.77686 14.1097 13.1819
O 10.1729 11.978 16.3578
O 8.01836 12.5184 9.95899
O 8.44913 14.8139 10.0265
O 3.75118 11.7395 10.2666
O 11.1639 0.398932 11.9823
O 8.24223 15.7679 14.6372
O 10.7976 10.3567 14.4231
O 8.64469 16.2769 0.825345
O 8.7084 9.68152 16.0669
Si 12.1837 14.4415 13.5807
Si 11.843 8.16934 11.4474
Si 10.6948 0.0126887 16.4174
Si 14.3032 10.3407 0.266973
Si 12.3349 9.81923 14.107
Si 13.6816 12.4531 15.1952
O 10.5199 16.6824 15.6615
O 13.4285 9.21153 1.05656
O 12.6295 8.83458 15.3555
O 0.949131 16.9796 15.3943
O 12.124 8.86715 12.8511
O 15.2288 12.6454 14.7209
O 13.1682 11.3302 14.3152
O 12.6218 13.5087 12.3446
O 13.0231 13.8922 14.7852
O 14.9858 9.58072 16.2359
O 11.4278 17.7272 0.58542
O 13.5896 11.6445 16.7461
