LAMMPS (2 Aug 2023)
OMP_NUM_THREADS environment is not set. Defaulting to 1 thread. (src/comm.cpp:98)
  using 1 OpenMP thread(s) per MPI task
Loaded 1 plugins from /public1/home/sch9516/software/deepmd-kit/lib/deepmd_lmp
units real
atom_style charge
read_data ${datafile}
read_data frame_005.lmp
Reading data file ...
  orthogonal box = (0 0 0) to (19.623 16.948 22)
  3 by 2 by 4 MPI processor grid
  reading atoms ...
  257 atoms
  read_data CPU = 0.007 seconds

# ---------- 力场与电荷平衡 ----------
pair_style     deepmd ../graph_compressed_20241109_clean_2.pb
Summary of lammps deepmd module ...
  >>> Info of deepmd-kit:
  installed to:       /public1/home/sch9516/software/deepmd-kit
  source:             
  source branch:      HEAD
  source commit:      e08ccaf
  source commit at:   2024-04-06 23:39:30 +0000
  support model ver.: 1.1 
  build variant:      cpu
  build with tf inc:  /public1/home/sch9516/software/deepmd-kit/lib/python3.11/site-packages/tensorflow/include;/public1/home/sch9516/software/deepmd-kit/lib/python3.11/site-packages/tensorflow/../../../../include
  build with tf lib:  /public1/home/sch9516/software/deepmd-kit/lib/python3.11/site-packages/tensorflow/libtensorflow_cc.so.2
  set tf intra_op_parallelism_threads: 0
  set tf inter_op_parallelism_threads: 0
  >>> Info of lammps module:
  use deepmd-kit at:  /public1/home/sch9516/software/deepmd-kitpair_coeff      * * Si O
WARNING: Interaction between types 1 and 3 is set with deepmd, but will be ignored.
 Deepmd model has only 2 types, it only computes the mulitbody interaction of types: 1-2. (/home/conda/feedstock_root/build_artifacts/deepmd-kit_1712447052054/work/source/lmp/pair_deepmd.cpp:1274)
WARNING: Interaction between types 2 and 3 is set with deepmd, but will be ignored.
 Deepmd model has only 2 types, it only computes the mulitbody interaction of types: 1-2. (/home/conda/feedstock_root/build_artifacts/deepmd-kit_1712447052054/work/source/lmp/pair_deepmd.cpp:1274)
WARNING: Interaction between types 3 and 3 is set with deepmd, but will be ignored.
 Deepmd model has only 2 types, it only computes the mulitbody interaction of types: 1-2. (/home/conda/feedstock_root/build_artifacts/deepmd-kit_1712447052054/work/source/lmp/pair_deepmd.cpp:1274)
 # 根据体系元素调整顺序

neighbor 2.0 bin
neigh_modify every 1 delay 10 check yes

thermo 1
thermo_style custom step pe
thermo_modify format float "%10.5f"


run 0

CITE-CITE-CITE-CITE-CITE-CITE-CITE-CITE-CITE-CITE-CITE-CITE-CITE

Your simulation uses code contributions which should be cited:

- USER-DEEPMD package:

@article{Wang_ComputPhysCommun_2018_v228_p178,
  author = {Wang, Han and Zhang, Linfeng and Han, Jiequn and E, Weinan},
  doi = {10.1016/j.cpc.2018.03.016},
  url = {https://doi.org/10.1016/j.cpc.2018.03.016},
  year = 2018,
  month = {jul},
  publisher = {Elsevier {BV}},
  volume = 228,
  journal = {Comput. Phys. Commun.},
  title = {{DeePMD-kit: A deep learning package for many-body potential energy representation and molecular dynamics}},
  pages = {178--184}
}
@misc{Zeng_JChemPhys_2023_v159_p054801,
  title  = {{DeePMD-kit v2: A software package for deep potential models}},
  author =   {Jinzhe Zeng and Duo Zhang and Denghui Lu and Pinghui Mo and Zeyu Li
         and Yixiao Chen and Mari{\'a}n Rynik and Li'ang Huang and Ziyao Li and 
         Shaochen Shi and Yingze Wang and Haotian Ye and Ping Tuo and Jiabin
         Yang and Ye Ding and Yifan Li and Davide Tisi and Qiyu Zeng and Han 
         Bao and Yu Xia and Jiameng Huang and Koki Muraoka and Yibo Wang and 
         Junhan Chang and Fengbo Yuan and Sigbj{\o}rn L{\o}land Bore and Chun
         Cai and Yinnian Lin and Bo Wang and Jiayan Xu and Jia-Xin Zhu and 
         Chenxing Luo and Yuzhi Zhang and Rhys E A Goodall and Wenshuo Liang
         and Anurag Kumar Singh and Sikai Yao and Jingchao Zhang and Renata
         Wentzcovitch and Jiequn Han and Jie Liu and Weile Jia and Darrin M
         York and Weinan E and Roberto Car and Linfeng Zhang and Han Wang},
  journal =  {J. Chem. Phys.},
  volume =   159,
  issue =    5,  
  year =    2023,
  pages  =   054801,
  doi =      {10.1063/5.0155600},
}

CITE-CITE-CITE-CITE-CITE-CITE-CITE-CITE-CITE-CITE-CITE-CITE-CITE

WARNING: No fixes with time integration, atoms won't move (src/verlet.cpp:60)
WARNING: Interaction between types 1 and 3 is set with deepmd, but will be ignored.
 Deepmd model has only 2 types, it only computes the mulitbody interaction of types: 1-2. (/home/conda/feedstock_root/build_artifacts/deepmd-kit_1712447052054/work/source/lmp/pair_deepmd.cpp:1312)
WARNING: Interaction between types 2 and 3 is set with deepmd, but will be ignored.
 Deepmd model has only 2 types, it only computes the mulitbody interaction of types: 1-2. (/home/conda/feedstock_root/build_artifacts/deepmd-kit_1712447052054/work/source/lmp/pair_deepmd.cpp:1312)
WARNING: Interaction between types 3 and 3 is set with deepmd, but will be ignored.
 Deepmd model has only 2 types, it only computes the mulitbody interaction of types: 1-2. (/home/conda/feedstock_root/build_artifacts/deepmd-kit_1712447052054/work/source/lmp/pair_deepmd.cpp:1312)
Generated 0 of 3 mixed pair_coeff terms from geometric mixing rule
Neighbor list info ...
  update: every = 1 steps, delay = 10 steps, check = yes
  max neighbors/atom: 2000, page size: 100000
  master list distance cutoff = 8
  ghost atom cutoff = 8
  binsize = 4, bins = 5 5 6
  1 neighbor lists, perpetual/occasional/extra = 1 0 0
  (1) pair deepmd, perpetual
      attributes: full, newton on
      pair build: full/bin/atomonly
      stencil: full/bin/3d
      bin: standard
Per MPI rank memory allocation (min/avg/max) = 3.085 | 3.158 | 3.221 Mbytes
   Step         PotEng    
WARNING: Too many warnings: 145 vs 100. All future warnings will be suppressed (src/thermo.cpp:472)
         0  -1823879.08880
Loop time of 6.06325e-06 on 24 procs for 0 steps with 257 atoms

46.0% CPU use with 24 MPI tasks x 1 OpenMP threads

MPI task timing breakdown:
Section |  min time  |  avg time  |  max time  |%varavg| %total
---------------------------------------------------------------
Pair    | 0          | 0          | 0          |   0.0 |  0.00
Neigh   | 0          | 0          | 0          |   0.0 |  0.00
Comm    | 0          | 0          | 0          |   0.0 |  0.00
Output  | 0          | 0          | 0          |   0.0 |  0.00
Modify  | 0          | 0          | 0          |   0.0 |  0.00
Other   |            | 6.063e-06  |            |       |100.00

Nlocal:        10.7083 ave          24 max           0 min
Histogram: 12 0 0 0 0 0 0 1 7 4
Nghost:        391.208 ave         410 max         362 min
Histogram: 2 0 4 0 2 4 0 2 6 4
Neighs:              0 ave           0 max           0 min
Histogram: 24 0 0 0 0 0 0 0 0 0
FullNghs:      1230.33 ave        2720 max           0 min
Histogram: 12 0 0 0 0 0 0 0 6 6

Total # of neighbors = 29528
Ave neighs/atom = 114.89494
Neighbor list builds = 0
Dangerous builds = 0
Total wall time: 0:00:08
