256
Lattice="19.6230000000 0.0000000000 0.0000000000 0.0000000000 16.9480000000 0.0000000000 0.0000000000 0.0000000000 22.0000000000" Properties=species:S:1:pos:R:3 pbc="T T T"
Si  2.14945478  0.68259366  5.71742508
Si  4.67317184  4.88585402  5.77348704
O  2.62561528  1.37745916  4.36910512
O  0.40485702  5.53392111  4.44872708
O  2.48494009  3.44659563  2.87706005
O  19.61383876  7.68803878  2.92613993
O  3.91983827  3.54505250  5.24939425
O  1.33713047  7.77327875  5.30002936
O  0.64568820  3.91597940  1.12104470
O  3.06728863  8.21412614  1.18155439
O  19.58974510  2.35958910  3.19810019
O  2.43623589  6.61784614  3.21418442
Si  1.14550196  2.85055247  2.08244127
Si  3.56954650  7.11190671  2.09922234
Si  3.47321770  2.74718860  3.93035357
Si  1.03326861  6.94346519  3.91969572
Si  7.17301435  0.60116973  5.79229914
Si  9.59660243  4.95679938  5.75785150
O  7.75704067  1.24483742  4.43773486
O  5.26330378  5.69461711  4.52941502
O  7.39411670  3.44320451  2.87784190
O  4.89418543  7.68739030  2.92588074
O  8.63264506  3.71623955  5.19286944
O  6.42012880  7.74589427  5.42580308
O  5.55528691  3.91222938  1.12110526
O  7.97727571  8.08778361  1.11422787
O  4.91144698  2.36940560  3.20764261
O  7.35519609  6.91425024  3.25187250
Si  6.05964939  2.84616865  2.07900162
Si  8.48566193  7.03965710  2.08886782
Si  8.43393433  2.64492106  3.95515608
Si  5.95172804  7.07498136  4.00833517
Si  2.20572435  9.06276152  5.75987810
Si  4.68034945  13.23493513  5.66334106
O  2.81421258  9.64815094  4.35274239
O  0.21195623  14.03863461  4.34955604
O  2.48714633  11.91883558  2.87405909
O  19.57684547  16.21916130  2.93554594
O  3.72881174  12.00084183  5.27300944
O  1.30930707  16.29289542  5.32522451
O  0.64895060  12.38486445  1.11646981
O  3.07298436  16.68634330  1.12144838
O  19.58958246  11.04730687  3.16694192
O  2.38242243  15.12730697  3.15906476
Si  1.15136255  11.31982647  2.07666950
Si  3.57549405  15.60568624  2.06549132
Si  3.48095912  11.12390087  3.92681385
Si  0.97956189  15.45488498  3.93790199
Si  7.20526102  9.12641877  5.82619206
Si  9.46456282  13.14470924  5.89616355
O  7.90315208  9.70948219  4.44126022
O  5.32606821  13.89800808  4.33789419
O  7.38327565  11.93055338  2.86626281
O  4.88055055  16.20634284  2.92302944
O  8.43979099  12.04209649  5.30291082
O  6.26103325  16.29699921  5.31605119
O  5.49823521  12.38718036  1.11891847
O  7.97442633  16.68811426  1.18000835
O  4.93360714  10.85509149  3.20804873
O  7.34731567  15.12058034  3.22785980
Si  6.03981728  11.34469666  2.08294064
Si  8.47697201  15.59029049  2.10276802
Si  8.24652156  11.20694002  4.00098058
Si  5.93656805  15.38759117  3.97287934
O  1.10234797  1.52193093  6.63805256
O  3.66020334  5.75475581  6.72284642
O  2.82558067  15.65689539  8.61747157
O  0.43676899  2.97914090  8.87868912
O  2.49695501  1.28478534  8.85015782
O  0.20410936  5.60760300  8.77424573
O  1.02738003  4.39925584  6.65296438
O  3.45367987  8.74109844  6.79570493
O  0.12520985  0.30784579  8.76720317
O  2.57288432  4.58021876  8.81043426
Si  1.01635282  1.59372398  8.29145000
Si  3.57016354  5.76840379  8.35951518
Si  3.43998130  0.17450726  8.22164592
Si  1.06119647  4.35196761  8.31523390
O  6.15971465  1.58190555  6.63057240
O  8.56075375  5.87593709  6.58434775
O  7.82207018  15.74204463  8.82425135
O  5.39428721  2.88894048  8.84715235
O  7.47483026  1.36221469  8.99997525
O  5.01434749  5.42239379  8.98650074
O  5.90381172  4.35233127  6.68356482
O  8.32843854  8.84487094  6.98748117
O  4.94970225  0.34096700  8.72862170
O  7.54612842  4.66471979  8.67534022
Si  5.99321694  1.51532611  8.25149485
Si  8.47870079  5.88705278  8.20595992
Si  8.47131420  0.21730253  8.43050034
Si  6.01979807  4.29774184  8.29743005
O  1.26714859  9.99757940  6.69579494
O  3.75322869  14.24302455  6.54523252
O  3.07151380  7.17498764  8.99907202
O  0.40082034  11.40272870  8.63883535
O  2.59664181  9.80009680  9.00295665
O  0.03047014  13.95074334  8.93565940
O  0.90547137  12.87973479  6.65696996
O  3.44655416  0.26701449  6.59323226
O  0.19570540  8.70336623  8.78713929
O  2.55510816  13.00843586  8.72935296
Si  1.10056071  10.00839100  8.31194558
Si  3.48671343  14.26894340  8.16786613
Si  3.55437236  8.63953307  8.43059024
Si  1.03480975  12.84859094  8.28403429
O  6.17846127  10.17687464  6.67066177
O  8.57203194  14.22891370  6.66486764
O  7.79992550  7.16929083  8.95718903
O  5.27737280  11.61714498  8.87378158
O  7.37414885  10.02116935  9.26308270
O  4.98193431  14.23796700  8.84589671
O  5.84546277  12.86329984  6.70360494
O  8.43751837  0.25541086  6.78834761
O  5.06688194  8.97009943  8.82204864
O  7.51844115  13.11554250  8.85322460
Si  5.97069952  10.24871830  8.34908967
Si  8.46905687  14.37264718  8.27210421
Si  8.25374460  8.72752003  8.58922228
Si  5.94892051  13.03394940  8.34829863
Si  12.04849621  0.61826931  5.79134496
Si  14.45780625  4.89419271  5.72344320
O  12.68637640  1.32441432  4.46093092
O  10.37872729  5.72644286  4.65089989
O  12.26863977  3.44029442  2.92581214
O  9.79216876  7.67404204  2.91314139
O  13.39235052  3.74036240  5.29085984
O  10.54194738  8.25650873  5.52926325
O  10.39948437  3.90868440  1.18354598
O  12.88159344  8.08939908  1.11722902
O  9.85525505  2.31098306  3.22720419
O  12.36640571  7.05426480  3.60103688
Si  10.94097237  2.82810018  2.10648137
Si  13.38987393  7.04094693  2.09169084
Si  13.33370844  2.72760150  3.98765716
Si  10.77945520  7.23369756  4.11421340
Si  16.85929324  0.61864941  5.69985746
Si  19.41007756  4.85997700  5.75995689
O  17.36908022  1.38061665  4.38303584
O  15.06468669  5.50233420  4.36978899
O  17.19607615  3.45179620  2.86648193
O  14.69550120  7.67860687  2.91984902
O  18.56910246  3.54836831  5.31151301
O  16.04074309  7.82489238  5.34164231
O  15.30934531  3.91318339  1.12585971
O  17.77365479  8.15777460  1.17489630
O  14.76741098  2.41636180  3.23477933
O  17.17306063  6.59106973  3.25349088
Si  15.85148512  2.86513516  2.08445087
Si  18.28755959  7.08423246  2.11871608
Si  18.17484626  2.73677430  3.97694665
Si  15.76907967  6.96747740  3.99649132
Si  11.87406022  9.15396882  6.23584800
Si  14.52783279  13.61060841  5.76715433
O  12.16755058  10.49006752  5.30217909
O  10.26565347  13.87336278  4.65984849
O  12.27150881  11.92994935  2.86345341
O  9.80095661  16.17279454  2.93427967
O  13.64191463  12.36081029  5.24447260
O  11.06657608  16.35018694  5.30975168
O  10.40246303  12.38611767  1.12045777
O  12.82289427  16.62698233  1.12375947
O  9.76664186  11.21798365  3.29935355
O  12.22077979  15.17271317  3.18244474
Si  10.93831167  11.32154465  2.06355214
Si  13.36713345  15.58302724  2.08508874
Si  13.15644467  11.19673370  4.24137219
Si  10.79311388  15.32601040  4.06062889
Si  17.02844171  9.11317688  5.55267921
Si  19.27674498  13.34875712  5.76397229
O  17.70883801  9.63545378  4.14100714
O  15.14685560  13.97530613  4.31136680
O  17.19441404  11.91926878  2.86016386
O  14.69726216  16.21149261  2.87022223
O  18.30039295  12.09039150  5.24899101
O  15.96669373  16.28562027  5.22340228
O  15.30820934  12.38570075  1.12007509
O  17.72898367  16.68723763  1.18192888
O  14.60119713  10.98886002  3.25484612
O  17.14033942  15.16916913  3.22194272
Si  15.84727917  11.31954257  2.05964687
Si  18.26729138  15.60777828  2.10747871
Si  18.17985103  11.16316507  3.90417970
Si  15.72986311  15.39350551  3.89028661
O  11.03424874  1.60459730  6.68780601
O  13.60436896  5.81829318  6.77356055
O  12.71147060  15.55629349  8.85210546
O  10.44142283  3.00521137  9.01421635
O  12.45591792  1.20368425  9.04327201
O  9.97876695  5.72935294  8.89771558
O  10.79294830  4.42721134  6.71512656
O  13.08860332  8.50521357  6.89022424
O  9.99597890  0.39593706  8.89024999
O  12.46278895  4.52655059  8.81511220
Si  10.98948040  1.59317364  8.35341449
Si  13.41630522  5.83270181  8.47465824
Si  13.36366901  0.04096163  8.41480054
Si  10.88910880  4.44637461  8.36023092
O  15.93039182  1.53768303  6.71406068
O  18.41545633  5.79005994  6.61776705
O  17.57185364  15.64717035  8.71534300
O  15.28345293  2.94382865  8.90585899
O  17.32667072  1.27534275  9.03389979
O  14.94402191  5.51653766  9.02676203
O  15.75782174  4.48759063  6.70200825
O  18.13615650  8.65312032  6.62480424
O  14.91929627  0.26598735  8.87677810
O  17.43468992  4.49664897  8.75653067
Si  15.84525393  1.50964300  8.37582891
Si  18.31096945  5.79800704  8.25580888
Si  18.20039401  0.14506888  8.29138670
Si  15.86444723  4.34982512  8.34283824
O  10.96755904  10.03979022  7.15643507
O  13.41124681  14.54517974  6.54383540
O  12.96576619  7.19496789  9.19367383
O  10.28050573  11.56897382  9.61313176
O  12.42028031  9.80725974  9.53345068
O  9.98547842  14.29000115  8.83409864
O  10.24355475  12.27978950  6.95756533
O  13.28517967  0.18851097  6.78406607
O  9.73902190  8.96422442  9.69418002
O  12.44486766  12.85921015  8.53610863
Si  10.86116369  10.03379544  10.5
Si  13.29602462  14.20656724  8.14904908
Si  13.22839264  8.60863031  8.42123464
Si  10.77817240  12.86054815  8.42475213
O  16.25000906  10.29814952  6.38934541
O  18.36824544  14.37611902  6.63581186
O  17.76156368  7.15310280  8.87731107
O  15.23967338  11.40568186  8.60296963
O  17.29831881  9.82887774  8.78933759
O  14.75602052  14.01222026  8.86782917
O  15.81371626  13.15591656  6.66596839
O  18.10163380  0.23930912  6.67925544
O  14.81829518  8.91611856  8.60914166
O  17.28400732  13.03701744  8.89400340
Si  15.85870560  10.00351723  8.06806346
Si  18.19266626  14.22481639  8.28333985
Si  18.24828386  8.57487731  8.27676488
Si  15.78929606  12.86930676  8.29183515
H  0.18845021  4.02139426  0.50298562
H  5.09420022  4.02139426  0.50298562
H  9.99995022  4.02139426  0.50298562
H  14.90570022  4.02139426  0.50298562
H  2.64132521  8.25839426  0.50298562
H  7.54707521  8.25839426  0.50298562
H  12.45282522  8.25839426  0.50298562
H  17.35857521  8.25839426  0.50298562
H  0.18845021  12.49539426  0.50298562
H  5.09420022  12.49539426  0.50298562
H  9.99995021  12.49539426  0.50298562
H  14.90570022  12.49539426  0.50298562
H  2.64132522  16.73239426  0.50298562
H  7.54707521  16.73239426  0.50298562
H  12.45282522  16.73239426  0.50298562
H  17.35857521  16.73239426  0.50298562