    256
Lattice="19.6230000000 0.0000000000 0.0000000000 0.0000000000 16.9480000000 0.0000000000 0.0000000000 0.0000000000 22.0000000000" Properties=species:S:1:pos:R:3 pbc="T T T"
 Si         2.1668265181        0.6835577171        5.7200280396
 Si         4.6487711107        4.8851924730        5.7817077686
  O         2.7545370158        1.3510575929        4.3545774697
  O         0.3080873116        5.5065848189        4.3568988354
  O         2.4559175158        3.5051093210        2.8884590217
  O        19.6257158818        7.6796393275        2.8998491912
  O         3.7571729201        3.6180347809        5.2714390793
  O         1.3064140454        7.7766990361        5.2812235864
  O         0.6456882000        3.9159794000        1.1210447000
  O         3.0672886300        8.2141261400        1.1815543900
  O        19.6255939499        2.3962949694        3.1965903867
  O         2.4523919043        6.6256327712        3.2058826979
 Si         1.1455019600        2.8505524700        2.0824412700
 Si         3.5695465000        7.1119067100        2.0992223400
 Si         3.4893035700        2.7503312089        3.9265598482
 Si         1.0285388265        6.9103789048        3.9411531204
 Si         7.0992407083        0.6507848804        5.7817917896
 Si         9.5687005342        4.9409563425        5.7354577065
  O         7.6657834851        1.3662251960        4.4315982936
  O         5.2190349955        5.6030391197        4.4358442813
  O         7.4100737297        3.4597655914        2.8369149754
  O         4.9103904886        7.6884649358        2.9126588896
  O         8.6470566290        3.6813894745        5.2509389392
  O         6.2992641994        7.8443746468        5.3516182972
  O         5.5552869100        3.9122293800        1.1211052600
  O         7.9772757100        8.0877836100        1.1142278700
  O         4.9142731570        2.4162029201        3.2015382051
  O         7.3597513307        6.6923811866        3.2166214046
 Si         6.0596493900        2.8461686500        2.0790016200
 Si         8.4856619300        7.0396571000        2.0888678200
 Si         8.4059683390        2.7410964651        3.9496148954
 Si         5.9562484361        7.0019947594        4.0023945276
 Si         2.2098595943        9.0487905230        5.7649678899
 Si         4.6434896783       13.3322852465        5.7152994456
  O         2.8337993307        9.7279643415        4.4192686031
  O         0.2974721160       14.0683391072        4.3578310531
  O         2.5322455192       11.8383359856        2.8304422906
  O        19.6327334189       16.1966141021        2.8407775705
  O         3.7433373008       12.0450371284        5.2677891468
  O         1.2968270667       16.3347362139        5.2606717806
  O         0.6489506000       12.3848644500        1.1164698100
  O         3.0729843600       16.6863433000        1.1214483800
  O        19.6820464158       10.9774831296        3.2793090502
  O         2.4520823269       15.1445203458        3.1946086479
 Si         1.1513625500       11.3198264700        2.0766695000
 Si         3.5754940500       15.6056862400        2.0654913200
 Si         3.5191988858       11.1308889485        3.9468097427
 Si         1.0277340104       15.4595708889        3.9212612690
 Si         7.2311557738        9.1066235050        5.9083821129
 Si         9.5927967711       13.2498457781        5.9019307456
  O         7.7522725284        9.7872590254        4.5096506686
  O         5.2140974855       14.0237349658        4.3559274346
  O         7.4298888121       11.8137728489        2.8273856232
  O         4.9009071229       16.1885149593        2.8932507899
  O         8.5334873896       12.2147808496        5.2180074201
  O         6.2024835699       16.3355484292        5.2731530358
  O         5.4982352100       12.3871803600        1.1189184700
  O         7.9744263300       16.6881142600        1.1800083500
  O         4.9601620781       10.8662606727        3.2141282581
  O         7.3470357400       15.1290415451        3.2072606765
 Si         6.0398172800       11.3446966600        2.0829406400
 Si         8.4769720100       15.5902904900        2.1027680200
 Si         8.4435806531       11.1716465322        3.9942730641
 Si         5.9274318491       15.4420235727        3.9460866399
  O         1.1601486145        1.5875748275        6.6388479213
  O         3.6796731697        5.8011054199        6.7270701289
  O         2.9847188462       15.7016553909        8.8215310024
  O         0.4661525155        2.9895607586        8.7863113426
  O         2.5336018303        1.3463025357        8.9361579188
  O         0.1391643162        5.5804524752        8.9284980001
  O         1.0122455117        4.4490281843        6.6629162911
  O         3.4466909455        8.6019788652        6.7274994412
  O         0.0688348332        0.3832521613        8.7792949691
  O         2.6008266793        4.5890171266        8.8404595846
 Si         1.0570065412        1.5738860413        8.2855448069
 Si         3.5923135275        5.7962973752        8.3772490638
 Si         3.5116455364        0.2049321004        8.3061248138
 Si         1.0835795215        4.4128056314        8.3079483334
  O         6.1421612285        1.5897920637        6.7135860367
  O         8.6563268747        5.9348330408        6.6613810902
  O         7.9605509689       15.6531516606        8.9215811994
  O         5.5080877815        3.0011239516        8.8826402895
  O         7.5095314886        1.2836865274        9.0142367607
  O         5.0756407901        5.5676601155        9.0091038937
  O         5.9081144850        4.4463716412        6.7160196583
  O         8.4288206117        8.7389279719        6.9513041402
  O         5.0416047379        0.3843584365        8.7922588485
  O         7.5908267741        4.6573005723        8.7811180341
 Si         6.0546088227        1.5781329802        8.3577391633
 Si         8.5416025127        5.9215293871        8.3237464124
 Si         8.4641166237        0.1370276415        8.3634772283
 Si         6.0493847783        4.4356174545        8.3536461383
  O         1.2251705539       10.0179320018        6.6429947572
  O         3.6820253165       14.3254232802        6.5935465814
  O         2.9945778992        7.1976696569        8.9258225347
  O         0.4717833018       11.4443284568        8.7815162348
  O         2.5310239629        9.7862897855        8.9409141296
  O         0.0869692046       14.0101455418        8.9443517701
  O         0.9934453998       12.9430260389        6.6411170144
  O         3.4419264182        0.2997671062        6.6619571745
  O         0.0616890304        8.8283543756        8.7674779423
  O         2.5974198637       13.0936441217        8.7168967088
 Si         1.0601809818       10.0195059451        8.2867242634
 Si         3.5737290577       14.3095155054        8.2440156769
 Si         3.5289007506        8.6327184872        8.3732572131
 Si         1.0551986219       12.8792159564        8.2841000228
  O         6.1926116234       10.0787577812        6.7356653896
  O         8.6621313988       14.3206635525        6.7274532453
  O         7.9476562213        7.2816037024        8.9376482663
  O         5.3615736674       11.4741557853        8.8396270016
  O         7.4847166217        9.9213521231        9.0928336495
  O         5.0608451736       14.0798411319        8.8614209892
  O         5.9011087105       12.8870165131        6.6452238079
  O         8.3543287393        0.2147614004        6.7232790813
  O         5.0487172544        8.8736607743        8.8607584711
  O         7.5111585904       13.0391965041        8.7846832669
 Si         6.0399939121       10.0740899802        8.3782426616
 Si         8.5428308416       14.2394419314        8.3778659117
 Si         8.5713631953        8.7863120016        8.6220866083
 Si         5.9873765202       12.8724950149        8.2920625306
 Si        11.9769295380        0.6700531936        5.7815426874
 Si        14.4424365024        4.9009000547        5.8060235233
  O        12.5725457495        1.3526476224        4.4248605035
  O        10.1521046749        5.5698995814        4.3471248035
  O        12.2653753705        3.4669759973        2.9029215367
  O         9.8926499583        7.6120728486        2.7584211936
  O        13.5472454184        3.6199892419        5.3353595063
  O        11.1625177004        7.8101267812        5.2874739462
  O        10.3994843700        3.9086844000        1.1835459800
  O        12.8815934400        8.0893990800        1.1172290200
  O         9.8071774873        2.3356144461        3.2061305400
  O        12.3369259769        6.6049542968        3.2550722920
 Si        10.9409723700        2.8281001800        2.1064813700
 Si        13.3898739300        7.0409469300        2.0916908400
 Si        13.2963700834        2.7495054187        3.9787001718
 Si        10.8836276186        6.9790114994        3.9462317683
 Si        16.8314700953        0.6723577126        5.7206030543
 Si        19.3556478094        4.8431525872        5.7323723804
  O        17.4099224486        1.3471201905        4.3482003808
  O        15.0333358965        5.5073359891        4.4094267784
  O        17.1928806811        3.4765260684        2.8414908801
  O        14.8089162638        7.5372127337        2.7411536247
  O        18.4725778772        3.5526898086        5.2718695391
  O        15.9357472214        7.8521224224        5.1908422540
  O        15.3093453100        3.9131833900        1.1258597100
  O        17.7736547900        8.1577746000        1.1748963000
  O        14.7179391788        2.4432710601        3.2186361327
  O        17.2212577099        6.5586251828        3.2543309866
 Si        15.8514851200        2.8651351600        2.0844508700
 Si        18.2875595900        7.0842324600        2.1187160800
 Si        18.1990840440        2.7135293853        3.9108310565
 Si        15.7610566410        6.8724828509        3.9218324038
 Si        11.7762034728        9.3141815562        5.8343161728
 Si        14.3410625481       13.3913404208        5.7016040642
  O        12.6981280647        9.7138352824        4.4330865771
  O        10.3446346703       13.9268266751        4.5906278128
  O        12.3490979611       11.8210035305        2.7475780427
  O         9.8118020947       16.0499128392        2.9682021103
  O        13.4855636735       12.1259591766        5.1857830189
  O        11.0525774123       16.3500883637        5.3360081683
  O        10.4024630300       12.3861176700        1.1204577700
  O        12.8228942700       16.6269823300        1.1237594700
  O         9.8722307940       10.9097577816        3.2293702896
  O        12.2947412783       15.1417259527        3.2686815497
 Si        10.9383116700       11.3215446500        2.0635521400
 Si        13.3671334500       15.5830272400        2.0850887400
 Si        13.3143549957       11.1211255672        3.9230803952
 Si        10.8661705133       15.3693489554        4.0496129942
 Si        16.8350046319        9.1114908730        5.7002625578
 Si        19.3423438188       13.3703385635        5.7141067009
  O        17.4800146004        9.7967805749        4.3634999975
  O        14.9423549183       14.0964148152        4.3539637439
  O        17.2028576892       11.9024117887        2.8221698379
  O        14.7267493133       16.1897166965        2.8162327317
  O        18.3948143774       12.1206474939        5.2599623738
  O        15.9356601478       16.3428748732        5.2588363568
  O        15.3082093400       12.3857007500        1.1200750900
  O        17.7289836700       16.6872376300        1.1819288800
  O        14.7743849511       10.8498357237        3.2096309493
  O        17.1620847905       15.1451021203        3.2290139082
 Si        15.8472791700       11.3195425700        2.0596468700
 Si        18.2672913800       15.6077782800        2.1074787100
 Si        18.2006413627       11.2003200216        3.9349219833
 Si        15.7107662116       15.4566585963        3.9214515074
  O        11.0472507333        1.6523835806        6.7045904958
  O        13.5643262777        5.9403580582        6.7115520502
  O        12.7188908362       15.6795401021        8.8568723611
  O        10.3528188571        3.0247958613        8.8565190155
  O        12.4296991450        1.3739300294        8.9999831415
  O        10.0360906711        5.6390755315        8.9279430826
  O        10.8149562345        4.4490741219        6.6583883271
  O        12.8722074699        8.9245483564        7.0330127341
  O        10.0003025239        0.3805383175        8.7931872998
  O        12.4865100756        4.5980428162        8.7191393139
 Si        10.9516203027        1.6166468868        8.3496984270
 Si        13.4084752194        5.8966603530        8.3627208616
 Si        13.3118710428        0.1557423693        8.3542144097
 Si        10.9360612245        4.4425874094        8.2990723783
  O        15.8641506309        1.6087240174        6.6429348311
  O        18.3963888729        5.8013251451        6.6460470558
  O        17.6293704376       15.6617549795        8.7944557633
  O        15.1792610286        2.9493138181        8.8586158498
  O        17.2447772728        1.3407533031        8.9351597973
  O        14.8749322190        5.5757955656        9.0069902967
  O        15.7068628412        4.4407307415        6.7242785305
  O        18.0803896660        8.6618885897        6.6463492872
  O        14.8682188747        0.3024876181        8.7757855221
  O        17.3319682651        4.5349555684        8.7847052662
 Si        15.7705744014        1.5598095924        8.2925825019
 Si        18.2698096341        5.7738556879        8.2946555967
 Si        18.1675025414        0.1633216069        8.2988623259
 Si        15.7729562134        4.3845837646        8.3675886910
  O        10.6210113261       10.2429973624        6.3110040534
  O        13.3609965294       14.3084219873        6.6435925320
  O        12.7261983956        7.2058793999        8.9930951332
  O        10.4331432068       11.4440526335        9.6447688538
  O        12.3695275137        9.7070790041        9.7781019940
  O         9.9564153483       13.9463205876        9.1019236150
  O        10.6115028719       12.6706475403        7.0014492534
  O        13.2439269793        0.2262297413        6.7106673106
  O         9.9020192174        8.9614799006        9.5155922292
  O        12.4305035609       12.9746493218        8.7877923663
 Si        10.8611636900       10.0337954400       10.5000000000
 Si        13.2735061731       14.2558799461        8.2974137113
 Si        13.0715222857        8.7747204950        8.6388620141
 Si        10.8434772237       12.6347285563        8.6307081593
  O        15.8421314330       10.0217504034        6.6089205071
  O        18.4090919679       14.3271619439        6.6476228368
  O        17.6299920077        7.1691885348        8.7913601115
  O        15.1069151424       11.4605858118        8.7186285610
  O        17.1837196682        9.7971625347        8.8722314967
  O        14.7958484778       14.0845041854        8.8632911359
  O        15.6393385722       12.9471943320        6.5865521408
  O        18.0882313399        0.2264425669        6.6560167985
  O        14.7127204554        8.8829617955        8.8451679353
  O        17.2554342718       13.0239881738        8.6904327483
 Si        15.6798271660       10.0210595140        8.2593372577
 Si        18.2383985321       14.2535731750        8.2849538000
 Si        18.1441939306        8.6305445788        8.2882982512
 Si        15.7016079728       12.8864048148        8.2308592978
  H         0.1884502100        4.0213942600        0.5029856200
  H         5.0942002200        4.0213942600        0.5029856200
  H         9.9999502200        4.0213942600        0.5029856200
  H        14.9057002200        4.0213942600        0.5029856200
  H         2.6413252100        8.2583942600        0.5029856200
  H         7.5470752100        8.2583942600        0.5029856200
  H        12.4528252200        8.2583942600        0.5029856200
  H        17.3585752100        8.2583942600        0.5029856200
  H         0.1884502100       12.4953942600        0.5029856200
  H         5.0942002200       12.4953942600        0.5029856200
  H         9.9999502100       12.4953942600        0.5029856200
  H        14.9057002200       12.4953942600        0.5029856200
  H         2.6413252200       16.7323942600        0.5029856200
  H         7.5470752100       16.7323942600        0.5029856200
  H        12.4528252200       16.7323942600        0.5029856200
  H        17.3585752100       16.7323942600        0.5029856200