256
Lattice="19.6230000000 0.0000000000 0.0000000000 0.0000000000 16.9480000000 0.0000000000 0.0000000000 0.0000000000 22.0000000000" Properties=species:S:1:pos:R:3 pbc="T T T"
Si  2.16682652  0.68355772  5.72002804
Si  4.64877111  4.88519247  5.78170777
O  2.75453702  1.35105759  4.35457747
O  0.30808731  5.50658482  4.35689884
O  2.45591752  3.50510932  2.88845902
O  0.00271588  7.67963933  2.89984919
O  3.75717292  3.61803478  5.27143908
O  1.30641405  7.77669904  5.28122359
O  0.64568820  3.91597940  1.12104470
O  3.06728863  8.21412614  1.18155439
O  0.00259395  2.39629497  3.19659039
O  2.45239190  6.62563277  3.20588270
Si  1.14550196  2.85055247  2.08244127
Si  3.56954650  7.11190671  2.09922234
Si  3.48930357  2.75033121  3.92655985
Si  1.02853883  6.91037890  3.94115312
Si  7.09924071  0.65078488  5.78179179
Si  9.56870053  4.94095634  5.73545771
O  7.66578349  1.36622520  4.43159829
O  5.21903500  5.60303912  4.43584428
O  7.41007373  3.45976559  2.83691498
O  4.91039049  7.68846494  2.91265889
O  8.64705663  3.68138947  5.25093894
O  6.29926420  7.84437465  5.35161830
O  5.55528691  3.91222938  1.12110526
O  7.97727571  8.08778361  1.11422787
O  4.91427316  2.41620292  3.20153821
O  7.35975133  6.69238119  3.21662140
Si  6.05964939  2.84616865  2.07900162
Si  8.48566193  7.03965710  2.08886782
Si  8.40596834  2.74109647  3.94961490
Si  5.95624844  7.00199476  4.00239453
Si  2.20985959  9.04879052  5.76496789
Si  4.64348968  13.33228525  5.71529945
O  2.83379933  9.72796434  4.41926860
O  0.29747212  14.06833911  4.35783105
O  2.53224552  11.83833599  2.83044229
O  0.00973342  16.19661410  2.84077757
O  3.74333730  12.04503713  5.26778915
O  1.29682707  16.33473621  5.26067178
O  0.64895060  12.38486445  1.11646981
O  3.07298436  16.68634330  1.12144838
O  0.05904642  10.97748313  3.27930905
O  2.45208233  15.14452035  3.19460865
Si  1.15136255  11.31982647  2.07666950
Si  3.57549405  15.60568624  2.06549132
Si  3.51919889  11.13088895  3.94680974
Si  1.02773401  15.45957089  3.92126127
Si  7.23115577  9.10662351  5.90838211
Si  9.59279677  13.24984578  5.90193075
O  7.75227253  9.78725903  4.50965067
O  5.21409749  14.02373497  4.35592743
O  7.42988881  11.81377285  2.82738562
O  4.90090712  16.18851496  2.89325079
O  8.53348739  12.21478085  5.21800742
O  6.20248357  16.33554843  5.27315304
O  5.49823521  12.38718036  1.11891847
O  7.97442633  16.68811426  1.18000835
O  4.96016208  10.86626067  3.21412826
O  7.34703574  15.12904155  3.20726068
Si  6.03981728  11.34469666  2.08294064
Si  8.47697201  15.59029049  2.10276802
Si  8.44358065  11.17164653  3.99427306
Si  5.92743185  15.44202357  3.94608664
O  1.16014861  1.58757483  6.63884792
O  3.67967317  5.80110542  6.72707013
O  2.98471885  15.70165539  8.82153100
O  0.46615252  2.98956076  8.78631134
O  2.53360183  1.34630254  8.93615792
O  0.13916432  5.58045248  8.92849800
O  1.01224551  4.44902818  6.66291629
O  3.44669095  8.60197887  6.72749944
O  0.06883483  0.38325216  8.77929497
O  2.60082668  4.58901713  8.84045958
Si  1.05700654  1.57388604  8.28554481
Si  3.59231353  5.79629738  8.37724906
Si  3.51164554  0.20493210  8.30612481
Si  1.08357952  4.41280563  8.30794833
O  6.14216123  1.58979206  6.71358604
O  8.65632687  5.93483304  6.66138109
O  7.96055097  15.65315166  8.92158120
O  5.50808778  3.00112395  8.88264029
O  7.50953149  1.28368653  9.01423676
O  5.07564079  5.56766012  9.00910389
O  5.90811449  4.44637164  6.71601966
O  8.42882061  8.73892797  6.95130414
O  5.04160474  0.38435844  8.79225885
O  7.59082677  4.65730057  8.78111803
Si  6.05460882  1.57813298  8.35773916
Si  8.54160251  5.92152939  8.32374641
Si  8.46411662  0.13702764  8.36347723
Si  6.04938478  4.43561745  8.35364614
O  1.22517055  10.01793200  6.64299476
O  3.68202532  14.32542328  6.59354658
O  2.99457790  7.19766966  8.92582253
O  0.47178330  11.44432846  8.78151623
O  2.53102396  9.78628979  8.94091413
O  0.08696920  14.01014554  8.94435177
O  0.99344540  12.94302604  6.64111701
O  3.44192642  0.29976711  6.66195717
O  0.06168903  8.82835438  8.76747794
O  2.59741986  13.09364412  8.71689671
Si  1.06018098  10.01950595  8.28672426
Si  3.57372906  14.30951551  8.24401568
Si  3.52890075  8.63271849  8.37325721
Si  1.05519862  12.87921596  8.28410002
O  6.19261162  10.07875778  6.73566539
O  8.66213140  14.32066355  6.72745325
O  7.94765622  7.28160370  8.93764827
O  5.36157367  11.47415579  8.83962700
O  7.48471662  9.92135212  9.09283365
O  5.06084517  14.07984113  8.86142099
O  5.90110871  12.88701651  6.64522381
O  8.35432874  0.21476140  6.72327908
O  5.04871725  8.87366077  8.86075847
O  7.51115859  13.03919650  8.78468327
Si  6.03999391  10.07408998  8.37824266
Si  8.54283084  14.23944193  8.37786591
Si  8.57136320  8.78631200  8.62208661
Si  5.98737652  12.87249501  8.29206253
Si  11.97692954  0.67005319  5.78154269
Si  14.44243650  4.90090005  5.80602352
O  12.57254575  1.35264762  4.42486050
O  10.15210467  5.56989958  4.34712480
O  12.26537537  3.46697600  2.90292154
O  9.89264996  7.61207285  2.75842119
O  13.54724542  3.61998924  5.33535951
O  11.16251770  7.81012678  5.28747395
O  10.39948437  3.90868440  1.18354598
O  12.88159344  8.08939908  1.11722902
O  9.80717749  2.33561445  3.20613054
O  12.33692598  6.60495430  3.25507229
Si  10.94097237  2.82810018  2.10648137
Si  13.38987393  7.04094693  2.09169084
Si  13.29637008  2.74950542  3.97870017
Si  10.88362762  6.97901150  3.94623177
Si  16.83147010  0.67235771  5.72060305
Si  19.35564781  4.84315259  5.73237238
O  17.40992245  1.34712019  4.34820038
O  15.03333590  5.50733599  4.40942678
O  17.19288068  3.47652607  2.84149088
O  14.80891626  7.53721273  2.74115362
O  18.47257788  3.55268981  5.27186954
O  15.93574722  7.85212242  5.19084225
O  15.30934531  3.91318339  1.12585971
O  17.77365479  8.15777460  1.17489630
O  14.71793918  2.44327106  3.21863613
O  17.22125771  6.55862518  3.25433099
Si  15.85148512  2.86513516  2.08445087
Si  18.28755959  7.08423246  2.11871608
Si  18.19908404  2.71352939  3.91083106
Si  15.76105664  6.87248285  3.92183240
Si  11.77620347  9.31418156  5.83431617
Si  14.34106255  13.39134042  5.70160406
O  12.69812806  9.71383528  4.43308658
O  10.34463467  13.92682668  4.59062781
O  12.34909796  11.82100353  2.74757804
O  9.81180209  16.04991284  2.96820211
O  13.48556367  12.12595918  5.18578302
O  11.05257741  16.35008836  5.33600817
O  10.40246303  12.38611767  1.12045777
O  12.82289427  16.62698233  1.12375947
O  9.87223079  10.90975778  3.22937029
O  12.29474128  15.14172595  3.26868155
Si  10.93831167  11.32154465  2.06355214
Si  13.36713345  15.58302724  2.08508874
Si  13.31435500  11.12112557  3.92308040
Si  10.86617051  15.36934896  4.04961299
Si  16.83500463  9.11149087  5.70026256
Si  19.34234382  13.37033856  5.71410670
O  17.48001460  9.79678057  4.36350000
O  14.94235492  14.09641482  4.35396374
O  17.20285769  11.90241179  2.82216984
O  14.72674931  16.18971670  2.81623273
O  18.39481438  12.12064749  5.25996237
O  15.93566015  16.34287487  5.25883636
O  15.30820934  12.38570075  1.12007509
O  17.72898367  16.68723763  1.18192888
O  14.77438495  10.84983572  3.20963095
O  17.16208479  15.14510212  3.22901391
Si  15.84727917  11.31954257  2.05964687
Si  18.26729138  15.60777828  2.10747871
Si  18.20064136  11.20032002  3.93492198
Si  15.71076621  15.45665860  3.92145151
O  11.04725073  1.65238358  6.70459050
O  13.56432628  5.94035806  6.71155205
O  12.71889084  15.67954010  8.85687236
O  10.35281886  3.02479586  8.85651902
O  12.42969915  1.37393003  8.99998314
O  10.03609067  5.63907553  8.92794308
O  10.81495623  4.44907412  6.65838833
O  12.87220747  8.92454836  7.03301273
O  10.00030252  0.38053832  8.79318730
O  12.48651008  4.59804282  8.71913931
Si  10.95162030  1.61664689  8.34969843
Si  13.40847522  5.89666035  8.36272086
Si  13.31187104  0.15574237  8.35421441
Si  10.93606122  4.44258741  8.29907238
O  15.86415063  1.60872402  6.64293483
O  18.39638887  5.80132515  6.64604706
O  17.62937044  15.66175498  8.79445576
O  15.17926103  2.94931382  8.85861585
O  17.24477727  1.34075330  8.93515980
O  14.87493222  5.57579557  9.00699030
O  15.70686284  4.44073074  6.72427853
O  18.08038967  8.66188859  6.64634929
O  14.86821887  0.30248762  8.77578552
O  17.33196827  4.53495557  8.78470527
Si  15.77057440  1.55980959  8.29258250
Si  18.26980963  5.77385569  8.29465560
Si  18.16750254  0.16332161  8.29886233
Si  15.77295621  4.38458376  8.36758869
O  10.62101133  10.24299736  6.31100405
O  13.36099653  14.30842199  6.64359253
O  12.72619840  7.20587940  8.99309513
O  10.43314321  11.44405263  9.64476885
O  12.36952751  9.70707900  9.77810199
O  9.95641535  13.94632059  9.10192362
O  10.61150287  12.67064754  7.00144925
O  13.24392698  0.22622974  6.71066731
O  9.90201922  8.96147990  9.51559223
O  12.43050356  12.97464932  8.78779237
Si  10.86116369  10.03379544  10.50000000
Si  13.27350617  14.25587995  8.29741371
Si  13.07152229  8.77472050  8.63886201
Si  10.84347722  12.63472856  8.63070816
O  15.84213143  10.02175040  6.60892051
O  18.40909197  14.32716194  6.64762284
O  17.62999201  7.16918853  8.79136011
O  15.10691514  11.46058581  8.71862856
O  17.18371967  9.79716253  8.87223150
O  14.79584848  14.08450419  8.86329114
O  15.63933857  12.94719433  6.58655214
O  18.08823134  0.22644257  6.65601680
O  14.71272046  8.88296180  8.84516794
O  17.25543427  13.02398817  8.69043275
Si  15.67982717  10.02105951  8.25933726
Si  18.23839853  14.25357317  8.28495380
Si  18.14419393  8.63054458  8.28829825
Si  15.70160797  12.88640481  8.23085930
H  0.18845021  4.02139426  0.50298562
H  5.09420022  4.02139426  0.50298562
H  9.99995022  4.02139426  0.50298562
H  14.90570022  4.02139426  0.50298562
H  2.64132521  8.25839426  0.50298562
H  7.54707521  8.25839426  0.50298562
H  12.45282522  8.25839426  0.50298562
H  17.35857521  8.25839426  0.50298562
H  0.18845021  12.49539426  0.50298562
H  5.09420022  12.49539426  0.50298562
H  9.99995021  12.49539426  0.50298562
H  14.90570022  12.49539426  0.50298562
H  2.64132522  16.73239426  0.50298562
H  7.54707521  16.73239426  0.50298562
H  12.45282522  16.73239426  0.50298562
H  17.35857521  16.73239426  0.50298562
