257
Lattice="19.6230000000 0.0000000000 0.0000000000 0.0000000000 16.9480000000 0.0000000000 0.0000000000 0.0000000000 22.0000000000" Properties=species:S:1:pos:R:3 pbc="T T T"
Si       2.2146075148    0.6295903218    5.7969127929
Si       4.6629973853    4.8501677849    5.8105287866
O        2.7909526870    1.3452326400    4.4593417284
O        0.3534675995    5.5665982915    4.4668259767
O        2.4566008556    3.4631311416    2.9029555907
O        0.0072548604    7.6845524038    2.9037185544
O        3.7541783611    3.6155770621    5.2771288487
O        1.3035124261    7.8724619388    5.2658662996
O        0.6456881978    3.9159793968    1.1210446966
O        3.0672886306    8.2141261374    1.1815543862
O        0.0292011283    2.3442141258    3.1988766178
O        2.4518316191    6.6294118781    3.2134570608
Si       1.1455019636    2.8505524696    2.0824412660
Si       3.5695464997    7.1119067148    2.0992223405
Si       3.4980581069    2.7252713210    3.9463293433
Si       1.0365230509    6.9559338655    3.9549312712
Si       7.0706269059   17.5906435834    5.8176478636
Si       9.5556796218    4.8731927266    5.8211125559
O        7.6631834253    1.3504082367    4.4795106410
O        5.2569114874    5.5762681602    4.4849987258
O        7.3681490186    3.4597269315    2.9112136032
O        4.9036386086    7.6871037103    2.9071733835
O        8.6554939674    3.6139243000    5.3220217226
O        6.2833478160    7.8810369145    5.2265976331
O        5.5552869141    3.9122293818    1.1211052635
O        7.9772757137    8.0877836073    1.1142278691
O        4.9113950447    2.4128403879    3.2038118167
O        7.3050132850    6.5552974143    3.1380105665
Si       6.0596493909    2.8461686504    2.0790016155
Si       8.4856619334    7.0396571048    2.0888678242
Si       8.3913744793    2.7299363999    3.9813918477
Si       5.9495649995    6.9490614388    3.9431604404
Si       2.2622089058    9.0880262344    5.7540346556
Si       4.6374481775   13.3247683045    5.7623082216
O        2.8807833592    9.7876117573    4.4165556725
O        0.3542425415   14.0735826348    4.4499082487
O        2.5925237855   11.8323507853    2.7456950230
O       -0.0425081875   16.2037567636    2.9351218880
O        3.6117996737   12.1619347017    5.2559685103
O        1.3024224799   16.3415445526    5.2766102160
O        0.6489505964   12.3848644544    1.1164698074
O        3.0729843604   16.6863433025    1.1214483825
O        0.1291084240   11.0471115292    3.3537103660
O        2.4112782726   15.1430151394    3.1562466437
Si       1.1513625534   11.3198264658    2.0766694974
Si       3.5754940473   15.6056862372    2.0654913249
Si       3.5319227537   11.2067470969    3.9386383273
Si       1.0256445534   15.4656563645    3.9402152780
Si       7.1862278613    9.1084887688    5.7926873230
Si       9.4923826906   13.4177467877    5.7763377310
O        7.7871408367    9.8641436169    4.4819397658
O        5.2859686666   14.0173789671    4.4367978482
O        7.4470364256   11.8992311484    2.7547895813
O        4.8641466586   16.1918614551    2.9512122422
O        8.4878354786   12.2801193154    5.2001407499
O        6.1347625901   16.3440636499    5.3396292946
O        5.4982352145   12.3871803565    1.1189184697
O        7.9744263315   16.6881142643    1.1800083493
O        5.0440790287   10.9950306130    3.3585830734
O        7.3673843902   15.2165248787    3.2815455085
Si       6.0398172763   11.3446966603    2.0829406410
Si       8.4769720126   15.5902904931    2.1027680157
Si       8.4101153893   11.2667325770    3.9329124518
Si       5.9167912721   15.4621010297    3.9862112139
O        1.2528369145    1.5390812972    6.7574926740
O        3.6866247789    5.7546018182    6.7629634399
O        2.9868820242   15.5830237059    8.9100152005
O        0.5301677980    2.8679884556    8.9150683634
O        2.5969161368    1.2130860645    9.0581201845
O        0.1468795995    5.4642199131    8.9949500523
O        1.0025134690    4.3647320023    6.7384377017
O        3.4881291892    8.5679314541    6.7046900750
O        0.1563445240   17.1863987383    8.8314497654
O        2.6150452965    4.4819303256    8.8597135159
Si       1.1296338459    1.4641432960    8.3938397199
Si       3.5813995846    5.7065744669    8.4037237938
Si       3.5384659672   17.0185831536    8.3882618551
Si       1.0849191983    4.2956913527    8.3740653374
O        6.1309450532    1.5851248128    6.7709995087
O        8.5901929435    5.7993138740    6.7659432228
O        7.8960501139   15.6298361626    8.9788414035
O        5.4353818533    2.8914066171    8.9758589104
O        7.5068713980    1.2771776832    9.0599922110
O        5.0524554460    5.4667334108    9.0594097360
O        5.8977136658    4.3703290830    6.7694963369
O        8.3927099740    8.5931654035    6.7650911812
O        5.0765865919   17.2040453583    8.8416747654
O        7.5295489186    4.5021786207    8.8457500680
Si       6.0291279300    1.5008839596    8.4116405020
Si       8.4901342656    5.7354348276    8.4079226501
Si       8.4323632594   17.0601931809    8.4063990247
Si       5.9889483244    4.3117407856    8.4075738461
O        1.3076153346   10.0231507701    6.6987560424
O        3.7468634037   14.3143546534    6.7115832113
O        2.9915231769    7.1212640708    8.9102781803
O        0.5428249978   11.3057377751    8.8846291097
O        2.6722767837    9.7158747184    8.9803444041
O        0.1436098054   13.8951044294    9.0313959783
O        0.9214478481   12.8074460060    6.7049706753
O        3.4497514560   17.1015056252    6.7542828339
O        0.2481963861    8.6688901672    8.7798721360
O        2.6145819964   12.9559031064    8.7548116213
Si       1.1857675634    9.9268838607    8.3399832661
Si       3.5858607901   14.1936463092    8.3453977850
Si       3.5902728034    8.5280478180    8.3477621726
Si       1.0644996756   12.7480032488    8.3385396906
O        6.2294170534   10.0185030372    6.7601513548
O        8.6072797898   14.3820733192    6.7580815270
O        7.8957049842    7.1344436980    8.9507516102
O        5.4972690709   11.3178650359    8.9543207433
O        7.5820174231    9.7135062784    9.0549224316
O        5.0529592369   13.9275340001    9.0057918241
O        5.8264225729   12.7434302394    6.7235931807
O        8.3101576262   17.1218724220    6.7725496204
O        5.1373081943    8.6816679882    8.8044537680
O        7.5217387329   12.9890128948    8.7812183244
Si       6.1058360119    9.9292230066    8.4003398247
Si       8.4761630987   14.2424827122    8.3936870897
Si       8.5071201231    8.5408064760    8.4051649424
Si       5.9774467170   12.7526251918    8.3606888385
Si      12.0106406829    0.6885642722    5.8195910144
Si      14.4839587418    4.8951768375    5.8179608402
O       12.7161375385    1.3512870584    4.5118902312
O       10.1408715196    5.5732676928    4.4804803760
O       12.2774712826    3.4078105675    2.8979579345
O        9.7430771759    7.6878470180    2.9714869879
O       13.4889136111    3.7349231905    5.2738828410
O       11.1219443398    7.8645106498    5.2944858326
O       10.3994843669    3.9086844011    1.1835459784
O       12.8815934367    8.0893990809    1.1172290199
O        9.8238631614    2.4102110261    3.2738090048
O       12.2156057127    6.6121457815    3.1850325550
Si      10.9409723671    2.8281001796    2.1064813669
Si      13.3898739345    7.0409469315    2.0916908353
Si      13.3253828173    2.7678724350    3.9830624198
Si      10.8326947446    6.9625202077    3.9729515696
Si      16.8954783420   17.5408552943    5.7818812857
Si      19.3850916321    4.8198407934    5.7789971085
O       17.5207064176    1.2882857127    4.4481251173
O       15.1421026553    5.6150122123    4.5280646422
O       17.2427002618    3.4118465874    2.8331336042
O       14.6678528759    7.6874535151    2.9467350894
O       18.5160718376    3.5457870828    5.2664692578
O       15.9696880945    7.9994976693    5.2725976435
O       15.3093453141    3.9131833885    1.1258597109
O       17.7736547927    8.1577745986    1.1748963014
O       14.7820689801    2.5268237039    3.2956730120
O       17.1737510427    6.7068395374    3.2826989520
Si      15.8514851154    2.8651351622    2.0844508699
Si      18.2875595905    7.0842324587    2.1187160815
Si      18.2296439828    2.6677657573    3.9288256540
Si      15.7478089223    7.0264465780    3.9932888840
Si      12.0256426321    9.1238023397    5.8047900336
Si      14.3998289597   13.3765281225    5.7580534406
O       12.5722199369    9.8585305904    4.4526208623
O       10.2129564282   14.1363199402    4.5152092775
O       12.3456959852   11.8985183266    2.7637303417
O        9.8645831856   16.1482480404    2.8287083203
O       13.4850170948   12.1288868616    5.2671018017
O       10.9660630735   16.5176407035    5.2701103398
O       10.4024630339   12.3861176689    1.1204577714
O       12.8228942730   16.6269823261    1.1237594727
O        9.8917488624   11.0186908256    3.3142967226
O       12.3387073135   15.2893291376    3.3566203557
Si      10.9383116737   11.3215446464    2.0635521383
Si      13.3671334491   15.5830272442    2.0850887447
Si      13.3035365754   11.2226597179    3.9265848645
Si      10.8554460909   15.5330873728    3.9834818533
Si      16.9884481446    9.1533823200    5.7892267616
Si      19.3358525598   13.3874576279    5.7707107413
O       17.6292642670    9.8415142411    4.4678347282
O       14.9789415330   14.0643776345    4.4027481675
O       17.2597515516   11.8428932308    2.7587505779
O       14.7898021764   16.1306515052    2.7621376701
O       18.3165946419   12.2388001102    5.2376680411
O       15.9425082928   16.3244494770    5.2688211094
O       15.3082093433   12.3857007544    1.1200750870
O       17.7289836673   16.6872376294    1.1819288778
O       14.7885081978   10.9643817994    3.2872606164
O       17.1881338106   15.1322665761    3.2741259487
Si      15.8472791736   11.3195425680    2.0596468744
Si      18.2672913800   15.6077782780    2.1074787074
Si      18.2434495446   11.2564034657    3.9428756471
Si      15.7283515494   15.4347697264    3.9236509626
O       11.1134541740    1.6609292952    6.7822549859
O       13.5873773530    5.8699891554    6.7712727254
O       12.7334118619   15.5655350080    8.9376443640
O       10.3744462730    2.9321445676    8.9772248522
O       12.4140526367    1.2250664781    9.0847741930
O        9.9648147006    5.5019487301    9.0619281013
O       10.8098850541    4.4386223530    6.7741691861
O       13.2937993547    8.6384164832    6.7163138571
O        9.9773453619   17.2533479487    8.8318022920
O       12.4663621879    4.5298798877    8.8350027632
Si      10.9583218569    1.5345630649    8.4179976037
Si      13.4452256898    5.7531868356    8.4049285517
Si      13.3107204636   16.9949183109    8.4166905264
Si      10.9153479165    4.3584382133    8.4085635085
O       15.9406276129    1.5190393300    6.7346407616
O       18.3934116699    5.7306133081    6.7087367694
O       17.7054630308   15.5841835852    8.9596406586
O       15.2093698002    2.8514522394    8.9183339637
O       17.2897457545    1.2150704202    9.0324958384
O       14.9061287193    5.4626871371    9.0612870245
O       15.6725616432    4.3038029660    6.7663420578
O       18.1942977301    8.5832635320    6.7321078948
O       14.8651141082   17.1693831477    8.8339555572
O       17.3479668418    4.4497047670    8.8305721505
Si      15.8178099728    1.4554951103    8.3756275365
Si      18.2907964363    5.6887727514    8.3544843382
Si      18.2342217408   17.0106067148    8.3851440812
Si      15.7965798781    4.2749690461    8.4005938158
O       11.0943138517   10.0190594037    6.8079463847
O       13.4443229518   14.3087246557    6.7088258841
O       12.8875383693    7.1620741799    8.9391216656
O       10.2418095508   11.3482311630    8.8604952551
O       12.5264866991    9.7237648068    9.0325049108
O        9.9549867312   13.9616220182    9.0299073480
O       10.6626614443   12.7856574982    6.7204412640
O       13.1858943658   17.0377473891    6.7825774092
O       10.0556812946    8.6700495012    8.8526926804
O       12.3905339258   12.9290537721    8.7372374320
Si      11.0089940523    9.9374145246    8.4724507628
Si      13.3408862794   14.1876971676    8.3489393257
Si      13.4405415882    8.5727529259    8.3479281585
Si      10.8367737437   12.7856901614    8.3430043519
O       16.1166467547   10.1434165505    6.7527573942
O       18.4475469055   14.3539360933    6.7455504699
O       17.7118032939    7.0959930434    8.9014638211
O       15.2799443368   11.3535117035    8.9111233092
O       17.4185719392    9.7108834230    9.0427627385
O       14.8026940858   13.9202842907    9.0114702254
O       15.6438234068   12.9191327434    6.7109184438
O       18.1195782382   17.0544483918    6.7478268448
O       15.0000393377    8.7203091243    8.7552654058
O       17.3227158448   12.9665569696    8.7605166525
Si      15.9508613826    9.9846809138    8.3813407770
Si      18.3046775324   14.2016140819    8.3779998013
Si      18.3081647808    8.5181325196    8.3715373934
Si      15.7690936317   12.7975491206    8.3415425332
H        0.1884502100    4.0213942600    0.5029856200
H        5.0942002200    4.0213942600    0.5029856200
H        9.9999502200    4.0213942600    0.5029856200
H       14.9057002200    4.0213942600    0.5029856200
H        2.6413252100    8.2583942600    0.5029856200
H        7.5470752100    8.2583942600    0.5029856200
H       12.4528252200    8.2583942600    0.5029856200
H       17.3585752100    8.2583942600    0.5029856200
H        0.1884502100   12.4953942600    0.5029856200
H        5.0942002200   12.4953942600    0.5029856200
H        9.9999502100   12.4953942600    0.5029856200
H       14.9057002200   12.4953942600    0.5029856200
H        2.6413252200   16.7323942600    0.5029856200
H        7.5470752100   16.7323942600    0.5029856200
H       12.4528252200   16.7323942600    0.5029856200
H       17.3585752100   16.7323942600    0.5029856200
O       10.5784453345   10.6942062060   13.9764302723
