Atoms  # charge
 
         257  atoms
           3  atom types
 
      0.000000000000      19.623000000000  xlo xhi
      0.000000000000      16.948000000000  ylo yhi
      0.000000000000      22.000000000000  zlo zhi
 
Masses
 
            1   28.08500000             # Si
            2   15.99900000             # O
            3   1.00800000              # H
 
Atoms  # charge
 
1	1	0.0	2.222994212600	0.629128712300	5.770894418900
2	1	0.0	4.655044289900	4.858020837700	5.785194334100
3	2	0.0	2.817854740000	1.327854492400	4.432829374000
4	2	0.0	0.319188564500	5.558837172000	4.425225065600
5	2	0.0	2.455550496700	3.464026859200	2.903000512900
6	2	0.0	0.006768120000	7.688263771500	2.899920310700
7	2	0.0	3.750671572400	3.611039085500	5.275423339600
8	2	0.0	1.306378801800	7.841605752800	5.267939621300
9	2	0.0	0.645688197800	3.915979396800	1.121044696600
10	2	0.0	3.067288630600	8.214126137400	1.181554386200
11	2	0.0	0.021404155200	2.348899001300	3.196774375400
12	2	0.0	2.451216577400	6.627860798500	3.211940830100
13	1	0.0	1.145501963600	2.850552469600	2.082441266000
14	1	0.0	3.569546499700	7.111906714800	2.099222340500
15	1	0.0	3.500946831300	2.725751676100	3.940633555400
16	1	0.0	1.031146706300	6.945096703700	3.944658253500
17	1	0.0	7.076218289500	17.595505760400	5.790007477700
18	1	0.0	9.565369929200	4.875382081200	5.784046156300
19	2	0.0	7.660800572200	1.346817379600	4.444363236400
20	2	0.0	5.224837855400	5.575561369500	4.446719281900
21	2	0.0	7.367928177900	3.463838722600	2.903661952600
22	2	0.0	4.903601996800	7.693219274300	2.907717582800
23	2	0.0	8.657925505100	3.618090556400	5.292409851800
24	2	0.0	6.287581411600	7.847060222300	5.252350742300
25	2	0.0	5.555286914100	3.912229381800	1.121105263500
26	2	0.0	7.977275713700	8.087783607300	1.114227869100
27	2	0.0	4.914134655000	2.414328713600	3.201951683300
28	2	0.0	7.304667712400	6.557301331100	3.139109180100
29	1	0.0	6.059649390900	2.846168650400	2.079001615500
30	1	0.0	8.485661933400	7.039657104800	2.088867824200
31	1	0.0	8.391494303100	2.727902775400	3.962279020800
32	1	0.0	5.946082287900	6.948689741000	3.941699666100
33	1	0.0	2.259276481500	9.076151042400	5.725065527200
34	1	0.0	4.637353160600	13.314634899500	5.754460903100
35	2	0.0	2.846944034000	9.783352674500	4.378251021300
36	2	0.0	0.321554096100	14.071732002500	4.389546400600
37	2	0.0	2.589915061300	11.838358184800	2.744374352700
38	2	0.0	-0.013562123500	16.203345481800	2.898675725400
39	2	0.0	3.616531064600	12.138733833500	5.260322123900
40	2	0.0	1.298254172600	16.338715054800	5.272025247500
41	2	0.0	0.648950596400	12.384864454400	1.116469807400
42	2	0.0	3.072984360400	16.686343302500	1.121448382500
43	2	0.0	0.132157800800	11.011657727400	3.344733187700
44	2	0.0	2.443837201600	15.145301062400	3.190324501000
45	1	0.0	1.151362553400	11.319826465800	2.076669497400
46	1	0.0	3.575494047300	15.605686237200	2.065491324900
47	1	0.0	3.527037631600	11.199926908600	3.931515767300
48	1	0.0	1.029965732300	15.465903581400	3.928752097500
49	1	0.0	7.201567766200	9.093311367500	5.770688107500
50	1	0.0	9.432486482700	13.449273465000	5.711564574600
51	2	0.0	7.755820800300	9.858445532000	4.443761166200
52	2	0.0	5.284789567700	14.016276839300	4.433297111800
53	2	0.0	7.445179341200	11.902470120300	2.748073545100
54	2	0.0	4.892441691500	16.188044202500	2.916835755300
55	2	0.0	8.445279794500	12.275932687100	5.196377387700
56	2	0.0	6.136699329100	16.342697226900	5.334369288300
57	2	0.0	5.498235214500	12.387180356500	1.118918469700
58	2	0.0	7.974426331500	16.688114264300	1.180008349300
59	2	0.0	5.041082455400	10.994920469600	3.356325317300
60	2	0.0	7.371756485900	15.214047534300	3.283418394100
61	1	0.0	6.039817276300	11.344696660300	2.082940641000
62	1	0.0	8.476972012600	15.590290493100	2.102768015700
63	1	0.0	8.400354144200	11.264000395300	3.925007631100
64	1	0.0	5.919264476100	15.459636207600	3.979890484900
65	2	0.0	1.283550523700	1.570034461700	6.721745996600
66	2	0.0	3.689449747400	5.786745002400	6.724173583700
67	2	0.0	2.987940001700	15.588131062700	8.878026830300
68	2	0.0	0.532807350900	2.880421033600	8.876246386000
69	2	0.0	2.597689460700	1.217643344500	9.025354782200
70	2	0.0	0.158374497500	5.485618053600	8.952073257200
71	2	0.0	1.000756870700	4.366630760000	6.688759633800
72	2	0.0	3.509735858000	8.588420525100	6.661253320000
73	2	0.0	0.164636281100	17.192927915100	8.785143255900
74	2	0.0	2.615972976600	4.506367112500	8.806250649200
75	1	0.0	1.136230752100	1.477567092800	8.356539280600
76	1	0.0	3.581572256400	5.733602133300	8.364405214400
77	1	0.0	3.541100383600	17.024401244900	8.359761084400
78	1	0.0	1.086774768000	4.308282364000	8.327582229600
79	2	0.0	6.132198202000	1.589868945500	6.736305613900
80	2	0.0	8.594023948200	5.799895863500	6.722909718000
81	2	0.0	7.890870519800	15.660890533500	8.941852058300
82	2	0.0	5.435665956100	2.916778584700	8.939840777300
83	2	0.0	7.505741946800	1.290721405800	9.024550237100
84	2	0.0	5.053341741000	5.494620398100	9.020278295700
85	2	0.0	5.896221160800	4.376586626000	6.733689979900
86	2	0.0	8.431353705500	8.602726284300	6.727012421400
87	2	0.0	5.075791451500	17.231055392000	8.810207645900
88	2	0.0	7.530661484300	4.515539421100	8.807876913700
89	1	0.0	6.028382300500	1.524374909000	8.377594724800
90	1	0.0	8.496475174700	5.742745024800	8.363921084500
91	1	0.0	8.438630234400	17.085717524500	8.368973789500
92	1	0.0	5.989177448400	4.335996378800	8.372526066400
93	2	0.0	1.307611951800	10.019288576000	6.663362333500
94	2	0.0	3.748281886200	14.313357459800	6.694300936600
95	2	0.0	2.991006362600	7.146421713900	8.872198878900
96	2	0.0	0.538690385600	11.313860624000	8.820675984600
97	2	0.0	2.681101486100	9.727969333800	8.942126961000
98	2	0.0	0.146668239800	13.921824405900	8.957089034800
99	2	0.0	0.921959184700	12.812565261000	6.653388189500
100	2	0.0	3.453806228100	17.098437892700	6.726745796400
101	2	0.0	0.277732430800	8.668190691600	8.775243133500
102	2	0.0	2.610732383100	12.956329783800	8.718378821200
103	1	0.0	1.194291123500	9.931877772200	8.305152152400
104	1	0.0	3.586449288200	14.195548153700	8.326928568600
105	1	0.0	3.599319870300	8.545213626700	8.304111098000
106	1	0.0	1.064069253500	12.757623071400	8.286198560500
107	2	0.0	6.259949356400	10.023600595700	6.728505845200
108	2	0.0	8.539277570100	14.385719109500	6.712675059900
109	2	0.0	7.898445568700	7.145553248000	8.886592958400
110	2	0.0	5.509135010900	11.311215201000	8.938904529400
111	2	0.0	7.595276099100	9.712952539600	9.020227179400
112	2	0.0	5.046642902400	13.924947276600	9.002899956900
113	2	0.0	5.826565964100	12.744608334100	6.721803687200
114	2	0.0	8.337989761600	17.156010462400	6.734213268500
115	2	0.0	5.147311785200	8.683061901800	8.745088093000
116	2	0.0	7.516811831300	13.020290741200	8.782104984900
117	1	0.0	6.123053120100	9.930161125400	8.364661268200
118	1	0.0	8.451117298900	14.271616218000	8.353177174200
119	1	0.0	8.539141222000	8.551441539700	8.369887259700
120	1	0.0	5.976445378700	12.754361765900	8.357423161500
121	1	0.0	12.009415065400	0.674290387100	5.809717534200
122	1	0.0	14.496247509300	4.877694793800	5.784628286100
123	2	0.0	12.713908544600	1.338038326300	4.505068486600
124	2	0.0	10.172914784700	5.576086442700	4.452358125000
125	2	0.0	12.279714289400	3.403626860200	2.898003919600
126	2	0.0	9.744411824100	7.691602896400	2.973703522300
127	2	0.0	13.494243158700	3.703854863200	5.277444332300
128	2	0.0	11.108661977400	7.894221347100	5.329137704300
129	2	0.0	10.399484366900	3.908684401100	1.183545978400
130	2	0.0	12.881593436700	8.089399080900	1.117229019900
131	2	0.0	9.828082383800	2.407983667000	3.269068618000
132	2	0.0	12.253248076700	6.684711984500	3.250271738700
133	1	0.0	10.940972367100	2.828100179600	2.106481366900
134	1	0.0	13.389873934500	7.040946931500	2.091690835300
135	1	0.0	13.327408395200	2.751605414300	3.976978090000
136	1	0.0	10.840711351400	6.998421236600	3.995049069900
137	1	0.0	16.895438993500	17.535521550900	5.732030688800
138	1	0.0	19.368639148000	4.813845653800	5.746470464800
139	2	0.0	17.484314406000	1.284534332900	4.380694363600
140	2	0.0	15.109544174200	5.582744696600	4.459834683300
141	2	0.0	17.235909354600	3.444150204100	2.829379993700
142	2	0.0	14.703645220600	7.686377474100	2.908936585700
143	2	0.0	18.482377634300	3.539153832500	5.262501550500
144	2	0.0	16.005800765800	7.931568974700	5.277004044000
145	2	0.0	15.309345314100	3.913183388500	1.125859710900
146	2	0.0	17.773654792700	8.157774598600	1.174896301400
147	2	0.0	14.782743790100	2.496754437200	3.289741417400
148	2	0.0	17.183201935900	6.697808648200	3.278537729100
149	1	0.0	15.851485115400	2.865135162200	2.084450869900
150	1	0.0	18.287559590500	7.084232458700	2.118716081500
151	1	0.0	18.214677876600	2.674008194300	3.911333057400
152	1	0.0	15.746716614000	7.001272027700	3.971716510900
153	1	0.0	12.043170423500	9.130181404800	5.852557418300
154	1	0.0	14.418853298800	13.362823807300	5.735426353000
155	2	0.0	12.572251160500	9.860137942600	4.487208721600
156	2	0.0	10.136752564600	14.155869499400	4.439190791300
157	2	0.0	12.348906384600	11.893950816000	2.767452760400
158	2	0.0	9.857148866100	16.188971659000	2.821855308900
159	2	0.0	13.484951315200	12.127604750300	5.262930210400
160	2	0.0	10.966609611900	16.495104918100	5.272057445800
161	2	0.0	10.402463033900	12.386117668900	1.120457771400
162	2	0.0	12.822894273000	16.626982326100	1.123759472700
163	2	0.0	9.897739429300	11.054723829600	3.340784161100
164	2	0.0	12.334693397400	15.290082708400	3.356230564100
165	1	0.0	10.938311673700	11.321544646400	2.063552138300
166	1	0.0	13.367133449100	15.583027244200	2.085088744700
167	1	0.0	13.302530572900	11.209396973300	3.929221798600
168	1	0.0	10.842413471200	15.545605444200	3.960389292800
169	1	0.0	17.014156196200	9.108271143700	5.766329982700
170	1	0.0	19.327154568900	13.371123510100	5.717653749500
171	2	0.0	17.628517455400	9.800184620600	4.431620611500
172	2	0.0	15.010942879000	14.028563073000	4.372213649900
173	2	0.0	17.260705032500	11.835864422100	2.753970715600
174	2	0.0	14.791955824800	16.127423234800	2.763478354600
175	2	0.0	18.318840624800	12.204775321600	5.207969917800
176	2	0.0	15.945529836200	16.293767492600	5.268071378300
177	2	0.0	15.308209343300	12.385700754400	1.120075087000
178	2	0.0	17.728983667300	16.687237629400	1.181928877800
179	2	0.0	14.788234569400	10.935695201400	3.283757029600
180	2	0.0	17.203336837400	15.133410106700	3.277557129200
181	1	0.0	15.847279173600	11.319542568000	2.059646874400
182	1	0.0	18.267291380000	15.607778278000	2.107478707400
183	1	0.0	18.243147154000	11.218888850200	3.922680570700
184	1	0.0	15.734213153800	15.419665199700	3.913258019700
185	2	0.0	11.117278840300	1.660326721000	6.760153467300
186	2	0.0	13.620225113300	5.867802843500	6.740306668200
187	2	0.0	12.743275583000	15.537012388900	8.931829912200
188	2	0.0	10.404527234600	2.936825164000	8.948511523500
189	2	0.0	12.416742983900	1.208270172700	9.080755955900
190	2	0.0	9.968049178700	5.502743614400	9.023143483100
191	2	0.0	10.814126894200	4.436960432500	6.739806459800
192	2	0.0	13.331179738400	8.606562373900	6.716387041300
193	2	0.0	9.982941980900	17.256671869000	8.799017227900
194	2	0.0	12.482472831200	4.529749300900	8.795671118200
195	1	0.0	10.972388657900	1.534765227500	8.396439080000
196	1	0.0	13.475402616800	5.745068032700	8.375313859300
197	1	0.0	13.311225408100	16.977017540100	8.409123056500
198	1	0.0	10.929298387700	4.365233240500	8.372803509500
199	2	0.0	15.938755240300	1.513959366400	6.680707422600
200	2	0.0	18.391457927200	5.736693123300	6.674440081900
201	2	0.0	17.704320697800	15.590535186900	8.880811933300
202	2	0.0	15.240423574600	2.844495665900	8.877614627000
203	2	0.0	17.307650972400	1.215394973300	8.961315679200
204	2	0.0	14.935277670600	5.437947730300	9.025714776200
205	2	0.0	15.706333652300	4.304044917700	6.721361916100
206	2	0.0	18.234283873200	8.580564830900	6.716112971400
207	2	0.0	14.870619301600	17.166581561800	8.798601473300
208	2	0.0	17.378317193600	4.444890116000	8.793263792400
209	1	0.0	15.826091483500	1.445526592800	8.323794924400
210	1	0.0	18.299207397600	5.697040021600	8.319104433200
211	1	0.0	18.251520906700	17.014199111400	8.314899902100
212	1	0.0	15.829796164400	4.263229842900	8.356074618200
213	2	0.0	11.172787870500	10.024649709800	6.903077726000
214	2	0.0	13.481104909800	14.311131665000	6.690657371800
215	2	0.0	12.930076054200	7.149378326600	8.937342015700
216	2	0.0	10.081233015500	11.418167614400	8.653169644600
217	2	0.0	12.611616937100	9.708053704500	9.067721784700
218	2	0.0	9.954656100400	14.009638505900	8.951970211600
219	2	0.0	10.661604245100	12.857352150800	6.612733453800
220	2	0.0	13.183075887800	17.029614575500	6.776739881600
221	2	0.0	10.076196216700	8.662873627000	8.852562895100
222	2	0.0	12.365720277600	12.902424607700	8.660640934800
223	1	0.0	11.063623445300	9.943050746000	8.585525611900
224	1	0.0	13.351887852500	14.165158190100	8.325801184300
225	1	0.0	13.493870756900	8.555426555300	8.345806495200
226	1	0.0	10.823598934800	12.857660828400	8.224169216400
227	2	0.0	16.148952618100	10.110855712200	6.719180279200
228	2	0.0	18.412869314700	14.326662741800	6.676971260900
229	2	0.0	17.715735189600	7.099650149400	8.868499630200
230	2	0.0	15.311083769700	11.319448392100	8.878572143800
231	2	0.0	17.459209884600	9.714611801300	9.017296666100
232	2	0.0	14.797804005600	13.875417144100	9.008910936700
233	2	0.0	15.648806117500	12.886795027200	6.693247045700
234	2	0.0	18.154015269800	17.085300113000	6.674999527600
235	2	0.0	15.065976757600	8.680241749400	8.721003140400
236	2	0.0	17.328649357200	12.967418355200	8.727635996400
237	1	0.0	15.992409398100	9.959193407700	8.347643801800
238	1	0.0	18.297899747800	14.201279503400	8.313426448700
239	1	0.0	18.341481510400	8.514815039000	8.354956385100
240	1	0.0	15.777579920800	12.770953311600	8.321204113300
241	3	0.0	0.188450210000	4.021394260000	0.502985620000
242	3	0.0	5.094200220000	4.021394260000	0.502985620000
243	3	0.0	9.999950220000	4.021394260000	0.502985620000
244	3	0.0	14.905700220000	4.021394260000	0.502985620000
245	3	0.0	2.641325210000	8.258394260000	0.502985620000
246	3	0.0	7.547075210000	8.258394260000	0.502985620000
247	3	0.0	12.452825220000	8.258394260000	0.502985620000
248	3	0.0	17.358575210000	8.258394260000	0.502985620000
249	3	0.0	0.188450210000	12.495394260000	0.502985620000
250	3	0.0	5.094200220000	12.495394260000	0.502985620000
251	3	0.0	9.999950210000	12.495394260000	0.502985620000
252	3	0.0	14.905700220000	12.495394260000	0.502985620000
253	3	0.0	2.641325220000	16.732394260000	0.502985620000
254	3	0.0	7.547075210000	16.732394260000	0.502985620000
255	3	0.0	12.452825220000	16.732394260000	0.502985620000
256	3	0.0	17.358575210000	16.732394260000	0.502985620000
257	2	0.0	10.636493263100	10.922364726200	10.941075680800
