Atoms  # charge
 
         257  atoms
           3  atom types
 
      0.000000000000      19.623000000000  xlo xhi
      0.000000000000      16.948000000000  ylo yhi
      0.000000000000      22.000000000000  zlo zhi
 
Masses
 
            1   28.08500000             # Si
            2   15.99900000             # O
            3   1.00800000              # H
 
Atoms  # charge
 
1	1	0.0	2.214607514800	0.629590321800	5.796912792900
2	1	0.0	4.662997385300	4.850167784900	5.810528786600
3	2	0.0	2.790952687000	1.345232640000	4.459341728400
4	2	0.0	0.353467599500	5.566598291500	4.466825976700
5	2	0.0	2.456600855600	3.463131141600	2.902955590700
6	2	0.0	0.007254860400	7.684552403800	2.903718554400
7	2	0.0	3.754178361100	3.615577062100	5.277128848700
8	2	0.0	1.303512426100	7.872461938800	5.265866299600
9	2	0.0	0.645688197800	3.915979396800	1.121044696600
10	2	0.0	3.067288630600	8.214126137400	1.181554386200
11	2	0.0	0.029201128300	2.344214125800	3.198876617800
12	2	0.0	2.451831619100	6.629411878100	3.213457060800
13	1	0.0	1.145501963600	2.850552469600	2.082441266000
14	1	0.0	3.569546499700	7.111906714800	2.099222340500
15	1	0.0	3.498058106900	2.725271321000	3.946329343300
16	1	0.0	1.036523050900	6.955933865500	3.954931271200
17	1	0.0	7.070626905900	17.590643583400	5.817647863600
18	1	0.0	9.555679621800	4.873192726600	5.821112555900
19	2	0.0	7.663183425300	1.350408236700	4.479510641000
20	2	0.0	5.256911487400	5.576268160200	4.484998725800
21	2	0.0	7.368149018600	3.459726931500	2.911213603200
22	2	0.0	4.903638608600	7.687103710300	2.907173383500
23	2	0.0	8.655493967400	3.613924300000	5.322021722600
24	2	0.0	6.283347816000	7.881036914500	5.226597633100
25	2	0.0	5.555286914100	3.912229381800	1.121105263500
26	2	0.0	7.977275713700	8.087783607300	1.114227869100
27	2	0.0	4.911395044700	2.412840387900	3.203811816700
28	2	0.0	7.305013285000	6.555297414300	3.138010566500
29	1	0.0	6.059649390900	2.846168650400	2.079001615500
30	1	0.0	8.485661933400	7.039657104800	2.088867824200
31	1	0.0	8.391374479300	2.729936399900	3.981391847700
32	1	0.0	5.949564999500	6.949061438800	3.943160440400
33	1	0.0	2.262208905800	9.088026234400	5.754034655600
34	1	0.0	4.637448177500	13.324768304500	5.762308221600
35	2	0.0	2.880783359200	9.787611757300	4.416555672500
36	2	0.0	0.354242541500	14.073582634800	4.449908248700
37	2	0.0	2.592523785500	11.832350785300	2.745695023000
38	2	0.0	-0.042508187500	16.203756763600	2.935121888000
39	2	0.0	3.611799673700	12.161934701700	5.255968510300
40	2	0.0	1.302422479900	16.341544552600	5.276610216000
41	2	0.0	0.648950596400	12.384864454400	1.116469807400
42	2	0.0	3.072984360400	16.686343302500	1.121448382500
43	2	0.0	0.129108424000	11.047111529200	3.353710366000
44	2	0.0	2.411278272600	15.143015139400	3.156246643700
45	1	0.0	1.151362553400	11.319826465800	2.076669497400
46	1	0.0	3.575494047300	15.605686237200	2.065491324900
47	1	0.0	3.531922753700	11.206747096900	3.938638327300
48	1	0.0	1.025644553400	15.465656364500	3.940215278000
49	1	0.0	7.186227861300	9.108488768800	5.792687323000
50	1	0.0	9.492382690600	13.417746787700	5.776337731000
51	2	0.0	7.787140836700	9.864143616900	4.481939765800
52	2	0.0	5.285968666600	14.017378967100	4.436797848200
53	2	0.0	7.447036425600	11.899231148400	2.754789581300
54	2	0.0	4.864146658600	16.191861455100	2.951212242200
55	2	0.0	8.487835478600	12.280119315400	5.200140749900
56	2	0.0	6.134762590100	16.344063649900	5.339629294600
57	2	0.0	5.498235214500	12.387180356500	1.118918469700
58	2	0.0	7.974426331500	16.688114264300	1.180008349300
59	2	0.0	5.044079028700	10.995030613000	3.358583073400
60	2	0.0	7.367384390200	15.216524878700	3.281545508500
61	1	0.0	6.039817276300	11.344696660300	2.082940641000
62	1	0.0	8.476972012600	15.590290493100	2.102768015700
63	1	0.0	8.410115389300	11.266732577000	3.932912451800
64	1	0.0	5.916791272100	15.462101029700	3.986211213900
65	2	0.0	1.252836914500	1.539081297200	6.757492674000
66	2	0.0	3.686624778900	5.754601818200	6.762963439900
67	2	0.0	2.986882024200	15.583023705900	8.910015200500
68	2	0.0	0.530167798000	2.867988455600	8.915068363400
69	2	0.0	2.596916136800	1.213086064500	9.058120184500
70	2	0.0	0.146879599500	5.464219913100	8.994950052300
71	2	0.0	1.002513469000	4.364732002300	6.738437701700
72	2	0.0	3.488129189200	8.567931454100	6.704690075000
73	2	0.0	0.156344524000	17.186398738300	8.831449765400
74	2	0.0	2.615045296500	4.481930325600	8.859713515900
75	1	0.0	1.129633845900	1.464143296000	8.393839719900
76	1	0.0	3.581399584600	5.706574466900	8.403723793800
77	1	0.0	3.538465967200	17.018583153600	8.388261855100
78	1	0.0	1.084919198300	4.295691352700	8.374065337400
79	2	0.0	6.130945053200	1.585124812800	6.770999508700
80	2	0.0	8.590192943500	5.799313874000	6.765943222800
81	2	0.0	7.896050113900	15.629836162600	8.978841403500
82	2	0.0	5.435381853300	2.891406617100	8.975858910400
83	2	0.0	7.506871398000	1.277177683200	9.059992211000
84	2	0.0	5.052455446000	5.466733410800	9.059409736000
85	2	0.0	5.897713665800	4.370329083000	6.769496336900
86	2	0.0	8.392709974000	8.593165403500	6.765091181200
87	2	0.0	5.076586591900	17.204045358300	8.841674765400
88	2	0.0	7.529548918600	4.502178620700	8.845750068000
89	1	0.0	6.029127930000	1.500883959600	8.411640502000
90	1	0.0	8.490134265600	5.735434827600	8.407922650100
91	1	0.0	8.432363259400	17.060193180900	8.406399024700
92	1	0.0	5.988948324400	4.311740785600	8.407573846100
93	2	0.0	1.307615334600	10.023150770100	6.698756042400
94	2	0.0	3.746863403700	14.314354653400	6.711583211300
95	2	0.0	2.991523176900	7.121264070800	8.910278180300
96	2	0.0	0.542824997800	11.305737775100	8.884629109700
97	2	0.0	2.672276783700	9.715874718400	8.980344404100
98	2	0.0	0.143609805400	13.895104429400	9.031395978300
99	2	0.0	0.921447848100	12.807446006000	6.704970675300
100	2	0.0	3.449751456000	17.101505625200	6.754282833900
101	2	0.0	0.248196386100	8.668890167200	8.779872136000
102	2	0.0	2.614581996400	12.955903106400	8.754811621300
103	1	0.0	1.185767563400	9.926883860700	8.339983266100
104	1	0.0	3.585860790100	14.193646309200	8.345397785000
105	1	0.0	3.590272803400	8.528047818000	8.347762172600
106	1	0.0	1.064499675600	12.748003248800	8.338539690600
107	2	0.0	6.229417053400	10.018503037200	6.760151354800
108	2	0.0	8.607279789800	14.382073319200	6.758081527000
109	2	0.0	7.895704984200	7.134443698000	8.950751610200
110	2	0.0	5.497269070900	11.317865035900	8.954320743300
111	2	0.0	7.582017423100	9.713506278400	9.054922431600
112	2	0.0	5.052959236900	13.927534000100	9.005791824100
113	2	0.0	5.826422572900	12.743430239400	6.723593180700
114	2	0.0	8.310157626200	17.121872422000	6.772549620400
115	2	0.0	5.137308194300	8.681667988200	8.804453768000
116	2	0.0	7.521738732900	12.989012894800	8.781218324400
117	1	0.0	6.105836011900	9.929223006600	8.400339824700
118	1	0.0	8.476163098700	14.242482712200	8.393687089700
119	1	0.0	8.507120123100	8.540806476000	8.405164942400
120	1	0.0	5.977446717000	12.752625191800	8.360688838500
121	1	0.0	12.010640682900	0.688564272200	5.819591014400
122	1	0.0	14.483958741800	4.895176837500	5.817960840200
123	2	0.0	12.716137538500	1.351287058400	4.511890231200
124	2	0.0	10.140871519600	5.573267692800	4.480480376000
125	2	0.0	12.277471282600	3.407810567500	2.897957934500
126	2	0.0	9.743077175900	7.687847018000	2.971486987900
127	2	0.0	13.488913611100	3.734923190500	5.273882841000
128	2	0.0	11.121944339800	7.864510649800	5.294485832600
129	2	0.0	10.399484366900	3.908684401100	1.183545978400
130	2	0.0	12.881593436700	8.089399080900	1.117229019900
131	2	0.0	9.823863161400	2.410211026100	3.273809004800
132	2	0.0	12.215605712700	6.612145781500	3.185032555000
133	1	0.0	10.940972367100	2.828100179600	2.106481366900
134	1	0.0	13.389873934500	7.040946931500	2.091690835300
135	1	0.0	13.325382817300	2.767872435000	3.983062419800
136	1	0.0	10.832694744600	6.962520207700	3.972951569600
137	1	0.0	16.895478342000	17.540855294300	5.781881285700
138	1	0.0	19.385091632100	4.819840793400	5.778997108500
139	2	0.0	17.520706417600	1.288285712700	4.448125117300
140	2	0.0	15.142102655300	5.615012212300	4.528064642200
141	2	0.0	17.242700261800	3.411846587400	2.833133604200
142	2	0.0	14.667852875900	7.687453515100	2.946735089400
143	2	0.0	18.516071837600	3.545787082800	5.266469257800
144	2	0.0	15.969688094500	7.999497669300	5.272597643500
145	2	0.0	15.309345314100	3.913183388500	1.125859710900
146	2	0.0	17.773654792700	8.157774598600	1.174896301400
147	2	0.0	14.782068980100	2.526823703900	3.295673012000
148	2	0.0	17.173751042700	6.706839537400	3.282698952000
149	1	0.0	15.851485115400	2.865135162200	2.084450869900
150	1	0.0	18.287559590500	7.084232458700	2.118716081500
151	1	0.0	18.229643982800	2.667765757300	3.928825654000
152	1	0.0	15.747808922300	7.026446578000	3.993288884000
153	1	0.0	12.025642632100	9.123802339700	5.804790033600
154	1	0.0	14.399828959700	13.376528122500	5.758053440600
155	2	0.0	12.572219936900	9.858530590400	4.452620862300
156	2	0.0	10.212956428200	14.136319940200	4.515209277500
157	2	0.0	12.345695985200	11.898518326600	2.763730341700
158	2	0.0	9.864583185600	16.148248040400	2.828708320300
159	2	0.0	13.485017094800	12.128886861600	5.267101801700
160	2	0.0	10.966063073500	16.517640703500	5.270110339800
161	2	0.0	10.402463033900	12.386117668900	1.120457771400
162	2	0.0	12.822894273000	16.626982326100	1.123759472700
163	2	0.0	9.891748862400	11.018690825600	3.314296722600
164	2	0.0	12.338707313500	15.289329137600	3.356620355700
165	1	0.0	10.938311673700	11.321544646400	2.063552138300
166	1	0.0	13.367133449100	15.583027244200	2.085088744700
167	1	0.0	13.303536575400	11.222659717900	3.926584864500
168	1	0.0	10.855446090900	15.533087372800	3.983481853300
169	1	0.0	16.988448144600	9.153382320000	5.789226761600
170	1	0.0	19.335852559800	13.387457627900	5.770710741300
171	2	0.0	17.629264267000	9.841514241100	4.467834728200
172	2	0.0	14.978941533000	14.064377634500	4.402748167500
173	2	0.0	17.259751551600	11.842893230800	2.758750577900
174	2	0.0	14.789802176400	16.130651505200	2.762137670100
175	2	0.0	18.316594641900	12.238800110200	5.237668041100
176	2	0.0	15.942508292800	16.324449477000	5.268821109400
177	2	0.0	15.308209343300	12.385700754400	1.120075087000
178	2	0.0	17.728983667300	16.687237629400	1.181928877800
179	2	0.0	14.788508197800	10.964381799400	3.287260616400
180	2	0.0	17.188133810600	15.132266576100	3.274125948700
181	1	0.0	15.847279173600	11.319542568000	2.059646874400
182	1	0.0	18.267291380000	15.607778278000	2.107478707400
183	1	0.0	18.243449544600	11.256403465700	3.942875647100
184	1	0.0	15.728351549400	15.434769726400	3.923650962600
185	2	0.0	11.113454174000	1.660929295200	6.782254985900
186	2	0.0	13.587377353000	5.869989155400	6.771272725400
187	2	0.0	12.733411861900	15.565535008000	8.937644364000
188	2	0.0	10.374446273000	2.932144567600	8.977224852200
189	2	0.0	12.414052636700	1.225066478100	9.084774193000
190	2	0.0	9.964814700600	5.501948730100	9.061928101300
191	2	0.0	10.809885054100	4.438622353000	6.774169186100
192	2	0.0	13.293799354700	8.638416483200	6.716313857100
193	2	0.0	9.977345361900	17.253347948700	8.831802292000
194	2	0.0	12.466362187900	4.529879887700	8.835002763200
195	1	0.0	10.958321856900	1.534563064900	8.417997603700
196	1	0.0	13.445225689800	5.753186835600	8.404928551700
197	1	0.0	13.310720463600	16.994918310900	8.416690526400
198	1	0.0	10.915347916500	4.358438213300	8.408563508500
199	2	0.0	15.940627612900	1.519039330000	6.734640761600
200	2	0.0	18.393411669900	5.730613308100	6.708736769400
201	2	0.0	17.705463030800	15.584183585200	8.959640658600
202	2	0.0	15.209369800200	2.851452239400	8.918333963700
203	2	0.0	17.289745754500	1.215070420200	9.032495838400
204	2	0.0	14.906128719300	5.462687137100	9.061287024500
205	2	0.0	15.672561643200	4.303802966000	6.766342057800
206	2	0.0	18.194297730100	8.583263532000	6.732107894800
207	2	0.0	14.865114108200	17.169383147700	8.833955557200
208	2	0.0	17.347966841800	4.449704767000	8.830572150500
209	1	0.0	15.817809972800	1.455495110300	8.375627536500
210	1	0.0	18.290796436300	5.688772751400	8.354484338200
211	1	0.0	18.234221740800	17.010606714800	8.385144081200
212	1	0.0	15.796579878100	4.274969046100	8.400593815800
213	2	0.0	11.094313851700	10.019059403700	6.807946384700
214	2	0.0	13.444322951800	14.308724655700	6.708825884100
215	2	0.0	12.887538369300	7.162074179900	8.939121665600
216	2	0.0	10.241809550800	11.348231163000	8.860495255100
217	2	0.0	12.526486699100	9.723764806800	9.032504910800
218	2	0.0	9.954986731200	13.961622018200	9.029907348000
219	2	0.0	10.662661444300	12.785657498200	6.720441264000
220	2	0.0	13.185894365800	17.037747389100	6.782577409200
221	2	0.0	10.055681294600	8.670049501200	8.852692680400
222	2	0.0	12.390533925800	12.929053772100	8.737237432000
223	1	0.0	11.008994052300	9.937414524600	8.472450762800
224	1	0.0	13.340886279400	14.187697167600	8.348939325700
225	1	0.0	13.440541588200	8.572752925900	8.347928158500
226	1	0.0	10.836773743700	12.785690161400	8.343004351900
227	2	0.0	16.116646754700	10.143416550500	6.752757394200
228	2	0.0	18.447546905500	14.353936093300	6.745550469900
229	2	0.0	17.711803293900	7.095993043400	8.901463821100
230	2	0.0	15.279944336800	11.353511703500	8.911123309200
231	2	0.0	17.418571939200	9.710883423000	9.042762738500
232	2	0.0	14.802694085800	13.920284290700	9.011470225400
233	2	0.0	15.643823406800	12.919132743400	6.710918443800
234	2	0.0	18.119578238200	17.054448391800	6.747826844800
235	2	0.0	15.000039337700	8.720309124300	8.755265405800
236	2	0.0	17.322715844800	12.966556969600	8.760516652500
237	1	0.0	15.950861382600	9.984680913800	8.381340777000
238	1	0.0	18.304677532400	14.201614081900	8.377999801300
239	1	0.0	18.308164780800	8.518132519600	8.371537393400
240	1	0.0	15.769093631700	12.797549120600	8.341542533200
241	3	0.0	0.188450210000	4.021394260000	0.502985620000
242	3	0.0	5.094200220000	4.021394260000	0.502985620000
243	3	0.0	9.999950220000	4.021394260000	0.502985620000
244	3	0.0	14.905700220000	4.021394260000	0.502985620000
245	3	0.0	2.641325210000	8.258394260000	0.502985620000
246	3	0.0	7.547075210000	8.258394260000	0.502985620000
247	3	0.0	12.452825220000	8.258394260000	0.502985620000
248	3	0.0	17.358575210000	8.258394260000	0.502985620000
249	3	0.0	0.188450210000	12.495394260000	0.502985620000
250	3	0.0	5.094200220000	12.495394260000	0.502985620000
251	3	0.0	9.999950210000	12.495394260000	0.502985620000
252	3	0.0	14.905700220000	12.495394260000	0.502985620000
253	3	0.0	2.641325220000	16.732394260000	0.502985620000
254	3	0.0	7.547075210000	16.732394260000	0.502985620000
255	3	0.0	12.452825220000	16.732394260000	0.502985620000
256	3	0.0	17.358575210000	16.732394260000	0.502985620000
257	2	0.0	10.578445334500	10.694206206000	13.976430272300
