Atoms  # charge
 
         257  atoms
           3  atom types
 
      0.000000000000      19.623000000000  xlo xhi
      0.000000000000      16.948000000000  ylo yhi
      0.000000000000      22.000000000000  zlo zhi
 
Masses
 
            1   28.08500000             # Si
            2   15.99900000             # O
            3   1.00800000              # H
 
Atoms  # charge
 
1	1	0.0	2.217403080700	0.629436451900	5.788240001600
2	1	0.0	4.660346353500	4.852785469100	5.802083969100
3	2	0.0	2.799920038000	1.339439924200	4.450504276900
4	2	0.0	0.342041254500	5.564011251700	4.452959006300
5	2	0.0	2.456250736000	3.463429714200	2.902970564700
6	2	0.0	0.007092613600	7.685789526300	2.902452473100
7	2	0.0	3.753009431500	3.614064403300	5.276560345700
8	2	0.0	1.304467884700	7.862176543400	5.266557406800
9	2	0.0	0.645688197800	3.915979396800	1.121044696600
10	2	0.0	3.067288630600	8.214126137400	1.181554386200
11	2	0.0	0.026602137200	2.345775751000	3.198175870400
12	2	0.0	2.451626605200	6.628894851500	3.212951650500
13	1	0.0	1.145501963600	2.850552469600	2.082441266000
14	1	0.0	3.569546499700	7.111906714800	2.099222340500
15	1	0.0	3.499021015000	2.725431439400	3.944430747400
16	1	0.0	1.034730936000	6.952321478300	3.951506932000
17	1	0.0	7.072490700500	17.592264309100	5.808434401700
18	1	0.0	9.558909724300	4.873922511400	5.808757089300
19	2	0.0	7.662389140900	1.349211284300	4.467794839500
20	2	0.0	5.246220276700	5.576032563300	4.472238911200
21	2	0.0	7.368075405000	3.461097528500	2.908696386300
22	2	0.0	4.903626404600	7.689142231600	2.907354783300
23	2	0.0	8.656304480000	3.615313052100	5.312151099000
24	2	0.0	6.284759014500	7.869711350500	5.235182002900
25	2	0.0	5.555286914100	3.912229381800	1.121105263500
26	2	0.0	7.977275713700	8.087783607300	1.114227869100
27	2	0.0	4.912308248100	2.413336496400	3.203191772200
28	2	0.0	7.304898094100	6.555965386500	3.138376771000
29	1	0.0	6.059649390900	2.846168650400	2.079001615500
30	1	0.0	8.485661933400	7.039657104800	2.088867824200
31	1	0.0	8.391414420500	2.729258525100	3.975020905400
32	1	0.0	5.948404095600	6.948937539600	3.942673515600
33	1	0.0	2.261231431100	9.084067837100	5.744378279500
34	1	0.0	4.637416505200	13.321390502800	5.759692448800
35	2	0.0	2.869503584100	9.786192063100	4.403787455400
36	2	0.0	0.343346393000	14.072965757400	4.429787632700
37	2	0.0	2.591654210700	11.834353251800	2.745254799500
38	2	0.0	-0.032859499500	16.203619669700	2.922973167200
39	2	0.0	3.613376804000	12.154201078900	5.257419714800
40	2	0.0	1.301033044100	16.340601386700	5.275081893200
41	2	0.0	0.648950596400	12.384864454400	1.116469807400
42	2	0.0	3.072984360400	16.686343302500	1.121448382500
43	2	0.0	0.130124882900	11.035293595200	3.350717973300
44	2	0.0	2.422131248900	15.143777113700	3.167605929400
45	1	0.0	1.151362553400	11.319826465800	2.076669497400
46	1	0.0	3.575494047300	15.605686237200	2.065491324900
47	1	0.0	3.530294379600	11.204473700800	3.936264140600
48	1	0.0	1.027084946400	15.465738770100	3.936394217900
49	1	0.0	7.191341162900	9.103429635100	5.785354251200
50	1	0.0	9.472417288000	13.428255680200	5.754746678900
51	2	0.0	7.776700824500	9.862244255300	4.469213565900
52	2	0.0	5.285575633600	14.017011591200	4.435630936100
53	2	0.0	7.446417397500	11.900310805700	2.752550902600
54	2	0.0	4.873578336200	16.190589037600	2.939753413300
55	2	0.0	8.473650250600	12.278723772600	5.198886295800
56	2	0.0	6.135408169800	16.343608175600	5.337875959200
57	2	0.0	5.498235214500	12.387180356500	1.118918469700
58	2	0.0	7.974426331500	16.688114264300	1.180008349300
59	2	0.0	5.043080170900	10.994993898500	3.357830488100
60	2	0.0	7.368841755500	15.215699097300	3.282169803700
61	1	0.0	6.039817276300	11.344696660300	2.082940641000
62	1	0.0	8.476972012600	15.590290493100	2.102768015700
63	1	0.0	8.406861641000	11.265821849800	3.930277511600
64	1	0.0	5.917615673400	15.461279422300	3.984104304300
65	2	0.0	1.263074784200	1.549399018700	6.745577114900
66	2	0.0	3.687566435100	5.765316212900	6.750033487900
67	2	0.0	2.987234683400	15.584726158200	8.899352410400
68	2	0.0	0.531047649000	2.872132648300	8.902127704200
69	2	0.0	2.597173911400	1.214605157800	9.047198383800
70	2	0.0	0.150711232200	5.471352626600	8.980657787300
71	2	0.0	1.001927936200	4.365364921600	6.721878345700
72	2	0.0	3.495331412100	8.574761144500	6.690211156700
73	2	0.0	0.159108443000	17.188575130600	8.816014262200
74	2	0.0	2.615354523200	4.490075921200	8.841892560400
75	1	0.0	1.131832814600	1.468617894900	8.381406240100
76	1	0.0	3.581457141900	5.715583689000	8.390617600600
77	1	0.0	3.539344106000	17.020522517400	8.378761598200
78	1	0.0	1.085537721500	4.299888356500	8.358570968100
79	2	0.0	6.131362769500	1.586706190400	6.759434877100
80	2	0.0	8.591469945100	5.799507870500	6.751598721200
81	2	0.0	7.894323582500	15.640187619600	8.966511621800
82	2	0.0	5.435476554300	2.899863939600	8.963852866100
83	2	0.0	7.506494914300	1.281692257400	9.048178219700
84	2	0.0	5.052750877700	5.476029073300	9.046365922500
85	2	0.0	5.897216164100	4.372414930700	6.757560884600
86	2	0.0	8.405591217900	8.596352363800	6.752398261300
87	2	0.0	5.076321545100	17.213048702800	8.831185725600
88	2	0.0	7.529919773900	4.506632220900	8.833125683200
89	1	0.0	6.028879386800	1.508714276100	8.400291909600
90	1	0.0	8.492247901900	5.737871560000	8.393255461500
91	1	0.0	8.434452251100	17.068701295500	8.393923946300
92	1	0.0	5.989024699100	4.319825983400	8.395891252900
93	2	0.0	1.307614207000	10.021863372100	6.686958139400
94	2	0.0	3.747336231200	14.314022255500	6.705822453100
95	2	0.0	2.991350905500	7.129649951800	8.897585079800
96	2	0.0	0.541446793800	11.308445391400	8.863311401300
97	2	0.0	2.675218351100	9.719906256900	8.967605256400
98	2	0.0	0.144629283500	13.904011088200	9.006626997100
99	2	0.0	0.921618293700	12.809152424300	6.687776513400
100	2	0.0	3.451103046700	17.100483047700	6.745103821400
101	2	0.0	0.258041734300	8.668657008700	8.778329135100
102	2	0.0	2.613298792000	12.956045332200	8.742667354600
103	1	0.0	1.188608750100	9.928548497800	8.328372894900
104	1	0.0	3.586056956200	14.194280257300	8.339241379500
105	1	0.0	3.593288492400	8.533769754200	8.333211814400
106	1	0.0	1.064356201500	12.751209856400	8.321092647300
107	2	0.0	6.239594487700	10.020202223400	6.749602851600
108	2	0.0	8.584612383300	14.383288582600	6.742946038000
109	2	0.0	7.896618512300	7.138146881300	8.929365392900
110	2	0.0	5.501224384200	11.315648424200	8.949182005300
111	2	0.0	7.586436981800	9.713321698800	9.043357347500
112	2	0.0	5.050853792100	13.926671759000	9.004827868400
113	2	0.0	5.826470370000	12.743822937700	6.722996682900
114	2	0.0	8.319435004600	17.133251768800	6.759770836500
115	2	0.0	5.140642724600	8.682132626100	8.784665209700
116	2	0.0	7.520096432400	12.999438843600	8.781513877900
117	1	0.0	6.111575048000	9.929535712900	8.388446972500
118	1	0.0	8.467814498800	14.252193880800	8.380183784500
119	1	0.0	8.517793822800	8.544351497300	8.393405714800
120	1	0.0	5.977112937600	12.753204049800	8.359600279500
121	1	0.0	12.010232143800	0.683806310500	5.816299854300
122	1	0.0	14.488054997600	4.889349489600	5.806849988800
123	2	0.0	12.715394540600	1.346870814400	4.509616316300
124	2	0.0	10.151552608000	5.574207276100	4.471106292400
125	2	0.0	12.278218951600	3.406415998400	2.897973262800
126	2	0.0	9.743522058700	7.689098977400	2.972225832700
127	2	0.0	13.490690127000	3.724567081400	5.275070004800
128	2	0.0	11.117516885700	7.874414215600	5.306036456500
129	2	0.0	10.399484366900	3.908684401100	1.183545978400
130	2	0.0	12.881593436700	8.089399080900	1.117229019900
131	2	0.0	9.825269568900	2.409468573000	3.272228875900
132	2	0.0	12.228153167400	6.636334515800	3.206778949600
133	1	0.0	10.940972367100	2.828100179600	2.106481366900
134	1	0.0	13.389873934500	7.040946931500	2.091690835300
135	1	0.0	13.326058009900	2.762450094800	3.981034309900
136	1	0.0	10.835366946900	6.974487217300	3.980317403000
137	1	0.0	16.895465225800	17.539077379800	5.765264420100
138	1	0.0	19.379607470800	4.817842413500	5.768154893900
139	2	0.0	17.508575747100	1.287035252700	4.425648199400
140	2	0.0	15.131249828300	5.604256373800	4.505321322600
141	2	0.0	17.240436626100	3.422614459600	2.831882400700
142	2	0.0	14.679783657500	7.687094834800	2.934135588200
143	2	0.0	18.504840436500	3.543575999300	5.265146688700
144	2	0.0	15.981725651600	7.976854771100	5.274066443600
145	2	0.0	15.309345314100	3.913183388500	1.125859710900
146	2	0.0	17.773654792700	8.157774598600	1.174896301400
147	2	0.0	14.782293916800	2.516800615000	3.293695813800
148	2	0.0	17.176901340500	6.703829241000	3.281311877700
149	1	0.0	15.851485115400	2.865135162200	2.084450869900
150	1	0.0	18.287559590500	7.084232458700	2.118716081500
151	1	0.0	18.224655280700	2.669846569600	3.922994788500
152	1	0.0	15.747444819500	7.018055061300	3.986098093000
153	1	0.0	12.031485229300	9.125928694700	5.820712495200
154	1	0.0	14.406170406100	13.371960017500	5.750511078100
155	2	0.0	12.572230344800	9.859066374500	4.464150148700
156	2	0.0	10.187555140300	14.142836460000	4.489869782100
157	2	0.0	12.346766118400	11.896995823100	2.764971147900
158	2	0.0	9.862105079100	16.161822579900	2.826423983200
159	2	0.0	13.484995168200	12.128459491200	5.265711271200
160	2	0.0	10.966245253000	16.510128775000	5.270759375100
161	2	0.0	10.402463033900	12.386117668900	1.120457771400
162	2	0.0	12.822894273000	16.626982326100	1.123759472700
163	2	0.0	9.893745718000	11.030701827000	3.323125868800
164	2	0.0	12.337369341500	15.289580327900	3.356490425200
165	1	0.0	10.938311673700	11.321544646400	2.063552138300
166	1	0.0	13.367133449100	15.583027244200	2.085088744700
167	1	0.0	13.303201241300	11.218238803000	3.927463842500
168	1	0.0	10.851101884400	15.537260063200	3.975784333100
169	1	0.0	16.997017495100	9.138345261300	5.781594501900
170	1	0.0	19.332953229500	13.382012922000	5.753025077400
171	2	0.0	17.629015329800	9.827737700900	4.455763356000
172	2	0.0	14.989608648300	14.052439447400	4.392569995000
173	2	0.0	17.260069378500	11.840550294500	2.757157290400
174	2	0.0	14.790520059200	16.129575415100	2.762584565000
175	2	0.0	18.317343302900	12.227458514000	5.227768666700
176	2	0.0	15.943515474000	16.314222148900	5.268571199000
177	2	0.0	15.308209343300	12.385700754400	1.120075087000
178	2	0.0	17.728983667300	16.687237629400	1.181928877800
179	2	0.0	14.788416988400	10.954819600100	3.286092754200
180	2	0.0	17.193201486200	15.132647752900	3.275269675500
181	1	0.0	15.847279173600	11.319542568000	2.059646874400
182	1	0.0	18.267291380000	15.607778278000	2.107478707400
183	1	0.0	18.243348747700	11.243898593900	3.936143955000
184	1	0.0	15.730305417500	15.429734884200	3.920186648300
185	2	0.0	11.114729062800	1.660728437100	6.774887813100
186	2	0.0	13.598326606400	5.869260384700	6.760950706300
187	2	0.0	12.736699769000	15.556027468300	8.935706213400
188	2	0.0	10.384473260200	2.933704766400	8.967653742700
189	2	0.0	12.414949419100	1.219467709600	9.083434780700
190	2	0.0	9.965892860000	5.502213691600	9.048999895200
191	2	0.0	10.811299000800	4.438068379500	6.762714944000
192	2	0.0	13.306259482600	8.627798446800	6.716338251800
193	2	0.0	9.979210901600	17.254455922200	8.820873937300
194	2	0.0	12.471732402300	4.529836358700	8.821892214800
195	1	0.0	10.963010790600	1.534630452500	8.410811429100
196	1	0.0	13.455284665500	5.750480568000	8.395056987600
197	1	0.0	13.310888778400	16.988951387300	8.414168036500
198	1	0.0	10.919998073600	4.360703222400	8.396643508800
199	2	0.0	15.940003488700	1.517346008800	6.716662981900
200	2	0.0	18.392760422400	5.732639913200	6.697304540300
201	2	0.0	17.705082253200	15.586300785700	8.933364416900
202	2	0.0	15.219721058400	2.849133381500	8.904760851500
203	2	0.0	17.295714160500	1.215178604500	9.008769118700
204	2	0.0	14.915845036400	5.454440668200	9.049429608400
205	2	0.0	15.683818979600	4.303883616600	6.751348677300
206	2	0.0	18.207626444400	8.582363965000	6.726776253700
207	2	0.0	14.866949172600	17.168449285700	8.822170862600
208	2	0.0	17.358083625700	4.448099883400	8.818136031200
209	1	0.0	15.820570476400	1.452172271100	8.358349999200
210	1	0.0	18.293600090000	5.691528508100	8.342691036500
211	1	0.0	18.239988129400	17.011804180300	8.361729354900
212	1	0.0	15.807651973600	4.271055978400	8.385754083200
213	2	0.0	11.120471858000	10.020922839100	6.839656831800
214	2	0.0	13.456583604500	14.309526992100	6.702769713300
215	2	0.0	12.901717597600	7.157842228800	8.938528448900
216	2	0.0	10.188284039100	11.371543313500	8.791386718300
217	2	0.0	12.554863445100	9.718527772700	9.044243868700
218	2	0.0	9.954876521000	13.977627514100	9.003928302500
219	2	0.0	10.662309044500	12.809555715800	6.684538660600
220	2	0.0	13.184954873200	17.035036451200	6.780631566700
221	2	0.0	10.062519602000	8.667657543100	8.852649418600
222	2	0.0	12.382262709700	12.920177383900	8.711705266300
223	1	0.0	11.027203850000	9.939293265100	8.510142379200
224	1	0.0	13.344553470500	14.180184175100	8.341226611900
225	1	0.0	13.458317977800	8.566977469000	8.347220937400
226	1	0.0	10.832382140700	12.809680383700	8.303392640000
227	2	0.0	16.127415375800	10.132562937700	6.741565022500
228	2	0.0	18.435987708600	14.344844976100	6.722690733600
229	2	0.0	17.713113925800	7.097212078700	8.890475757400
230	2	0.0	15.290324147800	11.342157266400	8.900272920700
231	2	0.0	17.432117921000	9.712126215800	9.034274047700
232	2	0.0	14.801064059100	13.905328575200	9.010617129100
233	2	0.0	15.645484310400	12.908353504600	6.705027977800
234	2	0.0	18.131057248700	17.064732298900	6.723551072400
235	2	0.0	15.022018477700	8.706953332700	8.743844650700
236	2	0.0	17.324693682300	12.966844098200	8.749556433800
237	1	0.0	15.964710721100	9.976185078400	8.370108451900
238	1	0.0	18.302418270900	14.201502555800	8.356475350500
239	1	0.0	18.319270357300	8.517026692800	8.366010390700
240	1	0.0	15.771922394700	12.788683850900	8.334763059900
241	3	0.0	0.188450210000	4.021394260000	0.502985620000
242	3	0.0	5.094200220000	4.021394260000	0.502985620000
243	3	0.0	9.999950220000	4.021394260000	0.502985620000
244	3	0.0	14.905700220000	4.021394260000	0.502985620000
245	3	0.0	2.641325210000	8.258394260000	0.502985620000
246	3	0.0	7.547075210000	8.258394260000	0.502985620000
247	3	0.0	12.452825220000	8.258394260000	0.502985620000
248	3	0.0	17.358575210000	8.258394260000	0.502985620000
249	3	0.0	0.188450210000	12.495394260000	0.502985620000
250	3	0.0	5.094200220000	12.495394260000	0.502985620000
251	3	0.0	9.999950210000	12.495394260000	0.502985620000
252	3	0.0	14.905700220000	12.495394260000	0.502985620000
253	3	0.0	2.641325220000	16.732394260000	0.502985620000
254	3	0.0	7.547075210000	16.732394260000	0.502985620000
255	3	0.0	12.452825220000	16.732394260000	0.502985620000
256	3	0.0	17.358575210000	16.732394260000	0.502985620000
257	2	0.0	10.597794644000	10.770259046100	12.964645408500
