256
Lattice="19.6230000000 0.0000000000 0.0000000000 0.0000000000 16.9480000000 0.0000000000 0.0000000000 0.0000000000 22.0000000000" Properties=species:S:1:pos:R:3 pbc="T T T"
Si       2.2423713300    0.5856304900    5.6965025500
Si       4.6875883900    4.8065044800    5.7225104600
O        2.8228340800    1.2736146000    4.3461950700
O        0.3103149100    5.5008842300    4.3486336500
O        2.4576092100    3.4659233100    2.9037174900
O        0.0015044200    7.6837231000    2.9040526000
O        3.7590745100    3.5446670700    5.2815187100
O        1.3023891500    7.7615555300    5.2804047900
O        0.6456882000    3.9159794000    1.1210447000
O        3.0672886300    8.2141261400    1.1815543900
O        0.0049284500    2.4092520800    3.2020586600
O        2.4533554100    6.6261499500    3.2089984900
Si       1.1455019600    2.8505524700    2.0824412700
Si       3.5695465000    7.1119067100    2.0992223400
Si       3.4969747900    2.6971937600    3.9192388600
Si       1.0245849700    6.9080107600    3.9282983000
Si       7.1130052900    0.5949875900    5.7172029700
Si       9.5926956000    4.8068389500    5.7309183800
O        7.6669234600    1.2847097200    4.3555475000
O        5.2181186200    5.5012937000    4.3529830900
O        7.3695905100    3.4644395200    2.9081061700
O        4.9069801200    7.6851554200    2.9036365600
O        8.6562384800    3.5364925000    5.3291836000
O        6.2120899300    7.7702299200    5.2749383900
O        5.5552869100    3.9122293800    1.1211052600
O        7.9772757100    8.0877836100    1.1142278700
O        4.9204191100    2.4116967700    3.1978099100
O        7.3564389100    6.6222756400    3.2102007600
Si       6.0596493900    2.8461686500    2.0790016200
Si       8.4856619300    7.0396571000    2.0888678200
Si       8.3880334000    2.6987828400    3.9527928100
Si       5.9294218100    6.9093813900    3.9272964500
Si       2.2282409200    9.0311563700    5.7003463300
Si       4.6832329300   13.2781175200    5.7040248200
O        2.7690862200    9.7272690200    4.3387540900
O        0.3081879300   14.0081771700    4.3395401500
O        2.4626722900   11.9131004800    2.9026560800
O        0.0097334200   16.1966141000    2.8407775700
O        3.7679940300   11.9942756500    5.2777309200
O        1.3039539400   16.2717796200    5.2734305100
O        0.6489506000   12.3848644500    1.1164698100
O        3.0729843600   16.6863433000    1.1214483800
O        0.0153634300   10.8539415600    3.1868340500
O        2.4546119900   15.1413753800    3.1964038700
Si       1.1513625500   11.3198264700    2.0766695000
Si       3.5754940500   15.6056862400    2.0654913200
Si       3.4903925500   11.1365438600    3.9234054100
Si       1.0235282400   15.4178348900    3.9178585800
Si       7.1348363200    9.0483975300    5.6879493400
Si       9.5844781200   13.3160052100    5.7163612800
O        7.6649478700    9.7861799000    4.3452569900
O        5.2118298200   14.0056267800    4.3502649800
O        7.3562765900   11.9724306900    2.8993595100
O        4.9008846000   16.1940387200    2.8960039800
O        8.6617261700   12.0506195000    5.2731870100
O        6.1993718300   16.2719492000    5.2791428900
O        5.4982352100   12.3871803600    1.1189184700
O        7.9744263300   16.6881142600    1.1800083500
O        4.9168501900   10.8519114600    3.1985079700
O        7.3532008600   15.1333199900    3.2139733500
Si       6.0398172800   11.3446966600    2.0829406400
Si       8.4769720100   15.5902904900    2.1027680200
Si       8.3909330200   11.1885099300    3.9178659300
Si       5.9187772300   15.4185725200    3.9256551800
O        1.3042060900    1.5768075000    6.6008676100
O        3.7620111400    5.7948988000    6.6404833600
O        3.0607395700   15.6046867500    8.7937140800
O        0.6009238500    2.9137340800    8.7932209900
O        2.6772912300    1.2762677800    8.8712726100
O        0.2205525200    5.5060446600    8.9286604100
O        1.0573227200    4.3808521300    6.6355283000
O        3.5163613000    8.5941747900    6.6068570600
O        0.2325316900    0.2961854700    8.7063171800
O        2.6913502900    4.5186394500    8.7194895900
Si       1.1952675300    1.5192147600    8.2420949500
Si       3.6575063500    5.7443186300    8.2792737300
Si       3.6063752200    0.0921721900    8.2592170400
Si       1.1522537800    4.3452837400    8.2719529500
O        6.2040896400    1.5844434100    6.6482126600
O        8.6652440500    5.7931354100    6.6498292900
O        7.9708150600   15.6081374000    8.8544682200
O        5.5138216700    2.9191836400    8.8532139800
O        7.5815994000    1.2747772600    8.9338213400
O        5.1291880800    5.5051288700    8.9326245500
O        5.9668202700    4.3751751400    6.6518339100
O        8.4234844300    8.5959788300    6.5891449600
O        5.1407107600    0.2923957300    8.7185030900
O        7.5967557200    4.5242124200    8.7733422800
Si       6.1045779100    1.5252476400    8.2904377700
Si       8.5604565500    5.7413332300    8.2908422400
Si       8.4985735100    0.0951728900    8.2884900100
Si       6.0645089700    4.3404606400    8.2941824500
O        1.3027999300   10.0166373100    6.6188241100
O        3.7550302900   14.2418770700    6.6404148300
O        3.0537073500    7.1453757700    8.7957292800
O        0.6038460400   11.3693268000    8.7833283900
O        2.6798316500    9.7284797500    8.8735899900
O        0.2287741400   13.9531449700    8.8757917300
O        1.0697691800   12.8676995800    6.5940455900
O        3.5141244200    0.1464549400    6.6255370700
O        0.2352140100    8.7369157000    8.7130936700
O        2.6921601400   12.9632053800    8.7122047600
Si       1.1952122000    9.9657235700    8.2566084500
Si       3.6566983700   14.1970722400    8.2788784800
Si       3.6132397900    8.5621902500    8.2437054200
Si       1.1607355500   12.7919812600    8.2319918600
O        6.2070899300   10.0198912200    6.6189621700
O        8.6664277800   14.3018128900    6.6494376200
O        7.9602806800    7.1489907400    8.7926525600
O        5.5105127200   11.3671445800    8.7898201300
O        7.5900659400    9.7275309200    8.8684659700
O        5.1283922600   13.9463590000    8.9321213200
O        5.9709068800   12.8750324400    6.6304480400
O        8.3695777100    0.1453077400    6.6537802800
O        5.1464230400    8.7405404000    8.7106919800
O        7.6046813700   12.9694268400    8.7138654200
Si       6.1063435600    9.9685719200    8.2552012300
Si       8.5628226600   14.2141920800    8.2918104400
Si       8.5203223700    8.5616666200    8.2286994100
Si       6.0649482500   12.7980522900    8.2650347400
Si      12.0445152000    0.5961362000    5.7175800600
Si      14.4918112000    4.8077044200    5.7221919800
O       12.6300306100    1.2722694400    4.3584674700
O       10.1202704800    5.4986084600    4.3570787100
O       12.2676435600    3.4614648200    2.9039403800
O        9.8055119800    7.6776382500    2.8971364200
O       13.5681421000    3.5440953300    5.2828163000
O       11.1172948100    7.7695500600    5.2725289900
O       10.3994843700    3.9086844000    1.1835459800
O       12.8815934400    8.0893990800    1.1172290200
O        9.8315377200    2.4097764500    3.2695849000
O       12.2613957000    6.6218662700    3.2117511900
Si      10.9409723700    2.8281001800    2.1064813700
Si      13.3898739300    7.0409469300    2.0916908400
Si      13.3005388600    2.6961768300    3.9228816300
Si      10.8301294900    6.9082765600    3.9244528700
Si      16.9108055800    0.5966081600    5.7116379200
Si      19.3966719500    4.8083499700    5.7162685300
O       17.4785125000    1.2827502200    4.3506125900
O       15.0269736900    5.5004673100    4.3532426700
O       17.1721899900    3.4679941600    2.8992925300
O       14.7117764000    7.6802981800    2.8981524500
O       18.4721125400    3.5424677400    5.2798847500
O       16.0226098800    7.7652727000    5.2771837600
O       15.3093453100    3.9131833900    1.1258597100
O       17.7736547900    8.1577746000    1.1748963000
O       14.7281168600    2.4098755200    3.2036977300
O       17.1653024900    6.6192789600    3.2176061700
Si      15.8514851200    2.8651351600    2.0844508700
Si      18.2875595900    7.0842324600    2.1187160800
Si      18.1993040900    2.6890072800    3.9229874700
Si      15.7317078100    6.9115651600    3.9276585000
Si      12.0403738800    9.0488115900    5.6825279700
Si      14.4874598500   13.3151791500    5.7155308000
O       12.5737072900    9.7874158500    4.3419005800
O       10.1211630000   14.0137896700    4.3519268000
O       12.2506808200   11.9685932000    2.8930785300
O        9.8100569700   16.1934548000    2.9028266700
O       13.5632367900   12.0514456400    5.2759447600
O       11.1140312100   16.2793721700    5.2814052900
O       10.4024630300   12.3861176700    1.1204577700
O       12.8228942700   16.6269823300    1.1237594700
O        9.8126310400   10.8608383400    3.1990639200
O       12.2609775300   15.1352925700    3.2129244500
Si      10.9383116700   11.3215446500    2.0635521400
Si      13.3671334500   15.5830272400    2.0850887400
Si      13.2849215000   11.1996298700    3.9147471800
Si      10.8311327100   15.4236850400    3.9304257700
Si      16.9601683800    9.0303050900    5.6931972500
Si      19.3951760800   13.2795782600    5.6876844800
O       17.5435446900    9.7143947800    4.3429798300
O       15.0243790200   14.0128658700    4.3505443100
O       17.1721872500   11.9073031700    2.8948079000
O       14.7041431200   16.1918794200    2.8824987300
O       18.4817657400   11.9951696400    5.2694826500
O       15.9552056800   16.2972721100    5.2781430200
O       15.3082093400   12.3857007500    1.1200750900
O       17.7289836700   16.6872376300    1.1819288800
O       14.7190722900   10.9166788900    3.2053496800
O       17.1600655100   15.1388285000    3.2280670200
Si      15.8472791700   11.3195425700    2.0596468700
Si      18.2672913800   15.6077782800    2.1074787100
Si      18.2104274800   11.1410253200    3.9093268200
Si      15.7183298000   15.4276781800    3.9253452500
O       11.1177744500    1.5807965000    6.6433465300
O       13.5686836900    5.7905016900    6.6480614500
O       12.8762062300   15.6087743200    8.8536271000
O       10.4199318600    2.9165928200    8.8509819600
O       12.4873560200    1.2731932400    8.9320147700
O       10.0367901900    5.5044926300    8.9345437400
O       10.8762515600    4.3761936800    6.6537700500
O       13.3286021000    8.5954545900    6.5861192900
O       10.0441664600    0.2932731100    8.7144951800
O       12.5034129500    4.5238588300    8.7741984100
Si      11.0107223200    1.5230930800    8.2857221200
Si      13.4657885700    5.7411499000    8.2902917400
Si      13.4093171600    0.0948689300    8.2906967700
Si      10.9707202400    4.3397406800    8.2958285400
O       16.0143679900    1.5880411300    6.6495460600
O       18.4767335900    5.7961940900    6.6403250900
O       17.7775634400   15.6008068300    8.7949680600
O       15.3252494200    2.9189000700    8.8534704800
O       17.3943611500    1.2706837300    8.9312907400
O       14.9433172400    5.5038718700    8.9326340000
O       15.7718388100    4.3741832100    6.6455197200
O       18.2323598700    8.5914067300    6.6215902500
O       14.9528100000    0.2925706200    8.7211290500
O       17.4116205700    4.5153624000    8.7204016200
Si      15.9156457200    1.5242246100    8.2914384800
Si      18.3663777400    5.7480502200    8.2798474800
Si      18.3112343000    0.0968064300    8.2727591800
Si      15.8699245100    4.3383057300    8.2844508800
O       11.1127682800   10.0210473500    6.6130669000
O       13.5715485000   14.3025485300    6.6493932900
O       12.8672453900    7.1492969600    8.7917696100
O       10.4166023600   11.3663675300    8.7890078100
O       12.4951712100    9.7271065400    8.8665336700
O       10.0357657900   13.9476011200    8.9348719100
O       10.8688964400   12.8801586100    6.6331325400
O       13.3078228600    0.1483154700    6.6532524600
O       10.0515413200    8.7406228800    8.7065225100
O       12.5096608300   12.9690542000    8.7134907200
Si      11.0117298700    9.9685250600    8.2501999400
Si      13.4672152700   14.2139964100    8.2913054200
Si      13.4255530600    8.5621705900    8.2255121700
Si      10.9687093600   12.7986083800    8.2669451000
O       16.0223648300   10.0215570000    6.5950731000
O       18.4671089100   14.2435730100    6.6233342600
O       17.7301137100    7.1419089400    8.7930084800
O       15.3201412500   11.3654173900    8.7853542900
O       17.3948313300    9.7348315400    8.8720091700
O       14.9403479400   13.9479621600    8.9350219600
O       15.7729940500   12.8803290700    6.6324697600
O       18.1753647400    0.1462730300    6.6397914100
O       14.9582774000    8.7425224200    8.7014531400
O       17.4126512800   12.9658592200    8.7149456100
Si      15.9155421500    9.9712869700    8.2375457600
Si      18.3686889000   14.1990994700    8.2600622200
Si      18.3200248400    8.5572767800    8.2554697900
Si      15.8718656500   12.7988119700    8.2665989900
H        0.1884502100    4.0213942600    0.5029856200
H        5.0942002200    4.0213942600    0.5029856200
H        9.9999502200    4.0213942600    0.5029856200
H       14.9057002200    4.0213942600    0.5029856200
H        2.6413252100    8.2583942600    0.5029856200
H        7.5470752100    8.2583942600    0.5029856200
H       12.4528252200    8.2583942600    0.5029856200
H       17.3585752100    8.2583942600    0.5029856200
H        0.1884502100   12.4953942600    0.5029856200
H        5.0942002200   12.4953942600    0.5029856200
H        9.9999502100   12.4953942600    0.5029856200
H       14.9057002200   12.4953942600    0.5029856200
H        2.6413252200   16.7323942600    0.5029856200
H        7.5470752100   16.7323942600    0.5029856200
H       12.4528252200   16.7323942600    0.5029856200
H       17.3585752100   16.7323942600    0.5029856200
256
Lattice="19.6230000000 0.0000000000 0.0000000000 0.0000000000 16.9480000000 0.0000000000 0.0000000000 0.0000000000 22.0000000000" Properties=species:S:1:pos:R:3 pbc="T T T"
Si       2.2297805283    0.6019516950    5.7004234650
Si       4.6811188433    4.8196191450    5.7323766783
O        2.8114512367    1.2865217650    4.3475921367
O        0.3099436433    5.5018343283    4.3500111817
O        2.4573272617    3.4724543117    2.9011744117
O        0.0017063300    7.6830424717    2.9033520317
O        3.7587575783    3.5568950217    5.2798387717
O        1.3030599667    7.7640794483    5.2805412567
O        0.6456882000    3.9159794000    1.1210447000
O        3.0672886300    8.2141261400    1.1815543900
O        0.0045393667    2.4070925617    3.2011472817
O        2.4531948250    6.6260637533    3.2084791917
Si       1.1455019600    2.8505524700    2.0824412700
Si       3.5695465000    7.1119067100    2.0992223400
Si       3.4956962533    2.7060500017    3.9204590250
Si       1.0252439467    6.9084054500    3.9304407700
Si       7.1107111933    0.6042871383    5.7279677733
Si       9.5886964217    4.8291918483    5.7316749350
O        7.6667334650    1.2982956333    4.3682226317
O        5.2182713500    5.5182512700    4.3667932883
O        7.3763377133    3.4636605317    2.8962409717
O        4.9075485150    7.6857070067    2.9051402817
O        8.6547081717    3.5606419950    5.3161428233
O        6.2266189750    7.7825873750    5.2877183750
O        5.5552869100    3.9122293800    1.1211052600
O        7.9772757100    8.0877836100    1.1142278700
O        4.9193947850    2.4124477950    3.1984312933
O        7.3569909800    6.6339598983    3.2112708667
Si       6.0596493900    2.8461686500    2.0790016200
Si       8.4856619300    7.0396571000    2.0888678200
Si       8.3910225567    2.7058351117    3.9522631583
Si       5.9338929150    6.9248169517    3.9398127967
Si       2.2251773650    9.0340953950    5.7111165900
Si       4.6766090550   13.2871454750    5.7059039250
O        2.7798717383    9.7273849067    4.3521731750
O        0.3064019617   14.0182041600    4.3425886333
O        2.4742678283   11.9006397317    2.8906204483
O        0.0097334200   16.1966141000    2.8407775700
O        3.7638845750   12.0027358967    5.2760739583
O        1.3027661283   16.2822723850    5.2713040550
O        0.6489506000   12.3848644500    1.1164698100
O        3.0729843600   16.6863433000    1.1214483800
O        0.0226439283   10.8745318217    3.2022465500
O        2.4541903800   15.1418995417    3.1961046667
Si       1.1513625500   11.3198264700    2.0766695000
Si       3.5754940500   15.6056862400    2.0654913200
Si       3.4951936067   11.1356013750    3.9273061317
Si       1.0242292017   15.4247908900    3.9184256950
Si       7.1508895617    9.0581018600    5.7246881350
Si       9.5858645617   13.3049786383    5.7472895250
O        7.6795019800    9.7863597550    4.3726559367
O        5.2122077650   14.0086448117    4.3512087217
O        7.3685452933   11.9459877167    2.8873638617
O        4.9008883533   16.1931180933    2.8955451150
O        8.6403530400   12.0779797250    5.2639904117
O        6.1998904533   16.2825490717    5.2781445817
O        5.4982352100   12.3871803600    1.1189184700
O        7.9744263300   16.6881142600    1.1800083500
O        4.9240688383   10.8543029950    3.2011113517
O        7.3521733400   15.1326069167    3.2128545717
Si       6.0398172800   11.3446966600    2.0829406400
Si       8.4769720100   15.5902904900    2.1027680200
Si       8.3997076250   11.1856993633    3.9306004517
Si       5.9202196667   15.4224810283    3.9290604233
O        1.2801965100    1.5786020550    6.6071976617
O        3.7482881450    5.7959332367    6.6549144883
O        3.0480694500   15.6208481900    8.7983502333
O        0.5784619617    2.9263718600    8.7920693817
O        2.6533429967    1.2879402400    8.8820868283
O        0.2069878200    5.5184459633    8.9286333417
O        1.0498098517    4.3922148050    6.6400929650
O        3.5047495750    8.5954754700    6.6269641233
O        0.2052488800    0.3106965850    8.7184801450
O        2.6762630217    4.5303690633    8.7396512550
Si       1.1722240317    1.5283266400    8.2493365933
Si       3.6466408800    5.7529817550    8.2956029517
Si       3.5905869400    0.1109655083    8.2670350017
Si       1.1408080700    4.3565373883    8.2779521800
O        6.1937682383    1.5853348517    6.6591082233
O        8.6637578533    5.8167516817    6.6517545900
O        7.9691043783   15.6156397767    8.8656537167
O        5.5128660217    2.9328403583    8.8581183650
O        7.5695880817    1.2762621383    8.9472239100
O        5.1202635317    5.5155507450    8.9453711067
O        5.9570359733    4.3870412233    6.6625315350
O        8.4243737933    8.6198036867    6.6495048233
O        5.1241930900    0.3077228483    8.7307957167
O        7.5957675617    4.5463937783    8.7746382383
Si       6.0962497283    1.5340618633    8.3016546683
Si       8.5573142100    5.7713659233    8.2963262683
Si       8.4928306950    0.1021486817    8.3009878800
Si       6.0619882717    4.3563201083    8.3040930650
O        1.2898617000   10.0168530917    6.6228525517
O        3.7428627950   14.2558014383    6.6326034550
O        3.0438524417    7.1540914183    8.8174114883
O        0.5818355833   11.3818270767    8.7830263633
O        2.6550303683    9.7381147567    8.8848106800
O        0.2051399833   13.9626450650    8.8872184033
O        1.0570485500   12.8802539900    6.6018908267
O        3.5020914200    0.1720069683    6.6316070867
O        0.2062931800    8.7521554800    8.7221577150
O        2.6763700933   12.9849451700    8.7129867517
Si       1.1727069967    9.9746873000    8.2616277517
Si       3.6428701517   14.2158127850    8.2730680133
Si       3.5991832833    8.5739449567    8.2652973850
Si       1.1431460617   12.8065203767    8.2406765533
O        6.2046768783   10.0297023133    6.6384127067
O        8.6657117167   14.3049546667    6.6624402250
O        7.9581766033    7.1710929000    8.8168185117
O        5.4856895450   11.3849797817    8.7981212750
O        7.5725077200    9.7598344533    8.9058605833
O        5.1171344117   13.9686060217    8.9203379317
O        5.9592738517   12.8770297850    6.6329106683
O        8.3670362150    0.1568833500    6.6653634133
O        5.1301387417    8.7627271283    8.7357030617
O        7.5890942400   12.9810551167    8.7256683950
Si       6.0952852850    9.9861582633    8.2757081350
Si       8.5594906900   14.2184003883    8.3061530183
Si       8.5288291750    8.5991075167    8.2942639433
Si       6.0520196283   12.8104594100    8.2695393717
Si      12.0332509233    0.6084556983    5.7282404983
Si      14.4835820833    4.8232370250    5.7361639033
O       12.6204498000    1.2856658033    4.3695329750
O       10.1255761783    5.5104903133    4.3554197250
O       12.2672655283    3.4623833500    2.9037705733
O        9.8200349767    7.6667106833    2.8740172150
O       13.5646593200    3.5567443150    5.2915735017
O       11.1248319583    7.7763128467    5.2750198167
O       10.3994843700    3.9086844000    1.1835459800
O       12.8815934400    8.0893990800    1.1172290200
O        9.8274776817    2.3974161167    3.2590091733
O       12.2739840800    6.6190476083    3.2189713733
Si      10.9409723700    2.8281001800    2.1064813700
Si      13.3898739300    7.0409469300    2.0916908400
Si      13.2998440633    2.7050649283    3.9321847200
Si      10.8390458450    6.9200657167    3.9280826867
Si      16.8975830000    0.6092330850    5.7131321083
Si      19.3898345933    4.8141504067    5.7189525050
O       17.4670808250    1.2934785483    4.3502105550
O       15.0280340583    5.5016120900    4.3626066883
O       17.1756384383    3.4694161450    2.8896589217
O       14.7279663767    7.6564506050    2.8719859783
O       18.4721900967    3.5441714183    5.2785488817
O       16.0081327700    7.7797476533    5.2627935083
O       15.3093453100    3.9131833900    1.1258597100
O       17.7736547900    8.1577746000    1.1748963000
O       14.7264205800    2.4154414433    3.2061874633
O       17.1746283600    6.6091699967    3.2237269733
Si      15.8514851200    2.8651351600    2.0844508700
Si      18.2875595900    7.0842324600    2.1187160800
Si      18.1992674150    2.6930942983    3.9209614017
Si      15.7365992817    6.9050514417    3.9266874833
Si      11.9963454783    9.0930399183    5.7078260033
Si      14.4630603000   13.3278726950    5.7132096767
O       12.5944440850    9.7751524217    4.3570982467
O       10.1584082783   13.9992958383    4.3917103017
O       12.2670836767   11.9439949217    2.8688284483
O        9.8103478233   16.1695311400    2.9137225767
O       13.5502912700   12.0638645633    5.2609178033
O       11.1037889100   16.2911582017    5.2905057700
O       10.4024630300   12.3861176700    1.1204577700
O       12.8228942700   16.6269823300    1.1237594700
O        9.8225643317   10.8689915800    3.2041149817
O       12.2666048217   15.1363648000    3.2222173000
Si      10.9383116700   11.3215446500    2.0635521400
Si      13.3671334500   15.5830272400    2.0850887400
Si      13.2898270833   11.1865458200    3.9161360500
Si      10.8369723433   15.4146290267    3.9502903067
Si      16.9393077550    9.0438360533    5.6943748017
Si      19.3863707033   13.2947049767    5.6920881833
O       17.5329563417    9.7281257450    4.3463998583
O       15.0107083367   14.0267906950    4.3511142150
O       17.1772989900   11.9064879400    2.8827015567
O       14.7079108183   16.1915189667    2.8714543967
O       18.4672738467   12.0160826150    5.2678959367
O       15.9519480917   16.3048725700    5.2749252433
O       15.3082093400   12.3857007500    1.1200750900
O       17.7289836700   16.6872376300    1.1819288800
O       14.7282910667   10.9055383617    3.2060632250
O       17.1604020567   15.1398741033    3.2282248350
Si      15.8472791700   11.3195425700    2.0596468700
Si      18.2672913800   15.6077782800    2.1074787100
Si      18.2087964600   11.1509077700    3.9135926800
Si      15.7170692017   15.4325082500    3.9246962933
O       11.1060204967    1.5927276800    6.6535538583
O       13.5679574550    5.8154777517    6.6586432167
O       12.8499869983   15.6205686167    8.8541679767
O       10.4087463600    2.9346266600    8.8519048033
O       12.4777465417    1.2899827050    8.9433428317
O       10.0366736033    5.5269231133    8.9334436300
O       10.8660356717    4.3883404200    6.6545397633
O       13.2525363283    8.6503035517    6.6606015300
O       10.0368558033    0.3078173117    8.7276105333
O       12.5005958050    4.5362228283    8.7650218933
Si      11.0008719833    1.5386853817    8.2963848383
Si      13.4562363450    5.7670683083    8.3023632600
Si      13.3930761400    0.1050145033    8.3012830433
Si      10.9649437367    4.3568818017    8.2963691800
O       15.9893317633    1.5914882783    6.6484441883
O       18.4633428033    5.7970492667    6.6412787517
O       17.7528646067   15.6109648550    8.7948826767
O       15.3009180217    2.9239690283    8.8543280417
O       17.3694305033    1.2823619917    8.9319355833
O       14.9319197367    5.5158591533    8.9450267167
O       15.7610094817    4.3852744650    6.6586461883
O       18.2070315033    8.6031537067    6.6257167567
O       14.9387114783    0.2942234533    8.7302384617
O       17.3983451867    4.5186279283    8.7311188950
Si      15.8914671667    1.5301554400    8.2916291500
Si      18.3502830550    5.7523511317    8.2823155000
Si      18.2872790067    0.1078922933    8.2771097050
Si      15.8537631267    4.3460187350    8.2983071817
O       11.0308087883   10.0580390183    6.5627230917
O       13.5364565050   14.3035274400    6.6484264967
O       12.8437375583    7.1587273667    8.8253238633
O       10.4193591683   11.3793150467    8.9316346500
O       12.4742305933    9.7237686167    9.0184617233
O       10.0225407167   13.9473876983    8.9627138617
O       10.8259975117   12.8452400983    6.6945186583
O       13.2971735467    0.1613011817    6.6628216017
O       10.0266209700    8.7774323833    8.8413674633
O       12.4964679517   12.9699867200    8.7258743283
Si      10.9866355067    9.9794034567    8.6251666167
Si      13.4349304200   14.2209770000    8.2923234683
Si      13.3665479317    8.5975955750    8.2944038100
Si      10.9478373367   12.7712950767    8.3275722767
O       15.9923259300   10.0215892333    6.5973810017
O       18.4574394200   14.2575044983    6.6273823567
O       17.7134267600    7.1464555383    8.7927337517
O       15.2846035650   11.3812787933    8.7742333350
O       17.3596460533    9.7452200383    8.8720462250
O       14.9162646967   13.9707191650    8.9230668233
O       15.7507181367   12.8914732800    6.6248168233
O       18.1608425067    0.1596346200    6.6424956417
O       14.9173512433    8.7659289833    8.7254056067
O       17.3864484450   12.9755473783    8.7108601333
Si      15.8762563200    9.9795823933    8.2411776767
Si      18.3469738383   14.2081784200    8.2642108167
Si      18.2907196883    8.5694880800    8.2609412000
Si      15.8434893700   12.8134107767    8.2606423750
H        0.1884502100    4.0213942600    0.5029856200
H        5.0942002200    4.0213942600    0.5029856200
H        9.9999502200    4.0213942600    0.5029856200
H       14.9057002200    4.0213942600    0.5029856200
H        2.6413252100    8.2583942600    0.5029856200
H        7.5470752100    8.2583942600    0.5029856200
H       12.4528252200    8.2583942600    0.5029856200
H       17.3585752100    8.2583942600    0.5029856200
H        0.1884502100   12.4953942600    0.5029856200
H        5.0942002200   12.4953942600    0.5029856200
H        9.9999502100   12.4953942600    0.5029856200
H       14.9057002200   12.4953942600    0.5029856200
H        2.6413252200   16.7323942600    0.5029856200
H        7.5470752100   16.7323942600    0.5029856200
H       12.4528252200   16.7323942600    0.5029856200
H       17.3585752100   16.7323942600    0.5029856200
256
Lattice="19.6230000000 0.0000000000 0.0000000000 0.0000000000 16.9480000000 0.0000000000 0.0000000000 0.0000000000 22.0000000000" Properties=species:S:1:pos:R:3 pbc="T T T"
Si       2.2171897267    0.6182729000    5.7043443800
Si       4.6746492967    4.8327338100    5.7422428967
O        2.8000683933    1.2994289300    4.3489892033
O        0.3095723767    5.5027844267    4.3513887133
O        2.4570453133    3.4789853133    2.8986313333
O        0.0019082400    7.6823618433    2.9026514633
O        3.7584406467    3.5691229733    5.2781588333
O        1.3037307833    7.7666033667    5.2806777233
O        0.6456882000    3.9159794000    1.1210447000
O        3.0672886300    8.2141261400    1.1815543900
O        0.0041502833    2.4049330433    3.2002359033
O        2.4530342400    6.6259775567    3.2079598933
Si       1.1455019600    2.8505524700    2.0824412700
Si       3.5695465000    7.1119067100    2.0992223400
Si       3.4944177167    2.7149062433    3.9216791900
Si       1.0259029233    6.9088001400    3.9325832400
Si       7.1084170967    0.6135866867    5.7387325767
Si       9.5846972433    4.8515447467    5.7324314900
O        7.6665434700    1.3118815467    4.3808977633
O        5.2184240800    5.5352088400    4.3806034867
O        7.3830849167    3.4628815433    2.8843757733
O        4.9081169100    7.6862585933    2.9066440033
O        8.6531778633    3.5847914900    5.3031020467
O        6.2411480200    7.7949448300    5.3004983600
O        5.5552869100    3.9122293800    1.1211052600
O        7.9772757100    8.0877836100    1.1142278700
O        4.9183704600    2.4131988200    3.1990526767
O        7.3575430500    6.6456441567    3.2123409733
Si       6.0596493900    2.8461686500    2.0790016200
Si       8.4856619300    7.0396571000    2.0888678200
Si       8.3940117133    2.7128873833    3.9517335067
Si       5.9383640200    6.9402525133    3.9523291433
Si       2.2221138100    9.0370344200    5.7218868500
Si       4.6699851800   13.2961734300    5.7077830300
O        2.7906572567    9.7275007933    4.3655922600
O        0.3046159933   14.0282311500    4.3456371167
O        2.4858633667   11.8881789833    2.8785848167
O        0.0097334200   16.1966141000    2.8407775700
O        3.7597751200   12.0111961433    5.2744169967
O        1.3015783167   16.2927651500    5.2691776000
O        0.6489506000   12.3848644500    1.1164698100
O        3.0729843600   16.6863433000    1.1214483800
O        0.0299244267   10.8951220833    3.2176590500
O        2.4537687700   15.1424237033    3.1958054633
Si       1.1513625500   11.3198264700    2.0766695000
Si       3.5754940500   15.6056862400    2.0654913200
Si       3.4999946633   11.1346588900    3.9312068533
Si       1.0249301633   15.4317468900    3.9189928100
Si       7.1669428033    9.0678061900    5.7614269300
Si       9.5872510033   13.2939520667    5.7782177700
O        7.6940560900    9.7865396100    4.4000548833
O        5.2125857100   14.0116628433    4.3521524633
O        7.3808139967   11.9195447433    2.8753682133
O        4.9008921067   16.1921974667    2.8950862500
O        8.6189799100   12.1053399500    5.2547938133
O        6.2004090767   16.2931489433    5.2771462733
O        5.4982352100   12.3871803600    1.1189184700
O        7.9744263300   16.6881142600    1.1800083500
O        4.9312874867   10.8566945300    3.2037147333
O        7.3511458200   15.1318938433    3.2117357933
Si       6.0398172800   11.3446966600    2.0829406400
Si       8.4769720100   15.5902904900    2.1027680200
Si       8.4084822300   11.1828887967    3.9433349733
Si       5.9216621033   15.4263895367    3.9324656667
O        1.2561869300    1.5803966100    6.6135277133
O        3.7345651500    5.7969676733    6.6693456167
O        3.0353993300   15.6370096300    8.8029863867
O        0.5560000733    2.9390096400    8.7909177733
O        2.6293947633    1.2996127000    8.8929010467
O        0.1934231200    5.5308472667    8.9286062733
O        1.0422969833    4.4035774800    6.6446576300
O        3.4931378500    8.5967761500    6.6470711867
O        0.1779660700    0.3252077000    8.7306431100
O        2.6611757533    4.5420986767    8.7598129200
Si       1.1491805333    1.5374385200    8.2565782367
Si       3.6357754100    5.7616448800    8.3119321733
Si       3.5747986600    0.1297588267    8.2748529633
Si       1.1293623600    4.3677910367    8.2839514100
O        6.1834468367    1.5862262933    6.6700037867
O        8.6622716567    5.8403679533    6.6536798900
O        7.9673936967   15.6231421533    8.8768392133
O        5.5119103733    2.9464970767    8.8630227500
O        7.5575767633    1.2777470167    8.9606264800
O        5.1113389833    5.5259726200    8.9581176633
O        5.9472516767    4.3989073067    6.6732291600
O        8.4252631567    8.6436285433    6.7098646867
O        5.1076754200    0.3230499667    8.7430883433
O        7.5947794033    4.5685751367    8.7759341967
Si       6.0879215467    1.5428760867    8.3128715667
Si       8.5541718700    5.8013986167    8.3018102967
Si       8.4870878800    0.1091244733    8.3134857500
Si       6.0594675733    4.3721795767    8.3140036800
O        1.2769234700   10.0170688733    6.6268809933
O        3.7306953000   14.2697258067    6.6247920800
O        3.0339975333    7.1628070667    8.8390936967
O        0.5598251267   11.3943273533    8.7827243367
O        2.6302290867    9.7477497633    8.8960313700
O        0.1815058267   13.9721451600    8.8986450767
O        1.0443279200   12.8928084000    6.6097360633
O        3.4900584200    0.1975589967    6.6376771033
O        0.1773723500    8.7673952600    8.7312217600
O        2.6605800467   13.0066849600    8.7137687433
Si       1.1502017933    9.9836510300    8.2666470533
Si       3.6290419333   14.2345533300    8.2672575467
Si       3.5851267767    8.5856996633    8.2868893500
Si       1.1255565733   12.8210594933    8.2493612467
O        6.2022638267   10.0395134067    6.6578632433
O        8.6649956533   14.3080964433    6.6754428300
O        7.9560725267    7.1931950600    8.8409844633
O        5.4608663700   11.4028149833    8.8064224200
O        7.5549495000    9.7921379867    8.9432551967
O        5.1058765633   13.9908530433    8.9085545433
O        5.9476408233   12.8790271300    6.6353732967
O        8.3644947200    0.1684589600    6.6769465467
O        5.1138544433    8.7849138567    8.7607141433
O        7.5735071100   12.9926833933    8.7374713700
Si       6.0842270100   10.0037446067    8.2962150400
Si       8.5561587200   14.2226086967    8.3204955967
Si       8.5373359800    8.6365484133    8.3598284767
Si       6.0390910067   12.8228665300    8.2740440033
Si      12.0219866467    0.6207751967    5.7389009367
Si      14.4753529667    4.8387696300    5.7501358267
O       12.6108689900    1.2990621667    4.3805984800
O       10.1308818767    5.5223721667    4.3537607400
O       12.2668874967    3.4633018800    2.9036007667
O        9.8345579733    7.6557831167    2.8508980100
O       13.5611765400    3.5693933000    5.3003307033
O       11.1323691067    7.7830756333    5.2775106433
O       10.3994843700    3.9086844000    1.1835459800
O       12.8815934400    8.0893990800    1.1172290200
O        9.8234176433    2.3850557833    3.2484334467
O       12.2865724600    6.6162289467    3.2261915567
Si      10.9409723700    2.8281001800    2.1064813700
Si      13.3898739300    7.0409469300    2.0916908400
Si      13.2991492667    2.7139530267    3.9414878100
Si      10.8479622000    6.9318548733    3.9317125033
Si      16.8843604200    0.6218580100    5.7146262967
Si      19.3829972367    4.8199508433    5.7216364800
O       17.4556491500    1.3042068767    4.3498085200
O       15.0290944267    5.5027568700    4.3719707067
O       17.1790868867    3.4708381300    2.8800253133
O       14.7441563533    7.6326030300    2.8458195067
O       18.4722676533    3.5458750967    5.2772130133
O       15.9936556600    7.7942226067    5.2484032567
O       15.3093453100    3.9131833900    1.1258597100
O       17.7736547900    8.1577746000    1.1748963000
O       14.7247243000    2.4210073667    3.2086771967
O       17.1839542300    6.5990610333    3.2298477767
Si      15.8514851200    2.8651351600    2.0844508700
Si      18.2875595900    7.0842324600    2.1187160800
Si      18.1992307400    2.6971813167    3.9189353333
Si      15.7414907533    6.8985377233    3.9257164667
Si      11.9523170767    9.1372682467    5.7331240367
Si      14.4386607500   13.3405662400    5.7108885533
O       12.6151808800    9.7628889933    4.3722959133
O       10.1956535567   13.9848020067    4.4314938033
O       12.2834865333   11.9193966433    2.8445783667
O        9.8106386767   16.1456074800    2.9246184833
O       13.5373457500   12.0762834867    5.2458908467
O       11.0935466100   16.3029442333    5.2996062500
O       10.4024630300   12.3861176700    1.1204577700
O       12.8228942700   16.6269823300    1.1237594700
O        9.8324976233   10.8771448200    3.2091660433
O       12.2722321133   15.1374370300    3.2315101500
Si      10.9383116700   11.3215446500    2.0635521400
Si      13.3671334500   15.5830272400    2.0850887400
Si      13.2947326667   11.1734617700    3.9175249200
Si      10.8428119767   15.4055730133    3.9701548433
Si      16.9184471300    9.0573670167    5.6955523533
Si      19.3775653267   13.3098316933    5.6964918867
O       17.5223679933    9.7418567100    4.3498198867
O       14.9970376533   14.0407155200    4.3516841200
O       17.1824107300   11.9056727100    2.8705952133
O       14.7116785167   16.1911585133    2.8604100633
O       18.4527819533   12.0369955900    5.2663092233
O       15.9486905033   16.3124730300    5.2717074667
O       15.3082093400   12.3857007500    1.1200750900
O       17.7289836700   16.6872376300    1.1819288800
O       14.7375098433   10.8943978333    3.2067767700
O       17.1607386033   15.1409197067    3.2283826500
Si      15.8472791700   11.3195425700    2.0596468700
Si      18.2672913800   15.6077782800    2.1074787100
Si      18.2071654400   11.1607902200    3.9178585400
Si      15.7158086033   15.4373383200    3.9240473367
O       11.0942665433    1.6046588600    6.6637611867
O       13.5672312200    5.8404538133    6.6692249833
O       12.8237677667   15.6323629133    8.8547088533
O       10.3975608600    2.9526605000    8.8528276467
O       12.4681370633    1.3067721700    8.9546708933
O       10.0365570167    5.5493535967    8.9323435200
O       10.8558197833    4.4004871600    6.6553094767
O       13.1764705567    8.7051525133    6.7350837700
O       10.0295451467    0.3223615133    8.7407258867
O       12.4977786600    4.5485868267    8.7558453767
Si      10.9910216467    1.5542776833    8.3070475567
Si      13.4466841200    5.7929867167    8.3144347800
Si      13.3768351200    0.1151600767    8.3118693167
Si      10.9591672333    4.3740229233    8.2969098200
O       15.9642955367    1.5949354267    6.6473423167
O       18.4499520167    5.7979044433    6.6422324133
O       17.7281657733   15.6211228800    8.7947972933
O       15.2765866233    2.9290379867    8.8551856033
O       17.3444998567    1.2940402533    8.9325804267
O       14.9205222333    5.5278464367    8.9574194333
O       15.7501801533    4.3963657200    6.6717726567
O       18.1817031367    8.6149006833    6.6298432633
O       14.9246129567    0.2958762867    8.7393478733
O       17.3850698033    4.5218934567    8.7418361700
Si      15.8672886133    1.5360862700    8.2918198200
Si      18.3341883700    5.7566520433    8.2847835200
Si      18.2633237133    0.1189781567    8.2814602300
Si      15.8376017433    4.3537317400    8.3121634833
O       10.9488492967   10.0950306867    6.5123792833
O       13.5013645100   14.3045063500    6.6474597033
O       12.8202297267    7.1681577733    8.8588781167
O       10.4221159767   11.3922625633    9.0742614900
O       12.4532899767    9.7204306933    9.1703897767
O       10.0093156433   13.9471742767    8.9905558133
O       10.7830985833   12.8103215867    6.7559047767
O       13.2865242333    0.1742868933    6.6723907433
O       10.0017006200    8.8142418867    8.9762124167
O       12.4832750733   12.9709192400    8.7382579367
Si      10.9615411433    9.9902818533    9.0001332933
Si      13.4026455700   14.2279575900    8.2933415167
Si      13.3075428033    8.6330205600    8.3632954500
Si      10.9269653133   12.7439817733    8.3881994533
O       15.9622870300   10.0216214667    6.5996889033
O       18.4477699300   14.2714359867    6.6314304533
O       17.6967398100    7.1510021367    8.7924590233
O       15.2490658800   11.3971401967    8.7631123800
O       17.3244607767    9.7556085367    8.8720832800
O       14.8921814533   13.9934761700    8.9111116867
O       15.7284422233   12.9026174900    6.6171638867
O       18.1463202733    0.1729962100    6.6451998733
O       14.8764250867    8.7893355467    8.7493580733
O       17.3602456100   12.9852355367    8.7067746567
Si      15.8369704900    9.9878778167    8.2448095933
Si      18.3252587767   14.2172573700    8.2683594133
Si      18.2614145367    8.5816993800    8.2664126100
Si      15.8151130900   12.8280095833    8.2546857600
H        0.1884502100    4.0213942600    0.5029856200
H        5.0942002200    4.0213942600    0.5029856200
H        9.9999502200    4.0213942600    0.5029856200
H       14.9057002200    4.0213942600    0.5029856200
H        2.6413252100    8.2583942600    0.5029856200
H        7.5470752100    8.2583942600    0.5029856200
H       12.4528252200    8.2583942600    0.5029856200
H       17.3585752100    8.2583942600    0.5029856200
H        0.1884502100   12.4953942600    0.5029856200
H        5.0942002200   12.4953942600    0.5029856200
H        9.9999502100   12.4953942600    0.5029856200
H       14.9057002200   12.4953942600    0.5029856200
H        2.6413252200   16.7323942600    0.5029856200
H        7.5470752100   16.7323942600    0.5029856200
H       12.4528252200   16.7323942600    0.5029856200
H       17.3585752100   16.7323942600    0.5029856200
256
Lattice="19.6230000000 0.0000000000 0.0000000000 0.0000000000 16.9480000000 0.0000000000 0.0000000000 0.0000000000 22.0000000000" Properties=species:S:1:pos:R:3 pbc="T T T"
Si       2.2045989250    0.6345941050    5.7082652950
Si       4.6681797500    4.8458484750    5.7521091150
O        2.7886855500    1.3123360950    4.3503862700
O        0.3092011100    5.5037345250    4.3527662450
O        2.4567633650    3.4855163150    2.8960882550
O        0.0021101500    7.6816812150    2.9019508950
O        3.7581237150    3.5813509250    5.2764788950
O        1.3044016000    7.7691272850    5.2808141900
O        0.6456882000    3.9159794000    1.1210447000
O        3.0672886300    8.2141261400    1.1815543900
O        0.0037612000    2.4027735250    3.1993245250
O        2.4528736550    6.6258913600    3.2074405950
Si       1.1455019600    2.8505524700    2.0824412700
Si       3.5695465000    7.1119067100    2.0992223400
Si       3.4931391800    2.7237624850    3.9228993550
Si       1.0265619000    6.9091948300    3.9347257100
Si       7.1061230000    0.6228862350    5.7494973800
Si       9.5806980650    4.8738976450    5.7331880450
O        7.6663534750    1.3254674600    4.3935728950
O        5.2185768100    5.5521664100    4.3944136850
O        7.3898321200    3.4621025550    2.8725105750
O        4.9086853050    7.6868101800    2.9081477250
O        8.6516475550    3.6089409850    5.2900612700
O        6.2556770650    7.8073022850    5.3132783450
O        5.5552869100    3.9122293800    1.1211052600
O        7.9772757100    8.0877836100    1.1142278700
O        4.9173461350    2.4139498450    3.1996740600
O        7.3580951200    6.6573284150    3.2134110800
Si       6.0596493900    2.8461686500    2.0790016200
Si       8.4856619300    7.0396571000    2.0888678200
Si       8.3970008700    2.7199396550    3.9512038550
Si       5.9428351250    6.9556880750    3.9648454900
Si       2.2190502550    9.0399734450    5.7326571100
Si       4.6633613050   13.3052013850    5.7096621350
O        2.8014427750    9.7276166800    4.3790113450
O        0.3028300250   14.0382581400    4.3486856000
O        2.4974589050   11.8757182350    2.8665491850
O        0.0097334200   16.1966141000    2.8407775700
O        3.7556656650   12.0196563900    5.2727600350
O        1.3003905050   16.3032579150    5.2670511450
O        0.6489506000   12.3848644500    1.1164698100
O        3.0729843600   16.6863433000    1.1214483800
O        0.0372049250   10.9157123450    3.2330715500
O        2.4533471600   15.1429478650    3.1955062600
Si       1.1513625500   11.3198264700    2.0766695000
Si       3.5754940500   15.6056862400    2.0654913200
Si       3.5047957200   11.1337164050    3.9351075750
Si       1.0256311250   15.4387028900    3.9195599250
Si       7.1829960450    9.0775105200    5.7981657250
Si       9.5886374450   13.2829254950    5.8091460150
O        7.7086102000    9.7867194650    4.4274538300
O        5.2129636550   14.0146808750    4.3530962050
O        7.3930827000   11.8931017700    2.8633725650
O        4.9008958600   16.1912768400    2.8946273850
O        8.5976067800   12.1327001750    5.2455972150
O        6.2009277000   16.3037488150    5.2761479650
O        5.4982352100   12.3871803600    1.1189184700
O        7.9744263300   16.6881142600    1.1800083500
O        4.9385061350   10.8590860650    3.2063181150
O        7.3501183000   15.1311807700    3.2106170150
Si       6.0398172800   11.3446966600    2.0829406400
Si       8.4769720100   15.5902904900    2.1027680200
Si       8.4172568350   11.1800782300    3.9560694950
Si       5.9231045400   15.4302980450    3.9358709100
O        1.2321773500    1.5821911650    6.6198577650
O        3.7208421550    5.7980021100    6.6837767450
O        3.0227292100   15.6531710700    8.8076225400
O        0.5335381850    2.9516474200    8.7897661650
O        2.6054465300    1.3112851600    8.9037152650
O        0.1798584200    5.5432485700    8.9285792050
O        1.0347841150    4.4149401550    6.6492222950
O        3.4815261250    8.5980768300    6.6671782500
O        0.1506832600    0.3397188150    8.7428060750
O        2.6460884850    4.5538282900    8.7799745850
Si       1.1261370350    1.5465504000    8.2638198800
Si       3.6249099400    5.7703080050    8.3282613950
Si       3.5590103800    0.1485521450    8.2826709250
Si       1.1179166500    4.3790446850    8.2899506400
O        6.1731254350    1.5871177350    6.6808993500
O        8.6607854600    5.8639842250    6.6556051900
O        7.9656830150   15.6306445300    8.8880247100
O        5.5109547250    2.9601537950    8.8679271350
O        7.5455654450    1.2792318950    8.9740290500
O        5.1024144350    5.5363944950    8.9708642200
O        5.9374673800    4.4107733900    6.6839267850
O        8.4261525200    8.6674534000    6.7702245500
O        5.0911577500    0.3383770850    8.7553809700
O        7.5937912450    4.5907564950    8.7772301550
Si       6.0795933650    1.5516903100    8.3240884650
Si       8.5510295300    5.8314313100    8.3072943250
Si       8.4813450650    0.1161002650    8.3259836200
Si       6.0569468750    4.3880390450    8.3239142950
O        1.2639852400   10.0172846550    6.6309094350
O        3.7185278050   14.2836501750    6.6169807050
O        3.0241426250    7.1715227150    8.8607759050
O        0.5378146700   11.4068276300    8.7824223100
O        2.6054278050    9.7573847700    8.9072520600
O        0.1578716700   13.9816452550    8.9100717500
O        1.0316072900   12.9053628100    6.6175813000
O        3.4780254200    0.2231110250    6.6437471200
O        0.1484515200    8.7826350400    8.7402858050
O        2.6447900000   13.0284247500    8.7145507350
Si       1.1276965900    9.9926147600    8.2716663550
Si       3.6152137150   14.2532938750    8.2614470800
Si       3.5710702700    8.5974543700    8.3084813150
Si       1.1079670850   12.8355986100    8.2580459400
O        6.1998507750   10.0493245000    6.6773137800
O        8.6642795900   14.3112382200    6.6884454350
O        7.9539684500    7.2152972200    8.8651504150
O        5.4360431950   11.4206501850    8.8147235650
O        7.5373912800    9.8244415200    8.9806498100
O        5.0946187150   14.0131000650    8.8967711550
O        5.9360077950   12.8810244750    6.6378359250
O        8.3619532250    0.1800345700    6.6885296800
O        5.0975701450    8.8071005850    8.7857252250
O        7.5579199800   13.0043116700    8.7492743450
Si       6.0731687350   10.0213309500    8.3167219450
Si       8.5528267500   14.2268170050    8.3348381750
Si       8.5458427850    8.6739893100    8.4253930100
Si       6.0261623850   12.8352736500    8.2785486350
Si      12.0107223700    0.6330946950    5.7495613750
Si      14.4671238500    4.8543022350    5.7641077500
O       12.6012881800    1.3124585300    4.3916639850
O       10.1361875750    5.5342540200    4.3521017550
O       12.2665094650    3.4642204100    2.9034309600
O        9.8490809700    7.6448555500    2.8277788050
O       13.5576937600    3.5820422850    5.3090879050
O       11.1399062550    7.7898384200    5.2800014700
O       10.3994843700    3.9086844000    1.1835459800
O       12.8815934400    8.0893990800    1.1172290200
O        9.8193576050    2.3726954500    3.2378577200
O       12.2991608400    6.6134102850    3.2334117400
Si      10.9409723700    2.8281001800    2.1064813700
Si      13.3898739300    7.0409469300    2.0916908400
Si      13.2984544700    2.7228411250    3.9507909000
Si      10.8568785550    6.9436440300    3.9353423200
Si      16.8711378400    0.6344829350    5.7161204850
Si      19.3761598800    4.8257512800    5.7243204550
O       17.4442174750    1.3149352050    4.3494064850
O       15.0301547950    5.5039016500    4.3813347250
O       17.1825353350    3.4722601150    2.8703917050
O       14.7603463300    7.6087554550    2.8196530350
O       18.4723452100    3.5475787750    5.2758771450
O       15.9791785500    7.8086975600    5.2340130050
O       15.3093453100    3.9131833900    1.1258597100
O       17.7736547900    8.1577746000    1.1748963000
O       14.7230280200    2.4265732900    3.2111669300
O       17.1932801000    6.5889520700    3.2359685800
Si      15.8514851200    2.8651351600    2.0844508700
Si      18.2875595900    7.0842324600    2.1187160800
Si      18.1991940650    2.7012683350    3.9169092650
Si      15.7463822250    6.8920240050    3.9247454500
Si      11.9082886750    9.1814965750    5.7584220700
Si      14.4142612000   13.3532597850    5.7085674300
O       12.6359176750    9.7506255650    4.3874935800
O       10.2328988350   13.9703081750    4.4712773050
O       12.2998893900   11.8947983650    2.8203282850
O        9.8109295300   16.1216838200    2.9355143900
O       13.5244002300   12.0887024100    5.2308638900
O       11.0833043100   16.3147302650    5.3087067300
O       10.4024630300   12.3861176700    1.1204577700
O       12.8228942700   16.6269823300    1.1237594700
O        9.8424309150   10.8852980600    3.2142171050
O       12.2778594050   15.1385092600    3.2408030000
Si      10.9383116700   11.3215446500    2.0635521400
Si      13.3671334500   15.5830272400    2.0850887400
Si      13.2996382500   11.1603777200    3.9189137900
Si      10.8486516100   15.3965170000    3.9900193800
Si      16.8975865050    9.0708979800    5.6967299050
Si      19.3687599500   13.3249584100    5.7008955900
O       17.5117796450    9.7555876750    4.3532399150
O       14.9833669700   14.0546403450    4.3522540250
O       17.1875224700   11.9048574800    2.8584888700
O       14.7154462150   16.1907980600    2.8493657300
O       18.4382900600   12.0579085650    5.2647225100
O       15.9454329150   16.3200734900    5.2684896900
O       15.3082093400   12.3857007500    1.1200750900
O       17.7289836700   16.6872376300    1.1819288800
O       14.7467286200   10.8832573050    3.2074903150
O       17.1610751500   15.1419653100    3.2285404650
Si      15.8472791700   11.3195425700    2.0596468700
Si      18.2672913800   15.6077782800    2.1074787100
Si      18.2055344200   11.1706726700    3.9221244000
Si      15.7145480050   15.4421683900    3.9233983800
O       11.0825125900    1.6165900400    6.6739685150
O       13.5665049850    5.8654298750    6.6798067500
O       12.7975485350   15.6441572100    8.8552497300
O       10.3863753600    2.9706943400    8.8537504900
O       12.4585275850    1.3235616350    8.9659989550
O       10.0364404300    5.5717840800    8.9312434100
O       10.8456038950    4.4126339000    6.6560791900
O       13.1004047850    8.7600014750    6.8095660100
O       10.0222344900    0.3369057150    8.7538412400
O       12.4949615150    4.5609508250    8.7466688600
Si      10.9811713100    1.5698699850    8.3177102750
Si      13.4371318950    5.8189051250    8.3265063000
Si      13.3605941000    0.1253056500    8.3224555900
Si      10.9533907300    4.3911640450    8.2974504600
O       15.9392593100    1.5983825750    6.6462404450
O       18.4365612300    5.7987596200    6.6431860750
O       17.7034669400   15.6312809050    8.7947119100
O       15.2522552250    2.9341069450    8.8560431650
O       17.3195692100    1.3057185150    8.9332252700
O       14.9091247300    5.5398337200    8.9698121500
O       15.7393508250    4.4074569750    6.6848991250
O       18.1563747700    8.6266476600    6.6339697700
O       14.9105144350    0.2975291200    8.7484572850
O       17.3717944200    4.5251589850    8.7525534450
Si      15.8431100600    1.5420171000    8.2920104900
Si      18.3180936850    5.7609529550    8.2872515400
Si      18.2393684200    0.1300640200    8.2858107550
Si      15.8214403600    4.3614447450    8.3260197850
O       10.8668898050   10.1320223550    6.4620354750
O       13.4662725150   14.3054852600    6.6464929100
O       12.7967218950    7.1775881800    8.8924323700
O       10.4248727850   11.4052100800    9.2168883300
O       12.4323493600    9.7170927700    9.3223178300
O        9.9960905700   13.9469608550    9.0183977650
O       10.7401996550   12.7754030750    6.8172908950
O       13.2758749200    0.1872726050    6.6819598850
O        9.9767802700    8.8510513900    9.1110573700
O       12.4700821950   12.9718517600    8.7506415450
Si      10.9364467800   10.0011602500    9.3750999700
Si      13.3703607200   14.2349381800    8.2943595650
Si      13.2485376750    8.6684455450    8.4321870900
Si      10.9060932900   12.7166684700    8.4488266300
O       15.9322481300   10.0216537000    6.6019968050
O       18.4381004400   14.2853674750    6.6354785500
O       17.6800528600    7.1555487350    8.7921842950
O       15.2135281950   11.4130016000    8.7519914250
O       17.2892755000    9.7659970350    8.8721203350
O       14.8680982100   14.0162331750    8.8991565500
O       15.7061663100   12.9137617000    6.6095109500
O       18.1317980400    0.1863578000    6.6479041050
O       14.8354989300    8.8127421100    8.7733105400
O       17.3340427750   12.9949236950    8.7026891800
Si      15.7976846600    9.9961732400    8.2484415100
Si      18.3035437150   14.2263363200    8.2725080100
Si      18.2321093850    8.5939106800    8.2718840200
Si      15.7867368100   12.8426083900    8.2487291450
H        0.1884502100    4.0213942600    0.5029856200
H        5.0942002200    4.0213942600    0.5029856200
H        9.9999502200    4.0213942600    0.5029856200
H       14.9057002200    4.0213942600    0.5029856200
H        2.6413252100    8.2583942600    0.5029856200
H        7.5470752100    8.2583942600    0.5029856200
H       12.4528252200    8.2583942600    0.5029856200
H       17.3585752100    8.2583942600    0.5029856200
H        0.1884502100   12.4953942600    0.5029856200
H        5.0942002200   12.4953942600    0.5029856200
H        9.9999502100   12.4953942600    0.5029856200
H       14.9057002200   12.4953942600    0.5029856200
H        2.6413252200   16.7323942600    0.5029856200
H        7.5470752100   16.7323942600    0.5029856200
H       12.4528252200   16.7323942600    0.5029856200
H       17.3585752100   16.7323942600    0.5029856200
256
Lattice="19.6230000000 0.0000000000 0.0000000000 0.0000000000 16.9480000000 0.0000000000 0.0000000000 0.0000000000 22.0000000000" Properties=species:S:1:pos:R:3 pbc="T T T"
Si       2.1920081233    0.6509153100    5.7121862100
Si       4.6617102033    4.8589631400    5.7619753333
O        2.7773027067    1.3252432600    4.3517833367
O        0.3088298433    5.5046846233    4.3541437767
O        2.4564814167    3.4920473167    2.8935451767
O        0.0023120600    7.6810005867    2.9012503267
O        3.7578067833    3.5935788767    5.2747989567
O        1.3050724167    7.7716512033    5.2809506567
O        0.6456882000    3.9159794000    1.1210447000
O        3.0672886300    8.2141261400    1.1815543900
O        0.0033721167    2.4006140067    3.1984131467
O        2.4527130700    6.6258051633    3.2069212967
Si       1.1455019600    2.8505524700    2.0824412700
Si       3.5695465000    7.1119067100    2.0992223400
Si       3.4918606433    2.7326187267    3.9241195200
Si       1.0272208767    6.9095895200    3.9368681800
Si       7.1038289033    0.6321857833    5.7602621833
Si       9.5766988867    4.8962505433    5.7339446000
O        7.6661634800    1.3390533733    4.4062480267
O        5.2187295400    5.5691239800    4.4082238833
O        7.3965793233    3.4613235667    2.8606453767
O        4.9092537000    7.6873617667    2.9096514467
O        8.6501172467    3.6330904800    5.2770204933
O        6.2702061100    7.8196597400    5.3260583300
O        5.5552869100    3.9122293800    1.1211052600
O        7.9772757100    8.0877836100    1.1142278700
O        4.9163218100    2.4147008700    3.2002954433
O        7.3586471900    6.6690126733    3.2144811867
Si       6.0596493900    2.8461686500    2.0790016200
Si       8.4856619300    7.0396571000    2.0888678200
Si       8.3999900267    2.7269919267    3.9506742033
Si       5.9473062300    6.9711236367    3.9773618367
Si       2.2159867000    9.0429124700    5.7434273700
Si       4.6567374300   13.3142293400    5.7115412400
O        2.8122282933    9.7277325667    4.3924304300
O        0.3010440567   14.0482851300    4.3517340833
O        2.5090544433   11.8632574867    2.8545135533
O        0.0097334200   16.1966141000    2.8407775700
O        3.7515562100   12.0281166367    5.2711030733
O        1.2992026933   16.3137506800    5.2649246900
O        0.6489506000   12.3848644500    1.1164698100
O        3.0729843600   16.6863433000    1.1214483800
O        0.0444854233   10.9363026067    3.2484840500
O        2.4529255500   15.1434720267    3.1952070567
Si       1.1513625500   11.3198264700    2.0766695000
Si       3.5754940500   15.6056862400    2.0654913200
Si       3.5095967767   11.1327739200    3.9390082967
Si       1.0263320867   15.4456588900    3.9201270400
Si       7.1990492867    9.0872148500    5.8349045200
Si       9.5900238867   13.2718989233    5.8400742600
O        7.7231643100    9.7868993200    4.4548527767
O        5.2133416000   14.0176989067    4.3540399467
O        7.4053514033   11.8666587967    2.8513769167
O        4.9008996133   16.1903562133    2.8941685200
O        8.5762336500   12.1600604000    5.2364006167
O        6.2014463233   16.3143486867    5.2751496567
O        5.4982352100   12.3871803600    1.1189184700
O        7.9744263300   16.6881142600    1.1800083500
O        4.9457247833   10.8614776000    3.2089214967
O        7.3490907800   15.1304676967    3.2094982367
Si       6.0398172800   11.3446966600    2.0829406400
Si       8.4769720100   15.5902904900    2.1027680200
Si       8.4260314400   11.1772676633    3.9688040167
Si       5.9245469767   15.4342065533    3.9392761533
O        1.2081677700    1.5839857200    6.6261878167
O        3.7071191600    5.7990365467    6.6982078733
O        3.0100590900   15.6693325100    8.8122586933
O        0.5110762967    2.9642852000    8.7886145567
O        2.5814982967    1.3229576200    8.9145294833
O        0.1662937200    5.5556498733    8.9285521367
O        1.0272712467    4.4263028300    6.6537869600
O        3.4699144000    8.5993775100    6.6872853133
O        0.1234004500    0.3542299300    8.7549690400
O        2.6310012167    4.5655579033    8.8001362500
Si       1.1030935367    1.5556622800    8.2710615233
Si       3.6140444700    5.7789711300    8.3445906167
Si       3.5432221000    0.1673454633    8.2904888867
Si       1.1064709400    4.3902983333    8.2959498700
O        6.1628040333    1.5880091767    6.6917949133
O        8.6592992633    5.8876004967    6.6575304900
O        7.9639723333   15.6381469067    8.8992102067
O        5.5099990767    2.9738105133    8.8728315200
O        7.5335541267    1.2807167733    8.9874316200
O        5.0934898867    5.5468163700    8.9836107767
O        5.9276830833    4.4226394733    6.6946244100
O        8.4270418833    8.6912782567    6.8305844133
O        5.0746400800    0.3537042033    8.7676735967
O        7.5928030867    4.6129378533    8.7785261133
Si       6.0712651833    1.5605045333    8.3353053633
Si       8.5478871900    5.8614640033    8.3127783533
Si       8.4756022500    0.1230760567    8.3384814900
Si       6.0544261767    4.4038985133    8.3338249100
O        1.2510470100   10.0175004367    6.6349378767
O        3.7063603100   14.2975745433    6.6091693300
O        3.0142877167    7.1802383633    8.8824581133
O        0.5158042133   11.4193279067    8.7821202833
O        2.5806265233    9.7670197767    8.9184727500
O        0.1342375133   13.9911453500    8.9214984233
O        1.0188866600   12.9179172200    6.6254265367
O        3.4659924200    0.2486630533    6.6498171367
O        0.1195306900    8.7978748200    8.7493498500
O        2.6289999533   13.0501645400    8.7153327267
Si       1.1051913867   10.0015784900    8.2766856567
Si       3.6013854967   14.2720344200    8.2556366133
Si       3.5570137633    8.6092090767    8.3300732800
Si       1.0903775967   12.8501377267    8.2667306333
O        6.1974377233   10.0591355933    6.6967643167
O        8.6635635267   14.3143799967    6.7014480400
O        7.9518643733    7.2373993800    8.8893163667
O        5.4112200200   11.4384853867    8.8230247100
O        7.5198330600    9.8567450533    9.0180444233
O        5.0833608667   14.0353470867    8.8849877667
O        5.9243747667   12.8830218200    6.6402985533
O        8.3594117300    0.1916101800    6.7001128133
O        5.0812858467    8.8292873133    8.8107363067
O        7.5423328500   13.0159399467    8.7610773200
Si       6.0621104600   10.0389172933    8.3372288500
Si       8.5494947800   14.2310253133    8.3491807533
Si       8.5543495900    8.7114302067    8.4909575433
Si       6.0132337633   12.8476807700    8.2830532667
Si      11.9994580933    0.6454141933    5.7602218133
Si      14.4588947333    4.8698348400    5.7780796733
O       12.5917073700    1.3258548933    4.4027294900
O       10.1414932733    5.5461358733    4.3504427700
O       12.2661314333    3.4651389400    2.9032611533
O        9.8636039667    7.6339279833    2.8046596000
O       13.5542109800    3.5946912700    5.3178451067
O       11.1474434033    7.7966012067    5.2824922967
O       10.3994843700    3.9086844000    1.1835459800
O       12.8815934400    8.0893990800    1.1172290200
O        9.8152975667    2.3603351167    3.2272819933
O       12.3117492200    6.6105916233    3.2406319233
Si      10.9409723700    2.8281001800    2.1064813700
Si      13.3898739300    7.0409469300    2.0916908400
Si      13.2977596733    2.7317292233    3.9600939900
Si      10.8657949100    6.9554331867    3.9389721367
Si      16.8579152600    0.6471078600    5.7176146733
Si      19.3693225233    4.8315517167    5.7270044300
O       17.4327858000    1.3256635333    4.3490044500
O       15.0312151633    5.5050464300    4.3906987433
O       17.1859837833    3.4736821000    2.8607580967
O       14.7765363067    7.5849078800    2.7934865633
O       18.4724227667    3.5492824533    5.2745412767
O       15.9647014400    7.8231725133    5.2196227533
O       15.3093453100    3.9131833900    1.1258597100
O       17.7736547900    8.1577746000    1.1748963000
O       14.7213317400    2.4321392133    3.2136566633
O       17.2026059700    6.5788431067    3.2420893833
Si      15.8514851200    2.8651351600    2.0844508700
Si      18.2875595900    7.0842324600    2.1187160800
Si      18.1991573900    2.7053553533    3.9148831967
Si      15.7512736967    6.8855102867    3.9237744333
Si      11.8642602733    9.2257249033    5.7837201033
Si      14.3898616500   13.3659533300    5.7062463067
O       12.6566544700    9.7383621367    4.4026912467
O       10.2701441133   13.9558143433    4.5110608067
O       12.3162922467   11.8702000867    2.7960782033
O        9.8112203833   16.0977601600    2.9464102967
O       13.5114547100   12.1011213333    5.2158369333
O       11.0730620100   16.3265162967    5.3178072100
O       10.4024630300   12.3861176700    1.1204577700
O       12.8228942700   16.6269823300    1.1237594700
O        9.8523642067   10.8934513000    3.2192681667
O       12.2834866967   15.1395814900    3.2500958500
Si      10.9383116700   11.3215446500    2.0635521400
Si      13.3671334500   15.5830272400    2.0850887400
Si      13.3045438333   11.1472936700    3.9203026600
Si      10.8544912433   15.3874609867    4.0098839167
Si      16.8767258800    9.0844289433    5.6979074567
Si      19.3599545733   13.3400851267    5.7052992933
O       17.5011912967    9.7693186400    4.3566599433
O       14.9696962867   14.0685651700    4.3528239300
O       17.1926342100   11.9040422500    2.8463825267
O       14.7192139133   16.1904376067    2.8383213967
O       18.4237981667   12.0788215400    5.2631357967
O       15.9421753267   16.3276739500    5.2652719133
O       15.3082093400   12.3857007500    1.1200750900
O       17.7289836700   16.6872376300    1.1819288800
O       14.7559473967   10.8721167767    3.2082038600
O       17.1614116967   15.1430109133    3.2286982800
Si      15.8472791700   11.3195425700    2.0596468700
Si      18.2672913800   15.6077782800    2.1074787100
Si      18.2039034000   11.1805551200    3.9263902600
Si      15.7132874067   15.4469984600    3.9227494233
O       11.0707586367    1.6285212200    6.6841758433
O       13.5657787500    5.8904059367    6.6903885167
O       12.7713293033   15.6559515067    8.8557906067
O       10.3751898600    2.9887281800    8.8546733333
O       12.4489181067    1.3403511000    8.9773270167
O       10.0363238433    5.5942145633    8.9301433000
O       10.8353880067    4.4247806400    6.6568489033
O       13.0243390133    8.8148504367    6.8840482500
O       10.0149238333    0.3514499167    8.7669565933
O       12.4921443700    4.5733148233    8.7374923433
Si      10.9713209733    1.5854622867    8.3283729933
Si      13.4275796700    5.8448235333    8.3385778200
Si      13.3443530800    0.1354512233    8.3330418633
Si      10.9476142267    4.4083051667    8.2979911000
O       15.9142230833    1.6018297233    6.6451385733
O       18.4231704433    5.7996147967    6.6441397367
O       17.6787681067   15.6414389300    8.7946265267
O       15.2279238267    2.9391759033    8.8569007267
O       17.2946385633    1.3173967767    8.9338701133
O       14.8977272267    5.5518210033    8.9822048667
O       15.7285214967    4.4185482300    6.6980255933
O       18.1310464033    8.6383946367    6.6380962767
O       14.8964159133    0.2991819533    8.7575666967
O       17.3585190367    4.5284245133    8.7632707200
Si      15.8189315067    1.5479479300    8.2922011600
Si      18.3019990000    5.7652538667    8.2897195600
Si      18.2154131267    0.1411498833    8.2901612800
Si      15.8052789767    4.3691577500    8.3398760867
O       10.7849303133   10.1690140233    6.4116916667
O       13.4311805200   14.3064641700    6.6455261167
O       12.7732140633    7.1870185867    8.9259866233
O       10.4276295933   11.4181575967    9.3595151700
O       12.4114087433    9.7137548467    9.4742458833
O        9.9828654967   13.9467474333    9.0462397167
O       10.6973007267   12.7404845633    6.8786770133
O       13.2652256067    0.2002583167    6.6915290267
O        9.9518599200    8.8878608933    9.2459023233
O       12.4568893167   12.9727842800    8.7630251533
Si      10.9113524167   10.0120386467    9.7500666467
Si      13.3380758700   14.2419187700    8.2953776133
Si      13.1895325467    8.7038705300    8.5010787300
Si      10.8852212667   12.6893551667    8.5094538067
O       15.9022092300   10.0216859333    6.6043047067
O       18.4284309500   14.2992989633    6.6395266467
O       17.6633659100    7.1600953333    8.7919095667
O       15.1779905100   11.4288630033    8.7408704700
O       17.2540902233    9.7763855333    8.8721573900
O       14.8440149667   14.0389901800    8.8872014133
O       15.6838903967   12.9249059100    6.6018580133
O       18.1172758067    0.1997193900    6.6506083367
O       14.7945727733    8.8361486733    8.7972630067
O       17.3078399400   13.0046118533    8.6986037033
Si      15.7583988300   10.0044686633    8.2520734267
Si      18.2818286533   14.2354152700    8.2766566067
Si      18.2028042333    8.6061219800    8.2773554300
Si      15.7583605300   12.8572071967    8.2427725300
H        0.1884502100    4.0213942600    0.5029856200
H        5.0942002200    4.0213942600    0.5029856200
H        9.9999502200    4.0213942600    0.5029856200
H       14.9057002200    4.0213942600    0.5029856200
H        2.6413252100    8.2583942600    0.5029856200
H        7.5470752100    8.2583942600    0.5029856200
H       12.4528252200    8.2583942600    0.5029856200
H       17.3585752100    8.2583942600    0.5029856200
H        0.1884502100   12.4953942600    0.5029856200
H        5.0942002200   12.4953942600    0.5029856200
H        9.9999502100   12.4953942600    0.5029856200
H       14.9057002200   12.4953942600    0.5029856200
H        2.6413252200   16.7323942600    0.5029856200
H        7.5470752100   16.7323942600    0.5029856200
H       12.4528252200   16.7323942600    0.5029856200
H       17.3585752100   16.7323942600    0.5029856200
256
Lattice="19.6230000000 0.0000000000 0.0000000000 0.0000000000 16.9480000000 0.0000000000 0.0000000000 0.0000000000 22.0000000000" Properties=species:S:1:pos:R:3 pbc="T T T"
Si       2.1794173217    0.6672365150    5.7161071250
Si       4.6552406567    4.8720778050    5.7718415517
O        2.7659198633    1.3381504250    4.3531804033
O        0.3084585767    5.5056347217    4.3555213083
O        2.4561994683    3.4985783183    2.8910020983
O        0.0025139700    7.6803199583    2.9005497583
O        3.7574898517    3.6058068283    5.2731190183
O        1.3057432333    7.7741751217    5.2810871233
O        0.6456882000    3.9159794000    1.1210447000
O        3.0672886300    8.2141261400    1.1815543900
O        0.0029830333    2.3984544883    3.1975017683
O        2.4525524850    6.6257189667    3.2064019983
Si       1.1455019600    2.8505524700    2.0824412700
Si       3.5695465000    7.1119067100    2.0992223400
Si       3.4905821067    2.7414749683    3.9253396850
Si       1.0278798533    6.9099842100    3.9390106500
Si       7.1015348067    0.6414853317    5.7710269867
Si       9.5726997083    4.9186034417    5.7347011550
O        7.6659734850    1.3526392867    4.4189231583
O        5.2188822700    5.5860815500    4.4220340817
O        7.4033265267    3.4605445783    2.8487801783
O        4.9098220950    7.6879133533    2.9111551683
O        8.6485869383    3.6572399750    5.2639797167
O        6.2847351550    7.8320171950    5.3388383150
O        5.5552869100    3.9122293800    1.1211052600
O        7.9772757100    8.0877836100    1.1142278700
O        4.9152974850    2.4154518950    3.2009168267
O        7.3591992600    6.6806969317    3.2155512933
Si       6.0596493900    2.8461686500    2.0790016200
Si       8.4856619300    7.0396571000    2.0888678200
Si       8.4029791833    2.7340441983    3.9501445517
Si       5.9517773350    6.9865591983    3.9898781833
Si       2.2129231450    9.0458514950    5.7541976300
Si       4.6501135550   13.3232572950    5.7134203450
O        2.8230138117    9.7278484533    4.4058495150
O        0.2992580883   14.0583121200    4.3547825667
O        2.5206499817   11.8507967383    2.8424779217
O        0.0097334200   16.1966141000    2.8407775700
O        3.7474467550   12.0365768833    5.2694461117
O        1.2980148817   16.3242434450    5.2627982350
O        0.6489506000   12.3848644500    1.1164698100
O        3.0729843600   16.6863433000    1.1214483800
O        0.0517659217   10.9568928683    3.2638965500
O        2.4525039400   15.1439961883    3.1949078533
Si       1.1513625500   11.3198264700    2.0766695000
Si       3.5754940500   15.6056862400    2.0654913200
Si       3.5143978333   11.1318314350    3.9429090183
Si       1.0270330483   15.4526148900    3.9206941550
Si       7.2151025283    9.0969191800    5.8716433150
Si       9.5914103283   13.2608723517    5.8710025050
O        7.7377184200    9.7870791750    4.4822517233
O        5.2137195450   14.0207169383    4.3549836883
O        7.4176201067   11.8402158233    2.8393812683
O        4.9009033667   16.1894355867    2.8937096550
O        8.5548605200   12.1874206250    5.2272040183
O        6.2019649467   16.3249485583    5.2741513483
O        5.4982352100   12.3871803600    1.1189184700
O        7.9744263300   16.6881142600    1.1800083500
O        4.9529434317   10.8638691350    3.2115248783
O        7.3480632600   15.1297546233    3.2083794583
Si       6.0398172800   11.3446966600    2.0829406400
Si       8.4769720100   15.5902904900    2.1027680200
Si       8.4348060450   11.1744570967    3.9815385383
Si       5.9259894133   15.4381150617    3.9426813967
O        1.1841581900    1.5857802750    6.6325178683
O        3.6933961650    5.8000709833    6.7126390017
O        2.9973889700   15.6854939500    8.8168948467
O        0.4886144083    2.9769229800    8.7874629483
O        2.5575500633    1.3346300800    8.9253437017
O        0.1527290200    5.5680511767    8.9285250683
O        1.0197583783    4.4376655050    6.6583516250
O        3.4583026750    8.6006781900    6.7073923767
O        0.0961176400    0.3687410450    8.7671320050
O        2.6159139483    4.5772875167    8.8202979150
Si       1.0800500383    1.5647741600    8.2783031667
Si       3.6031790000    5.7876342550    8.3609198383
Si       3.5274338200    0.1861387817    8.2983068483
Si       1.0950252300    4.4015519817    8.3019491000
O        6.1524826317    1.5889006183    6.7026904767
O        8.6578130667    5.9112167683    6.6594557900
O        7.9622616517   15.6456492833    8.9103957033
O        5.5090434283    2.9874672317    8.8777359050
O        7.5215428083    1.2822016517    9.0008341900
O        5.0845653383    5.5572382450    8.9963573333
O        5.9178987867    4.4345055567    6.7053220350
O        8.4279312467    8.7151031133    6.8909442767
O        5.0581224100    0.3690313217    8.7799662233
O        7.5918149283    4.6351192117    8.7798220717
Si       6.0629370017    1.5693187567    8.3465222617
Si       8.5447448500    5.8914966967    8.3182623817
Si       8.4698594350    0.1300518483    8.3509793600
Si       6.0519054783    4.4197579817    8.3437355250
O        1.2381087800   10.0177162183    6.6389663183
O        3.6941928150   14.3114989117    6.6013579550
O        3.0044328083    7.1889540117    8.9041403217
O        0.4937937567   11.4318281833    8.7818182567
O        2.5558252417    9.7766547833    8.9296934400
O        0.1106033567   14.0006454450    8.9329250967
O        1.0061660300   12.9304716300    6.6332717733
O        3.4539594200    0.2742150817    6.6558871533
O        0.0906098600    8.8131146000    8.7584138950
O        2.6132099067   13.0719043300    8.7161147183
Si       1.0826861833   10.0105422200    8.2817049583
Si       3.5875572783   14.2907749650    8.2498261467
Si       3.5429572567    8.6209637833    8.3516652450
Si       1.0727881083   12.8646768433    8.2754153267
O        6.1950246717   10.0689466867    6.7162148533
O        8.6628474633   14.3175217733    6.7144506450
O        7.9497602967    7.2595015400    8.9134823183
O        5.3863968450   11.4563205883    8.8313258550
O        7.5022748400    9.8890485867    9.0554390367
O        5.0721030183   14.0575941083    8.8732043783
O        5.9127417383   12.8850191650    6.6427611817
O        8.3568702350    0.2031857900    6.7116959467
O        5.0650015483    8.8514740417    8.8357473883
O        7.5267457200   13.0275682233    8.7728802950
Si       6.0510521850   10.0565036367    8.3577357550
Si       8.5461628100   14.2352336217    8.3635233317
Si       8.5628563950    8.7488711033    8.5565220767
Si       6.0003051417   12.8600878900    8.2875578983
Si      11.9881938167    0.6577336917    5.7708822517
Si      14.4506656167    4.8853674450    5.7920515967
O       12.5821265600    1.3392512567    4.4137949950
O       10.1467989717    5.5580177267    4.3487837850
O       12.2657534017    3.4660574700    2.9030913467
O        9.8781269633    7.6230004167    2.7815403950
O       13.5507282000    3.6073402550    5.3266023083
O       11.1549805517    7.8033639933    5.2849831233
O       10.3994843700    3.9086844000    1.1835459800
O       12.8815934400    8.0893990800    1.1172290200
O        9.8112375283    2.3479747833    3.2167062667
O       12.3243376000    6.6077729617    3.2478521067
Si      10.9409723700    2.8281001800    2.1064813700
Si      13.3898739300    7.0409469300    2.0916908400
Si      13.2970648767    2.7406173217    3.9693970800
Si      10.8747112650    6.9672223433    3.9426019533
Si      16.8446926800    0.6597327850    5.7191088617
Si      19.3624851667    4.8373521533    5.7296884050
O       17.4213541250    1.3363918617    4.3486024150
O       15.0322755317    5.5061912100    4.4000627617
O       17.1894322317    3.4751040850    2.8511244883
O       14.7927262833    7.5610603050    2.7673200917
O       18.4725003233    3.5509861317    5.2732054083
O       15.9502243300    7.8376474667    5.2052325017
O       15.3093453100    3.9131833900    1.1258597100
O       17.7736547900    8.1577746000    1.1748963000
O       14.7196354600    2.4377051367    3.2161463967
O       17.2119318400    6.5687341433    3.2482101867
Si      15.8514851200    2.8651351600    2.0844508700
Si      18.2875595900    7.0842324600    2.1187160800
Si      18.1991207150    2.7094423717    3.9128571283
Si      15.7561651683    6.8789965683    3.9228034167
Si      11.8202318717    9.2699532317    5.8090181367
Si      14.3654621000   13.3786468750    5.7039251833
O       12.6773912650    9.7260987083    4.4178889133
O       10.3073893917   13.9413205117    4.5508443083
O       12.3326951033   11.8456018083    2.7718281217
O        9.8115112367   16.0738365000    2.9573062033
O       13.4985091900   12.1135402567    5.2008099767
O       11.0628197100   16.3383023283    5.3269076900
O       10.4024630300   12.3861176700    1.1204577700
O       12.8228942700   16.6269823300    1.1237594700
O        9.8622974983   10.9016045400    3.2243192283
O       12.2891139883   15.1406537200    3.2593887000
Si      10.9383116700   11.3215446500    2.0635521400
Si      13.3671334500   15.5830272400    2.0850887400
Si      13.3094494167   11.1342096200    3.9216915300
Si      10.8603308767   15.3784049733    4.0297484533
Si      16.8558652550    9.0979599067    5.6990850083
Si      19.3511491967   13.3552118433    5.7097029967
O       17.4906029483    9.7830496050    4.3600799717
O       14.9560256033   14.0824899950    4.3533938350
O       17.1977459500   11.9032270200    2.8342761833
O       14.7229816117   16.1900771533    2.8272770633
O       18.4093062733   12.0997345150    5.2615490833
O       15.9389177383   16.3352744100    5.2620541367
O       15.3082093400   12.3857007500    1.1200750900
O       17.7289836700   16.6872376300    1.1819288800
O       14.7651661733   10.8609762483    3.2089174050
O       17.1617482433   15.1440565167    3.2288560950
Si      15.8472791700   11.3195425700    2.0596468700
Si      18.2672913800   15.6077782800    2.1074787100
Si      18.2022723800   11.1904375700    3.9306561200
Si      15.7120268083   15.4518285300    3.9221004667
O       11.0590046833    1.6404524000    6.6943831717
O       13.5650525150    5.9153819983    6.7009702833
O       12.7451100717   15.6677458033    8.8563314833
O       10.3640043600    3.0067620200    8.8555961767
O       12.4393086283    1.3571405650    8.9886550783
O       10.0362072567    5.6166450467    8.9290431900
O       10.8251721183    4.4369273800    6.6576186167
O       12.9482732417    8.8696993983    6.9585304900
O       10.0076131767    0.3659941183    8.7800719467
O       12.4893272250    4.5856788217    8.7283158267
Si      10.9614706367    1.6010545883    8.3390357117
Si      13.4180274450    5.8707419417    8.3506493400
Si      13.3281120600    0.1455967967    8.3436281367
Si      10.9418377233    4.4254462883    8.2985317400
O       15.8891868567    1.6052768717    6.6440367017
O       18.4097796567    5.8004699733    6.6450933983
O       17.6540692733   15.6515969550    8.7945411433
O       15.2035924283    2.9442448617    8.8577582883
O       17.2697079167    1.3290750383    8.9345149567
O       14.8863297233    5.5638082867    8.9945975833
O       15.7176921683    4.4296394850    6.7111520617
O       18.1057180367    8.6501416133    6.6422227833
O       14.8823173917    0.3008347867    8.7666761083
O       17.3452436533    4.5316900417    8.7739879950
Si      15.7947529533    1.5538787600    8.2923918300
Si      18.2859043150    5.7695547783    8.2921875800
Si      18.1914578333    0.1522357467    8.2945118050
Si      15.7891175933    4.3768707550    8.3537323883
O       10.7029708217   10.2060056917    6.3613478583
O       13.3960885250   14.3074430800    6.6445593233
O       12.7497062317    7.1964489933    8.9595408767
O       10.4303864017   11.4311051133    9.5021420100
O       12.3904681267    9.7104169233    9.6261739367
O        9.9696404233   13.9465340117    9.0740816683
O       10.6544017983   12.7055660517    6.9400631317
O       13.2545762933    0.2132440283    6.7010981683
O        9.9269395700    8.9246703967    9.3807472767
O       12.4436964383   12.9737168000    8.7754087617
Si      10.8862580533   10.0229170433   10.1250333233
Si      13.3057910200   14.2488993600    8.2963956617
Si      13.1305274183    8.7392955150    8.5699703700
Si      10.8643492433   12.6620418633    8.5700809833
O       15.8721703300   10.0217181667    6.6066126083
O       18.4187614600   14.3132304517    6.6435747433
O       17.6466789600    7.1646419317    8.7916348383
O       15.1424528250   11.4447244067    8.7297495150
O       17.2189049467    9.7867740317    8.8721944450
O       14.8199317233   14.0617471850    8.8752462767
O       15.6616144833   12.9360501200    6.5942050767
O       18.1027535733    0.2130809800    6.6533125683
O       14.7536466167    8.8595552367    8.8212154733
O       17.2816371050   13.0143000117    8.6945182267
Si      15.7191130000   10.0127640867    8.2557053433
Si      18.2601135917   14.2444942200    8.2808052033
Si      18.1734990817    8.6183332800    8.2828268400
Si      15.7299842500   12.8718060033    8.2368159150
H        0.1884502100    4.0213942600    0.5029856200
H        5.0942002200    4.0213942600    0.5029856200
H        9.9999502200    4.0213942600    0.5029856200
H       14.9057002200    4.0213942600    0.5029856200
H        2.6413252100    8.2583942600    0.5029856200
H        7.5470752100    8.2583942600    0.5029856200
H       12.4528252200    8.2583942600    0.5029856200
H       17.3585752100    8.2583942600    0.5029856200
H        0.1884502100   12.4953942600    0.5029856200
H        5.0942002200   12.4953942600    0.5029856200
H        9.9999502100   12.4953942600    0.5029856200
H       14.9057002200   12.4953942600    0.5029856200
H        2.6413252200   16.7323942600    0.5029856200
H        7.5470752100   16.7323942600    0.5029856200
H       12.4528252200   16.7323942600    0.5029856200
H       17.3585752100   16.7323942600    0.5029856200
256
Lattice="19.6230000000 0.0000000000 0.0000000000 0.0000000000 16.9480000000 0.0000000000 0.0000000000 0.0000000000 22.0000000000" Properties=species:S:1:pos:R:3 pbc="T T T"
Si       2.1668265200    0.6835577200    5.7200280400
Si       4.6487711100    4.8851924700    5.7817077700
O        2.7545370200    1.3510575900    4.3545774700
O        0.3080873100    5.5065848200    4.3568988400
O        2.4559175200    3.5051093200    2.8884590200
O        0.0027158800    7.6796393300    2.8998491900
O        3.7571729200    3.6180347800    5.2714390800
O        1.3064140500    7.7766990400    5.2812235900
O        0.6456882000    3.9159794000    1.1210447000
O        3.0672886300    8.2141261400    1.1815543900
O        0.0025939500    2.3962949700    3.1965903900
O        2.4523919000    6.6256327700    3.2058827000
Si       1.1455019600    2.8505524700    2.0824412700
Si       3.5695465000    7.1119067100    2.0992223400
Si       3.4893035700    2.7503312100    3.9265598500
Si       1.0285388300    6.9103789000    3.9411531200
Si       7.0992407100    0.6507848800    5.7817917900
Si       9.5687005300    4.9409563400    5.7354577100
O        7.6657834900    1.3662252000    4.4315982900
O        5.2190350000    5.6030391200    4.4358442800
O        7.4100737300    3.4597655900    2.8369149800
O        4.9103904900    7.6884649400    2.9126588900
O        8.6470566300    3.6813894700    5.2509389400
O        6.2992642000    7.8443746500    5.3516183000
O        5.5552869100    3.9122293800    1.1211052600
O        7.9772757100    8.0877836100    1.1142278700
O        4.9142731600    2.4162029200    3.2015382100
O        7.3597513300    6.6923811900    3.2166214000
Si       6.0596493900    2.8461686500    2.0790016200
Si       8.4856619300    7.0396571000    2.0888678200
Si       8.4059683400    2.7410964700    3.9496149000
Si       5.9562484400    7.0019947600    4.0023945300
Si       2.2098595900    9.0487905200    5.7649678900
Si       4.6434896800   13.3322852500    5.7152994500
O        2.8337993300    9.7279643400    4.4192686000
O        0.2974721200   14.0683391100    4.3578310500
O        2.5322455200   11.8383359900    2.8304422900
O        0.0097334200   16.1966141000    2.8407775700
O        3.7433373000   12.0450371300    5.2677891500
O        1.2968270700   16.3347362100    5.2606717800
O        0.6489506000   12.3848644500    1.1164698100
O        3.0729843600   16.6863433000    1.1214483800
O        0.0590464200   10.9774831300    3.2793090500
O        2.4520823300   15.1445203500    3.1946086500
Si       1.1513625500   11.3198264700    2.0766695000
Si       3.5754940500   15.6056862400    2.0654913200
Si       3.5191988900   11.1308889500    3.9468097400
Si       1.0277340100   15.4595708900    3.9212612700
Si       7.2311557700    9.1066235100    5.9083821100
Si       9.5927967700   13.2498457800    5.9019307500
O        7.7522725300    9.7872590300    4.5096506700
O        5.2140974900   14.0237349700    4.3559274300
O        7.4298888100   11.8137728500    2.8273856200
O        4.9009071200   16.1885149600    2.8932507900
O        8.5334873900   12.2147808500    5.2180074200
O        6.2024835700   16.3355484300    5.2731530400
O        5.4982352100   12.3871803600    1.1189184700
O        7.9744263300   16.6881142600    1.1800083500
O        4.9601620800   10.8662606700    3.2141282600
O        7.3470357400   15.1290415500    3.2072606800
Si       6.0398172800   11.3446966600    2.0829406400
Si       8.4769720100   15.5902904900    2.1027680200
Si       8.4435806500   11.1716465300    3.9942730600
Si       5.9274318500   15.4420235700    3.9460866400
O        1.1601486100    1.5875748300    6.6388479200
O        3.6796731700    5.8011054200    6.7270701300
O        2.9847188500   15.7016553900    8.8215310000
O        0.4661525200    2.9895607600    8.7863113400
O        2.5336018300    1.3463025400    8.9361579200
O        0.1391643200    5.5804524800    8.9284980000
O        1.0122455100    4.4490281800    6.6629162900
O        3.4466909500    8.6019788700    6.7274994400
O        0.0688348300    0.3832521600    8.7792949700
O        2.6008266800    4.5890171300    8.8404595800
Si       1.0570065400    1.5738860400    8.2855448100
Si       3.5923135300    5.7962973800    8.3772490600
Si       3.5116455400    0.2049321000    8.3061248100
Si       1.0835795200    4.4128056300    8.3079483300
O        6.1421612300    1.5897920600    6.7135860400
O        8.6563268700    5.9348330400    6.6613810900
O        7.9605509700   15.6531516600    8.9215812000
O        5.5080877800    3.0011239500    8.8826402900
O        7.5095314900    1.2836865300    9.0142367600
O        5.0756407900    5.5676601200    9.0091038900
O        5.9081144900    4.4463716400    6.7160196600
O        8.4288206100    8.7389279700    6.9513041400
O        5.0416047400    0.3843584400    8.7922588500
O        7.5908267700    4.6573005700    8.7811180300
Si       6.0546088200    1.5781329800    8.3577391600
Si       8.5416025100    5.9215293900    8.3237464100
Si       8.4641166200    0.1370276400    8.3634772300
Si       6.0493847800    4.4356174500    8.3536461400
O        1.2251705500   10.0179320000    6.6429947600
O        3.6820253200   14.3254232800    6.5935465800
O        2.9945779000    7.1976696600    8.9258225300
O        0.4717833000   11.4443284600    8.7815162300
O        2.5310239600    9.7862897900    8.9409141300
O        0.0869692000   14.0101455400    8.9443517700
O        0.9934454000   12.9430260400    6.6411170100
O        3.4419264200    0.2997671100    6.6619571700
O        0.0616890300    8.8283543800    8.7674779400
O        2.5974198600   13.0936441200    8.7168967100
Si       1.0601809800   10.0195059500    8.2867242600
Si       3.5737290600   14.3095155100    8.2440156800
Si       3.5289007500    8.6327184900    8.3732572100
Si       1.0551986200   12.8792159600    8.2841000200
O        6.1926116200   10.0787577800    6.7356653900
O        8.6621314000   14.3206635500    6.7274532500
O        7.9476562200    7.2816037000    8.9376482700
O        5.3615736700   11.4741557900    8.8396270000
O        7.4847166200    9.9213521200    9.0928336500
O        5.0608451700   14.0798411300    8.8614209900
O        5.9011087100   12.8870165100    6.6452238100
O        8.3543287400    0.2147614000    6.7232790800
O        5.0487172500    8.8736607700    8.8607584700
O        7.5111585900   13.0391965000    8.7846832700
Si       6.0399939100   10.0740899800    8.3782426600
Si       8.5428308400   14.2394419300    8.3778659100
Si       8.5713632000    8.7863120000    8.6220866100
Si       5.9873765200   12.8724950100    8.2920625300
Si      11.9769295400    0.6700531900    5.7815426900
Si      14.4424365000    4.9009000500    5.8060235200
O       12.5725457500    1.3526476200    4.4248605000
O       10.1521046700    5.5698995800    4.3471248000
O       12.2653753700    3.4669760000    2.9029215400
O        9.8926499600    7.6120728500    2.7584211900
O       13.5472454200    3.6199892400    5.3353595100
O       11.1625177000    7.8101267800    5.2874739500
O       10.3994843700    3.9086844000    1.1835459800
O       12.8815934400    8.0893990800    1.1172290200
O        9.8071774900    2.3356144500    3.2061305400
O       12.3369259800    6.6049543000    3.2550722900
Si      10.9409723700    2.8281001800    2.1064813700
Si      13.3898739300    7.0409469300    2.0916908400
Si      13.2963700800    2.7495054200    3.9787001700
Si      10.8836276200    6.9790115000    3.9462317700
Si      16.8314701000    0.6723577100    5.7206030500
Si      19.3556478100    4.8431525900    5.7323723800
O       17.4099224500    1.3471201900    4.3482003800
O       15.0333359000    5.5073359900    4.4094267800
O       17.1928806800    3.4765260700    2.8414908800
O       14.8089162600    7.5372127300    2.7411536200
O       18.4725778800    3.5526898100    5.2718695400
O       15.9357472200    7.8521224200    5.1908422500
O       15.3093453100    3.9131833900    1.1258597100
O       17.7736547900    8.1577746000    1.1748963000
O       14.7179391800    2.4432710600    3.2186361300
O       17.2212577100    6.5586251800    3.2543309900
Si      15.8514851200    2.8651351600    2.0844508700
Si      18.2875595900    7.0842324600    2.1187160800
Si      18.1990840400    2.7135293900    3.9108310600
Si      15.7610566400    6.8724828500    3.9218324000
Si      11.7762034700    9.3141815600    5.8343161700
Si      14.3410625500   13.3913404200    5.7016040600
O       12.6981280600    9.7138352800    4.4330865800
O       10.3446346700   13.9268266800    4.5906278100
O       12.3490979600   11.8210035300    2.7475780400
O        9.8118020900   16.0499128400    2.9682021100
O       13.4855636700   12.1259591800    5.1857830200
O       11.0525774100   16.3500883600    5.3360081700
O       10.4024630300   12.3861176700    1.1204577700
O       12.8228942700   16.6269823300    1.1237594700
O        9.8722307900   10.9097577800    3.2293702900
O       12.2947412800   15.1417259500    3.2686815500
Si      10.9383116700   11.3215446500    2.0635521400
Si      13.3671334500   15.5830272400    2.0850887400
Si      13.3143550000   11.1211255700    3.9230804000
Si      10.8661705100   15.3693489600    4.0496129900
Si      16.8350046300    9.1114908700    5.7002625600
Si      19.3423438200   13.3703385600    5.7141067000
O       17.4800146000    9.7967805700    4.3635000000
O       14.9423549200   14.0964148200    4.3539637400
O       17.2028576900   11.9024117900    2.8221698400
O       14.7267493100   16.1897167000    2.8162327300
O       18.3948143800   12.1206474900    5.2599623700
O       15.9356601500   16.3428748700    5.2588363600
O       15.3082093400   12.3857007500    1.1200750900
O       17.7289836700   16.6872376300    1.1819288800
O       14.7743849500   10.8498357200    3.2096309500
O       17.1620847900   15.1451021200    3.2290139100
Si      15.8472791700   11.3195425700    2.0596468700
Si      18.2672913800   15.6077782800    2.1074787100
Si      18.2006413600   11.2003200200    3.9349219800
Si      15.7107662100   15.4566586000    3.9214515100
O       11.0472507300    1.6523835800    6.7045905000
O       13.5643262800    5.9403580600    6.7115520500
O       12.7188908400   15.6795401000    8.8568723600
O       10.3528188600    3.0247958600    8.8565190200
O       12.4296991500    1.3739300300    8.9999831400
O       10.0360906700    5.6390755300    8.9279430800
O       10.8149562300    4.4490741200    6.6583883300
O       12.8722074700    8.9245483600    7.0330127300
O       10.0003025200    0.3805383200    8.7931873000
O       12.4865100800    4.5980428200    8.7191393100
Si      10.9516203000    1.6166468900    8.3496984300
Si      13.4084752200    5.8966603500    8.3627208600
Si      13.3118710400    0.1557423700    8.3542144100
Si      10.9360612200    4.4425874100    8.2990723800
O       15.8641506300    1.6087240200    6.6429348300
O       18.3963888700    5.8013251500    6.6460470600
O       17.6293704400   15.6617549800    8.7944557600
O       15.1792610300    2.9493138200    8.8586158500
O       17.2447772700    1.3407533000    8.9351598000
O       14.8749322200    5.5757955700    9.0069903000
O       15.7068628400    4.4407307400    6.7242785300
O       18.0803896700    8.6618885900    6.6463492900
O       14.8682188700    0.3024876200    8.7757855200
O       17.3319682700    4.5349555700    8.7847052700
Si      15.7705744000    1.5598095900    8.2925825000
Si      18.2698096300    5.7738556900    8.2946556000
Si      18.1675025400    0.1633216100    8.2988623300
Si      15.7729562100    4.3845837600    8.3675886900
O       10.6210113300   10.2429973600    6.3110040500
O       13.3609965300   14.3084219900    6.6435925300
O       12.7261984000    7.2058794000    8.9930951300
O       10.4331432100   11.4440526300    9.6447688500
O       12.3695275100    9.7070790000    9.7781019900
O        9.9564153500   13.9463205900    9.1019236200
O       10.6115028700   12.6706475400    7.0014492500
O       13.2439269800    0.2262297400    6.7106673100
O        9.9020192200    8.9614799000    9.5155922300
O       12.4305035600   12.9746493200    8.7877923700
Si      10.8611636900   10.0337954400   10.5000000000
Si      13.2735061700   14.2558799500    8.2974137100
Si      13.0715222900    8.7747205000    8.6388620100
Si      10.8434772200   12.6347285600    8.6307081600
O       15.8421314300   10.0217504000    6.6089205100
O       18.4090919700   14.3271619400    6.6476228400
O       17.6299920100    7.1691885300    8.7913601100
O       15.1069151400   11.4605858100    8.7186285600
O       17.1837196700    9.7971625300    8.8722315000
O       14.7958484800   14.0845041900    8.8632911400
O       15.6393385700   12.9471943300    6.5865521400
O       18.0882313400    0.2264425700    6.6560168000
O       14.7127204600    8.8829618000    8.8451679400
O       17.2554342700   13.0239881700    8.6904327500
Si      15.6798271700   10.0210595100    8.2593372600
Si      18.2383985300   14.2535731700    8.2849538000
Si      18.1441939300    8.6305445800    8.2882982500
Si      15.7016079700   12.8864048100    8.2308593000
H        0.1884502100    4.0213942600    0.5029856200
H        5.0942002200    4.0213942600    0.5029856200
H        9.9999502200    4.0213942600    0.5029856200
H       14.9057002200    4.0213942600    0.5029856200
H        2.6413252100    8.2583942600    0.5029856200
H        7.5470752100    8.2583942600    0.5029856200
H       12.4528252200    8.2583942600    0.5029856200
H       17.3585752100    8.2583942600    0.5029856200
H        0.1884502100   12.4953942600    0.5029856200
H        5.0942002200   12.4953942600    0.5029856200
H        9.9999502100   12.4953942600    0.5029856200
H       14.9057002200   12.4953942600    0.5029856200
H        2.6413252200   16.7323942600    0.5029856200
H        7.5470752100   16.7323942600    0.5029856200
H       12.4528252200   16.7323942600    0.5029856200
H       17.3585752100   16.7323942600    0.5029856200
