257
Lattice="19.6230000000 0.0000000000 0.0000000000 0.0000000000 16.9480000000 0.0000000000 0.0000000000 0.0000000000 22.0000000000" Properties=species:S:1:pos:R:3 pbc="T T T"
Si       2.2118119488    0.6297441916    5.8055855843
Si       4.6656484171    4.8475501007    5.8189736041
O        2.7819853360    1.3510253559    4.4681791798
O        0.3648939445    5.5691853314    4.4806929471
O        2.4569509752    3.4628325691    2.9029406166
O        0.0074171072    7.6833152812    2.9049846356
O        3.7553472906    3.6170897210    5.2776973517
O        1.3025569676    7.8827473342    5.2651751924
O        0.6456881978    3.9159793968    1.1210446966
O        3.0672886306    8.2141261374    1.1815543862
O        0.0318001193    2.3426525007    3.1995773653
O        2.4520366330    6.6299289046    3.2139624710
Si       1.1455019636    2.8505524696    2.0824412660
Si       3.5695464997    7.1119067148    2.0992223405
Si       3.4970951987    2.7251112027    3.9482279393
Si       1.0383151658    6.9595462528    3.9583556104
Si       7.0687631114   17.5890228577    5.8268613256
Si       9.5524495194    4.8724629417    5.8334680224
O        7.6639777096    1.3516051891    4.4912264426
O        5.2676026980    5.5765037571    4.4977585404
O        7.3682226322    3.4583563344    2.9137308200
O        4.9036508125    7.6850651889    2.9069919838
O        8.6546834548    3.6125355478    5.3318923462
O        6.2819366175    7.8923624785    5.2180132634
O        5.5552869141    3.9122293818    1.1211052635
O        7.9772757137    8.0877836073    1.1142278691
O        4.9104818412    2.4123442793    3.2044318611
O        7.3051284759    6.5546294420    3.1376443620
Si       6.0596493909    2.8461686504    2.0790016155
Si       8.4856619334    7.0396571048    2.0888678242
Si       8.3913345380    2.7306142748    3.9877627900
Si       5.9507259034    6.9491853380    3.9436473651
Si       2.2631863806    9.0919846318    5.7636910317
Si       4.6374798498   13.3281461061    5.7649239944
O        2.8920631342    9.7890314516    4.4293238896
O        0.3651386899   14.0741995123    4.4700288648
O        2.5933933602   11.8303483188    2.7461352464
O       -0.0521568755   16.2038938576    2.9472706089
O        3.6102225434   12.1696683245    5.2545173057
O        1.3038119157   16.3424877186    5.2781385388
O        0.6489505964   12.3848644544    1.1164698074
O        3.0729843604   16.6863433025    1.1214483825
O        0.1280919651   11.0589294631    3.3567027588
O        2.4004252962   15.1422531651    3.1448873580
Si       1.1513625534   11.3198264658    2.0766694974
Si       3.5754940473   15.6056862372    2.0654913249
Si       3.5335511277   11.2090204930    3.9410125139
Si       1.0242041605   15.4655739588    3.9440363382
Si       7.1811145596    9.1135479026    5.8000203948
Si       9.5123480933   13.4072378953    5.7979287832
O        7.7975808488    9.8660429786    4.4946659657
O        5.2863616996   14.0177463430    4.4379647604
O        7.4476554537   11.8981514911    2.7570282600
O        4.8547149809   16.1931338727    2.9626710711
O        8.5020207067   12.2815148581    5.2013952039
O        6.1341170104   16.3445191243    5.3413826300
O        5.4982352145   12.3871803565    1.1189184697
O        7.9744263315   16.6881142643    1.1800083493
O        5.0450778864   10.9950673275    3.3593356588
O        7.3659270250   15.2173506602    3.2809212133
Si       6.0398172763   11.3446966603    2.0829406410
Si       8.4769720126   15.5902904931    2.1027680157
Si       8.4133691377   11.2676433043    3.9355473921
Si       5.9159668708   15.4629226371    3.9883181236
O        1.2425990447    1.5287635757    6.7694082331
O        3.6856831228    5.7438874234    6.7758933920
O        2.9865293650   15.5813212536    8.9206779905
O        0.5292879470    2.8638442630    8.9280090226
O        2.5966583621    1.2115669712    9.0690419853
O        0.1430479669    5.4570871996    9.0092423174
O        1.0030990018    4.3640990831    6.7549970576
O        3.4809269662    8.5611017638    6.7191689934
O        0.1535806050   17.1842223461    8.8468852685
O        2.6147360698    4.4737847300    8.8775344714
Si       1.1274348771    1.4596686970    8.4062731997
Si       3.5813420273    5.6975652447    8.4168299869
Si       3.5375878284   17.0166437898    8.3977621120
Si       1.0843006751    4.2914943490    8.3895597066
O        6.1305273370    1.5835434353    6.7825641403
O        8.5889159419    5.7991198775    6.7802877244
O        7.8977766453   15.6194847057    8.9911711852
O        5.4352871524    2.8829492946    8.9878649548
O        7.5072478817    1.2726631090    9.0718062023
O        5.0521600143    5.4574377484    9.0724535494
O        5.8982111674    4.3682432354    6.7814317893
O        8.3798287302    8.5899784433    6.7777841011
O        5.0768516387   17.1950420137    8.8521638052
O        7.5291780634    4.4977250206    8.8583744527
Si       6.0293764732    1.4930536431    8.4229890944
Si       8.4880206292    5.7329980952    8.4225898386
Si       8.4302742678   17.0516850664    8.4188741031
Si       5.9888719498    4.3036555878    8.4192564394
O        1.3076164622   10.0244381682    6.7105539453
O        3.7463905762   14.3146870512    6.7173439695
O        2.9916954484    7.1128781897    8.9229712808
O        0.5442032019   11.3030301588    8.9059468181
O        2.6693352163    9.7118431800    8.9930835518
O        0.1425903273   13.8861977705    9.0561649594
O        0.9212774026   12.8057395877    6.7221648373
O        3.4483998653   17.1025282027    6.7634618464
O        0.2383510378    8.6691233258    8.7814151368
O        2.6158652008   12.9557608806    8.7669558880
Si       1.1829263767    9.9252192235    8.3515936374
Si       3.5856646240   14.1930123610    8.3515541905
Si       3.5872571145    8.5223258817    8.3623125308
Si       1.0646431496   12.7447966413    8.3559867340
O        6.2192396190   10.0168038511    6.7706998580
O        8.6299471964   14.3808580557    6.7732170161
O        7.8947914560    7.1307405147    8.9721378274
O        5.4933137575   11.3200816475    8.9594594812
O        7.5775978645    9.7136908580    9.0664875157
O        5.0550646818   13.9283962413    9.0067557799
O        5.8263747759   12.7430375412    6.7241896786
O        8.3008802477   17.1104930752    6.7853284044
O        5.1339736640    8.6812033503    8.8242423263
O        7.5233810335   12.9785869460    8.7809227709
Si       6.1000969759    9.9289103003    8.4122326768
Si       8.4845116987   14.2327715436    8.4071903949
Si       8.4964464235    8.5372614548    8.4169241699
Si       5.9777804964   12.7520463338    8.3617773975
Si      12.0110492221    0.6933222339    5.8228821745
Si      14.4798624859    4.9010041854    5.8290716916
O       12.7168805364    1.3557033025    4.5141641460
O       10.1301904312    5.5723281095    4.4898544597
O       12.2767236137    3.4092051366    2.8979426061
O        9.7426322932    7.6865950585    2.9707481431
O       13.4871370953    3.7452792996    5.2726956773
O       11.1263717940    7.8546070841    5.2829352087
O       10.3994843669    3.9086844011    1.1835459784
O       12.8815934367    8.0893990809    1.1172290199
O        9.8224567539    2.4109534791    3.2753891338
O       12.2030582581    6.5879570472    3.1632861604
Si      10.9409723671    2.8281001796    2.1064813669
Si      13.3898739345    7.0409469315    2.0916908353
Si      13.3247076247    2.7732947753    3.9850905297
Si      10.8300225424    6.9505531980    3.9655857361
Si      16.8954914581   17.5426332087    5.7984981514
Si      19.3905757935    4.8218391732    5.7898393231
O       17.5328370882    1.2895361726    4.4706020352
O       15.1529554823    5.6257680509    4.5508079619
O       17.2449638976    3.4010787151    2.8343848077
O       14.6559220944    7.6878121955    2.9593345907
O       18.5273032387    3.5479981663    5.2677918269
O       15.9576505374    8.0221405675    5.2711288434
O       15.3093453141    3.9131833885    1.1258597109
O       17.7736547927    8.1577745986    1.1748963014
O       14.7818440435    2.5368467928    3.2976502102
O       17.1706007450    6.7098498338    3.2840860263
Si      15.8514851154    2.8651351622    2.0844508699
Si      18.2875595905    7.0842324587    2.1187160815
Si      18.2346326849    2.6656849450    3.9346565196
Si      15.7481730250    7.0348380948    4.0004796751
Si      12.0198000350    9.1216759847    5.7888675721
Si      14.3934875133   13.3810962276    5.7655958032
O       12.5722095290    9.8579948064    4.4410915758
O       10.2383577161   14.1298034205    4.5405487729
O       12.3446258521   11.9000408302    2.7624895355
O        9.8670612921   16.1346735009    2.8309926575
O       13.4850390213   12.1293142320    5.2684923321
O       10.9658808941   16.5251526320    5.2694613045
O       10.4024630339   12.3861176689    1.1204577714
O       12.8228942730   16.6269823261    1.1237594727
O        9.8897520068   11.0066798242    3.3054675764
O       12.3400452856   15.2890779474    3.3567502863
Si      10.9383116737   11.3215446464    2.0635521383
Si      13.3671334491   15.5830272442    2.0850887447
Si      13.3038719096   11.2270806328    3.9257058864
Si      10.8597902975   15.5289146823    3.9911793734
Si      16.9798787941    9.1684193788    5.7968590212
Si      19.3387518901   13.3929023338    5.7883964053
O       17.6295132042    9.8552907812    4.4799061005
O       14.9682744176   14.0763158217    4.4129263401
O       17.2594337246   11.8452361670    2.7603438653
O       14.7890842936   16.1317275954    2.7616907753
O       18.3158459810   12.2501417064    5.2475674155
O       15.9415011117   16.3346768052    5.2690710197
O       15.3082093433   12.3857007544    1.1200750870
O       17.7289836673   16.6872376294    1.1819288778
O       14.7885994073   10.9739439988    3.2884284787
O       17.1830661350   15.1318853993    3.2729822218
Si      15.8472791736   11.3195425680    2.0596468744
Si      18.2672913800   15.6077782780    2.1074787074
Si      18.2435503414   11.2689083376    3.9496073392
Si      15.7263976812   15.4398045687    3.9271152769
O       11.1121792852    1.6611301532    6.7896221588
O       13.5764280995    5.8707179261    6.7815947444
O       12.7301239549   15.5750425477    8.9395825146
O       10.3644192858    2.9305843688    8.9867959617
O       12.4131558543    1.2306652465    9.0861136054
O        9.9637365413    5.5016837687    9.0748563073
O       10.8084711074    4.4391763265    6.7856234282
O       13.2813392268    8.6490345197    6.7162894623
O        9.9754798222   17.2522399753    8.8427306467
O       12.4609919734    4.5299234166    8.8481133115
Si      10.9536329232    1.5344956774    8.4251837783
Si      13.4351667142    5.7558931033    8.4148001159
Si      13.3105521487   17.0008852345    8.4192130164
Si      10.9106977595    4.3561732043    8.4204835081
O       15.9412517371    1.5207326512    6.7526185413
O       18.3940629175    5.7285867030    6.7201689986
O       17.7058438085   15.5820663846    8.9859169004
O       15.1990185421    2.8537710973    8.9319070760
O       17.2837773486    1.2149622358    9.0562225582
O       14.8964124022    5.4709336060    9.0731444406
O       15.6613043069    4.3037223155    6.7813354384
O       18.1809690157    8.5841630991    6.7374395360
O       14.8632790438   17.1703170096    8.8457402519
O       17.3378500579    4.4513096507    8.8430082698
Si      15.8150494693    1.4588179494    8.3929050739
Si      18.2879927825    5.6860169946    8.3662776398
Si      18.2284553522   17.0094092493    8.4085588076
Si      15.7855077827    4.2788821138    8.4154335483
O       11.0681558455   10.0171959684    6.7762359376
O       13.4320622992   14.3079223192    6.7148820549
O       12.8733591410    7.1663061310    8.9397148822
O       10.2953350626   11.3249190125    8.9296037920
O       12.4981099531    9.7290018409    9.0207659528
O        9.9550969415   13.9456165223    9.0558863934
O       10.6630138441   12.7617592807    6.7563438674
O       13.1868338585   17.0404583269    6.7845232518
O       10.0488429872    8.6724414592    8.8527359421
O       12.3988051419   12.9379301602    8.7627695977
Si      10.9907842547    9.9355357842    8.4347591465
Si      13.3372190884   14.1952101601    8.3566520395
Si      13.4227651987    8.5785283827    8.3486353796
Si      10.8411653466   12.7616999390    8.3826160637
O       16.1058781335   10.1542701633    6.7639497659
O       18.4591061024   14.3630272104    6.7684102063
O       17.7104926620    7.0947740080    8.9124518847
O       15.2695645259   11.3648661407    8.9219736976
O       17.4050259574    9.7096406302    9.0512514293
O       14.8043241125   13.9352400063    9.0123233216
O       15.6421625033   12.9299119821    6.7168089099
O       18.1080992276   17.0441644847    6.7721026172
O       14.9780601978    8.7336649160    8.7666861609
O       17.3207380074   12.9662698411    8.7714768712
Si      15.9370120441    9.9931767492    8.3925731021
Si      18.3069367940   14.2017256081    8.3995242522
Si      18.2970592042    8.5192383465    8.3770643962
Si      15.7662648686   12.8064143902    8.3483220065
H        0.1884502100    4.0213942600    0.5029856200
H        5.0942002200    4.0213942600    0.5029856200
H        9.9999502200    4.0213942600    0.5029856200
H       14.9057002200    4.0213942600    0.5029856200
H        2.6413252100    8.2583942600    0.5029856200
H        7.5470752100    8.2583942600    0.5029856200
H       12.4528252200    8.2583942600    0.5029856200
H       17.3585752100    8.2583942600    0.5029856200
H        0.1884502100   12.4953942600    0.5029856200
H        5.0942002200   12.4953942600    0.5029856200
H        9.9999502100   12.4953942600    0.5029856200
H       14.9057002200   12.4953942600    0.5029856200
H        2.6413252200   16.7323942600    0.5029856200
H        7.5470752100   16.7323942600    0.5029856200
H       12.4528252200   16.7323942600    0.5029856200
H       17.3585752100   16.7323942600    0.5029856200
O       10.5590960249   10.6181533659   14.9882151362
