LAMMPS (2 Aug 2023)
OMP_NUM_THREADS environment is not set. Defaulting to 1 thread. (src/comm.cpp:98)
  using 1 OpenMP thread(s) per MPI task
Loaded 1 plugins from /public1/home/sch9516/software/deepmd-kit/lib/deepmd_lmp
variable cut_off        equal 10.0

units metal
atom_style charge
read_data ${datafile}
read_data frame_000.lmp
Reading data file ...
  orthogonal box = (0 0 -20) to (19.623 16.948 40)
  1 by 1 by 1 MPI processor grid
  reading atoms ...
  241 atoms
  read_data CPU = 0.018 seconds

# ---------- 力场与电荷平衡 ----------
# 设置原子电荷（假设类型1是Si，类型2是O，类型3是H）
set type 1 charge +2.4          # Si
Setting atom values ...
  80 settings made for charge
set type 2 charge -1.2         # O
Setting atom values ...
  161 settings made for charge


# 替换deepmd为BKS势函数
pair_style      hybrid/overlay buck/coul/long ${cut_off} table linear 39901
pair_style      hybrid/overlay buck/coul/long 10 table linear 39901
pair_coeff    	1 1 buck/coul/long 0.0 1.0 0.0                #No interactions between Si atoms
pair_coeff   	1 2 buck/coul/long 18003.757200 0.205205 133.538100
pair_coeff    	2 2 buck/coul/long 1388.773000  0.362319 175.000000  #BKS interaction in PRL 64 1955 (1990)
pair_modify   	shift yes
pair_coeff    	1 2 table potential_SiO2.TPF Si-O ${cut_off}
pair_coeff    	1 2 table potential_SiO2.TPF Si-O 10
pair_coeff    	2 2 table potential_SiO2.TPF O-O ${cut_off}   #See the potential file for more information
pair_coeff    	2 2 table potential_SiO2.TPF O-O 10   
WARNING: 1 of 39901 force values in table O-O are inconsistent with -dE/dr.
WARNING:  Should only be flagged at inflection points (src/pair_table.cpp:466)


# 添加长程库仑力计算
kspace_style	pppm  1.0e-4
 # 根据体系元素调整顺序

neighbor 2.0 bin
neigh_modify every 1 delay 10 check yes

thermo 1
thermo_style custom step pe
thermo_modify format float "%10.5f"


run 0
WARNING: No fixes with time integration, atoms won't move (src/verlet.cpp:60)
PPPM initialization ...
WARNING: System is not charge neutral, net charge = -1.2 (src/kspace.cpp:327)
  using 12-bit tables for long-range coulomb (src/kspace.cpp:342)
  G vector (1/distance) = 0.28592165
  grid = 15 15 32
  stencil order = 5
  estimated absolute RMS force accuracy = 0.001143329
  estimated relative force accuracy = 7.9399807e-05
  using double precision FFTW3
  3d grid and FFT values/proc = 18876 7200
Generated 0 of 1 mixed pair_coeff terms from geometric mixing rule
Neighbor list info ...
  update: every = 1 steps, delay = 10 steps, check = yes
  max neighbors/atom: 2000, page size: 100000
  master list distance cutoff = 12
  ghost atom cutoff = 12
  binsize = 6, bins = 4 3 10
  2 neighbor lists, perpetual/occasional/extra = 2 0 0
  (1) pair buck/coul/long, perpetual
      attributes: half, newton on
      pair build: half/bin/atomonly/newton
      stencil: half/bin/3d
      bin: standard
  (2) pair table, perpetual, skip from (1)
      attributes: half, newton on
      pair build: skip
      stencil: none
      bin: none
Per MPI rank memory allocation (min/avg/max) = 5.612 | 5.612 | 5.612 Mbytes
   Step         PotEng    
         0  -4493.49104
Loop time of 4.485e-06 on 1 procs for 0 steps with 241 atoms

66.9% CPU use with 1 MPI tasks x 1 OpenMP threads

MPI task timing breakdown:
Section |  min time  |  avg time  |  max time  |%varavg| %total
---------------------------------------------------------------
Pair    | 0          | 0          | 0          |   0.0 |  0.00
Kspace  | 0          | 0          | 0          |   0.0 |  0.00
Neigh   | 0          | 0          | 0          |   0.0 |  0.00
Comm    | 0          | 0          | 0          |   0.0 |  0.00
Output  | 0          | 0          | 0          |   0.0 |  0.00
Modify  | 0          | 0          | 0          |   0.0 |  0.00
Other   |            | 4.485e-06  |            |       |100.00

Nlocal:            241 ave         241 max         241 min
Histogram: 1 0 0 0 0 0 0 0 0 0
Nghost:           1040 ave        1040 max        1040 min
Histogram: 1 0 0 0 0 0 0 0 0 0
Neighs:          35549 ave       35549 max       35549 min
Histogram: 1 0 0 0 0 0 0 0 0 0

Total # of neighbors = 35549
Ave neighs/atom = 147.50622
Neighbor list builds = 0
Dangerous builds = 0
Total wall time: 0:00:45
