324
 Atoms. Timestep: 0
Si 0.114181 4.35417 0
Si 2.62811 0 0
Si 1.19988 6.63019 3.67925
Si 3.71381 2.27601 3.67925
Si 1.19988 2.07816 1.83963
Si 3.71381 6.43234 1.83963
O 1.06639 5.46135 4.80511
O 3.58032 1.10718 4.80511
O 2.27863 2.54702 2.96549
O 4.79257 6.90119 2.96549
O 1.68269 0.699977 1.12586
O 4.19648 5.05415 1.12586
O 1.06639 3.247 0.713764
O 3.58032 7.60117 0.713764
O 2.27863 6.16133 2.55339
O 4.79257 1.80716 2.55339
O 1.68269 8.00855 4.39302
O 4.19648 3.65437 4.39302
Si 5.1419 4.35417 0
Si 7.65583 0 0
Si 6.22759 6.63019 3.67925
Si 8.74153 2.27601 3.67925
Si 6.22759 2.07816 1.83963
Si 8.74153 6.43234 1.83963
O 6.09426 5.46135 4.80511
O 8.60804 1.10718 4.80511
O 7.3065 2.54702 2.96549
O 9.82028 6.90119 2.96549
O 6.71041 0.699977 1.12586
O 9.22434 5.05415 1.12586
O 6.09426 3.247 0.713764
O 8.60804 7.60117 0.713764
O 7.3065 6.16133 2.55339
O 9.82028 1.80716 2.55339
O 6.71041 8.00855 4.39302
O 9.22434 3.65437 4.39302
Si 10.1698 4.35417 0
Si 12.6835 0 0
Si 11.2555 6.63019 3.67925
Si 13.7692 2.27601 3.67925
Si 11.2555 2.07816 1.83963
Si 13.7692 6.43234 1.83963
O 11.122 5.46135 4.80511
O 13.6359 1.10718 4.80511
O 12.3342 2.54702 2.96549
O 14.8482 6.90119 2.96549
O 11.7381 0.699977 1.12586
O 14.2521 5.05415 1.12586
O 11.122 3.247 0.713764
O 13.6359 7.60117 0.713764
O 12.3342 6.16133 2.55339
O 14.8482 1.80716 2.55339
O 11.7381 8.00855 4.39302
O 14.2521 3.65437 4.39302
Si 0.114181 13.0625 0
Si 2.62811 8.70835 0
Si 1.19988 15.3385 3.67925
Si 3.71381 10.9844 3.67925
Si 1.19988 10.7865 1.83963
Si 3.71381 15.1407 1.83963
O 1.06639 14.1697 4.80511
O 3.58032 9.81553 4.80511
O 2.27863 11.2554 2.96549
O 4.79257 15.6095 2.96549
O 1.68269 9.40833 1.12586
O 4.19648 13.7625 1.12586
O 1.06639 11.9553 0.713764
O 3.58032 16.3095 0.713764
O 2.27863 14.8697 2.55339
O 4.79257 10.5155 2.55339
O 1.68269 16.7169 4.39302
O 4.19648 12.3627 4.39302
Si 5.1419 13.0625 0
Si 7.65583 8.70835 0
Si 6.22759 15.3385 3.67925
Si 8.74153 10.9844 3.67925
Si 6.22759 10.7865 1.83963
Si 8.74153 15.1407 1.83963
O 6.09426 14.1697 4.80511
O 8.60804 9.81553 4.80511
O 7.3065 11.2554 2.96549
O 9.82028 15.6095 2.96549
O 6.71041 9.40833 1.12586
O 9.22434 13.7625 1.12586
O 6.09426 11.9553 0.713764
O 8.60804 16.3095 0.713764
O 7.3065 14.8697 2.55339
O 9.82028 10.5155 2.55339
O 6.71041 16.7169 4.39302
O 9.22434 12.3627 4.39302
Si 10.1698 13.0625 0
Si 12.6835 8.70835 0
Si 11.2555 15.3385 3.67925
Si 13.7692 10.9844 3.67925
Si 11.2555 10.7865 1.83963
Si 13.7692 15.1407 1.83963
O 11.122 14.1697 4.80511
O 13.6359 9.81553 4.80511
O 12.3342 11.2554 2.96549
O 14.8482 15.6095 2.96549
O 11.7381 9.40833 1.12586
O 14.2521 13.7625 1.12586
O 11.122 11.9553 0.713764
O 13.6359 16.3095 0.713764
O 12.3342 14.8697 2.55339
O 14.8482 10.5155 2.55339
O 11.7381 16.7169 4.39302
O 14.2521 12.3627 4.39302
Si 0.114181 4.35417 5.51888
Si 2.62811 0 5.51888
Si 1.19988 6.63019 9.1983
Si 3.71381 2.27601 9.1983
Si 1.19988 2.07816 7.3585
Si 3.71381 6.43234 7.3585
O 1.06639 5.46135 10.3242
O 3.58032 1.10718 10.3242
O 2.27863 2.54702 8.48437
O 4.79257 6.90119 8.48437
O 1.68269 0.699977 6.64474
O 4.19648 5.05415 6.64474
O 1.06639 3.247 6.23264
O 3.58032 7.60117 6.23264
O 2.27863 6.16133 8.07243
O 4.79257 1.80716 8.07243
O 1.68269 8.00855 9.91206
O 4.19648 3.65437 9.91206
Si 5.1419 4.35417 5.51888
Si 7.65583 0 5.51888
Si 6.22759 6.63019 9.1983
Si 8.74153 2.27601 9.1983
Si 6.22759 2.07816 7.3585
Si 8.74153 6.43234 7.3585
O 6.09426 5.46135 10.3242
O 8.60804 1.10718 10.3242
O 7.3065 2.54702 8.48437
O 9.82028 6.90119 8.48437
O 6.71041 0.699977 6.64474
O 9.22434 5.05415 6.64474
O 6.09426 3.247 6.23264
O 8.60804 7.60117 6.23264
O 7.3065 6.16133 8.07243
O 9.82028 1.80716 8.07243
O 6.71041 8.00855 9.91206
O 9.22434 3.65437 9.91206
Si 10.1698 4.35417 5.51888
Si 12.6835 0 5.51888
Si 11.2555 6.63019 9.1983
Si 13.7692 2.27601 9.1983
Si 11.2555 2.07816 7.3585
Si 13.7692 6.43234 7.3585
O 11.122 5.46135 10.3242
O 13.6359 1.10718 10.3242
O 12.3342 2.54702 8.48437
O 14.8482 6.90119 8.48437
O 11.7381 0.699977 6.64474
O 14.2521 5.05415 6.64474
O 11.122 3.247 6.23264
O 13.6359 7.60117 6.23264
O 12.3342 6.16133 8.07243
O 14.8482 1.80716 8.07243
O 11.7381 8.00855 9.91206
O 14.2521 3.65437 9.91206
Si 0.114181 13.0625 5.51888
Si 2.62811 8.70835 5.51888
Si 1.19988 15.3385 9.1983
Si 3.71381 10.9844 9.1983
Si 1.19988 10.7865 7.3585
Si 3.71381 15.1407 7.3585
O 1.06639 14.1697 10.3242
O 3.58032 9.81553 10.3242
O 2.27863 11.2554 8.48437
O 4.79257 15.6095 8.48437
O 1.68269 9.40833 6.64474
O 4.19648 13.7625 6.64474
O 1.06639 11.9553 6.23264
O 3.58032 16.3095 6.23264
O 2.27863 14.8697 8.07243
O 4.79257 10.5155 8.07243
O 1.68269 16.7169 9.91206
O 4.19648 12.3627 9.91206
Si 5.1419 13.0625 5.51888
Si 7.65583 8.70835 5.51888
Si 6.22759 15.3385 9.1983
Si 8.74153 10.9844 9.1983
Si 6.22759 10.7865 7.3585
Si 8.74153 15.1407 7.3585
O 6.09426 14.1697 10.3242
O 8.60804 9.81553 10.3242
O 7.3065 11.2554 8.48437
O 9.82028 15.6095 8.48437
O 6.71041 9.40833 6.64474
O 9.22434 13.7625 6.64474
O 6.09426 11.9553 6.23264
O 8.60804 16.3095 6.23264
O 7.3065 14.8697 8.07243
O 9.82028 10.5155 8.07243
O 6.71041 16.7169 9.91206
O 9.22434 12.3627 9.91206
Si 10.1698 13.0625 5.51888
Si 12.6835 8.70835 5.51888
Si 11.2555 15.3385 9.1983
Si 13.7692 10.9844 9.1983
Si 11.2555 10.7865 7.3585
Si 13.7692 15.1407 7.3585
O 11.122 14.1697 10.3242
O 13.6359 9.81553 10.3242
O 12.3342 11.2554 8.48437
O 14.8482 15.6095 8.48437
O 11.7381 9.40833 6.64474
O 14.2521 13.7625 6.64474
O 11.122 11.9553 6.23264
O 13.6359 16.3095 6.23264
O 12.3342 14.8697 8.07243
O 14.8482 10.5155 8.07243
O 11.7381 16.7169 9.91206
O 14.2521 12.3627 9.91206
Si 0.114181 4.35417 11.0379
Si 2.62811 0 11.0379
Si 1.19988 6.63019 14.7172
Si 3.71381 2.27601 14.7172
Si 1.19988 2.07816 12.8775
Si 3.71381 6.43234 12.8775
O 1.06639 5.46135 15.843
O 3.58032 1.10718 15.843
O 2.27863 2.54702 14.0034
O 4.79257 6.90119 14.0034
O 1.68269 0.699977 12.1638
O 4.19648 5.05415 12.1638
O 1.06639 3.247 11.7517
O 3.58032 7.60117 11.7517
O 2.27863 6.16133 13.5913
O 4.79257 1.80716 13.5913
O 1.68269 8.00855 15.4309
O 4.19648 3.65437 15.4309
Si 5.1419 4.35417 11.0379
Si 7.65583 0 11.0379
Si 6.22759 6.63019 14.7172
Si 8.74153 2.27601 14.7172
Si 6.22759 2.07816 12.8775
Si 8.74153 6.43234 12.8775
O 6.09426 5.46135 15.843
O 8.60804 1.10718 15.843
O 7.3065 2.54702 14.0034
O 9.82028 6.90119 14.0034
O 6.71041 0.699977 12.1638
O 9.22434 5.05415 12.1638
O 6.09426 3.247 11.7517
O 8.60804 7.60117 11.7517
O 7.3065 6.16133 13.5913
O 9.82028 1.80716 13.5913
O 6.71041 8.00855 15.4309
O 9.22434 3.65437 15.4309
Si 10.1698 4.35417 11.0379
Si 12.6835 0 11.0379
Si 11.2555 6.63019 14.7172
Si 13.7692 2.27601 14.7172
Si 11.2555 2.07816 12.8775
Si 13.7692 6.43234 12.8775
O 11.122 5.46135 15.843
O 13.6359 1.10718 15.843
O 12.3342 2.54702 14.0034
O 14.8482 6.90119 14.0034
O 11.7381 0.699977 12.1638
O 14.2521 5.05415 12.1638
O 11.122 3.247 11.7517
O 13.6359 7.60117 11.7517
O 12.3342 6.16133 13.5913
O 14.8482 1.80716 13.5913
O 11.7381 8.00855 15.4309
O 14.2521 3.65437 15.4309
Si 0.114181 13.0625 11.0379
Si 2.62811 8.70835 11.0379
Si 1.19988 15.3385 14.7172
Si 3.71381 10.9844 14.7172
Si 1.19988 10.7865 12.8775
Si 3.71381 15.1407 12.8775
O 1.06639 14.1697 15.843
O 3.58032 9.81553 15.843
O 2.27863 11.2554 14.0034
O 4.79257 15.6095 14.0034
O 1.68269 9.40833 12.1638
O 4.19648 13.7625 12.1638
O 1.06639 11.9553 11.7517
O 3.58032 16.3095 11.7517
O 2.27863 14.8697 13.5913
O 4.79257 10.5155 13.5913
O 1.68269 16.7169 15.4309
O 4.19648 12.3627 15.4309
Si 5.1419 13.0625 11.0379
Si 7.65583 8.70835 11.0379
Si 6.22759 15.3385 14.7172
Si 8.74153 10.9844 14.7172
Si 6.22759 10.7865 12.8775
Si 8.74153 15.1407 12.8775
O 6.09426 14.1697 15.843
O 8.60804 9.81553 15.843
O 7.3065 11.2554 14.0034
O 9.82028 15.6095 14.0034
O 6.71041 9.40833 12.1638
O 9.22434 13.7625 12.1638
O 6.09426 11.9553 11.7517
O 8.60804 16.3095 11.7517
O 7.3065 14.8697 13.5913
O 9.82028 10.5155 13.5913
O 6.71041 16.7169 15.4309
O 9.22434 12.3627 15.4309
Si 10.1698 13.0625 11.0379
Si 12.6835 8.70835 11.0379
Si 11.2555 15.3385 14.7172
Si 13.7692 10.9844 14.7172
Si 11.2555 10.7865 12.8775
Si 13.7692 15.1407 12.8775
O 11.122 14.1697 15.843
O 13.6359 9.81553 15.843
O 12.3342 11.2554 14.0034
O 14.8482 15.6095 14.0034
O 11.7381 9.40833 12.1638
O 14.2521 13.7625 12.1638
O 11.122 11.9553 11.7517
O 13.6359 16.3095 11.7517
O 12.3342 14.8697 13.5913
O 14.8482 10.5155 13.5913
O 11.7381 16.7169 15.4309
O 14.2521 12.3627 15.4309
324
 Atoms. Timestep: 1
Si 0.106901 4.35426 0.000104705
Si 2.62073 8.26773e-05 0.000104709
Si 1.20342 6.62388 3.67949
Si 3.71692 2.26963 3.67936
Si 1.20336 2.08472 1.83951
Si 3.71686 6.43898 1.83965
O 1.08088 5.46157 4.81443
O 3.59484 1.10742 4.81439
O 2.27206 2.55951 2.97527
O 4.78562 6.9137 2.97511
O 1.67546 0.687477 1.13528
O 4.18931 5.04154 1.13523
O 1.08082 3.24687 0.704445
O 3.59478 7.60101 0.704482
O 2.27203 6.14888 2.54366
O 4.78559 1.79468 2.54382
O 1.67523 8.02059 4.38333
O 4.18909 3.66653 4.38338
Si 5.13491 4.35426 0.000104706
Si 7.64855 8.2675e-05 0.000104707
Si 6.23146 6.62386 3.67938
Si 8.74507 2.26971 3.67949
Si 6.2314 2.08474 1.83962
Si 8.74501 6.4389 1.83951
O 6.10852 5.46138 4.81453
O 8.62253 1.10739 4.81443
O 7.29931 2.5595 2.97496
O 9.81371 6.91368 2.97527
O 6.70312 0.687483 1.13531
O 9.21711 5.04165 1.13528
O 6.10845 3.24705 0.704346
O 8.62247 7.60104 0.704445
O 7.29929 6.14889 2.54397
O 9.81368 1.7947 2.54366
O 6.7029 8.02058 4.38329
O 9.21688 3.66641 4.38333
Si 10.1624 4.35426 0.000104705
Si 12.6766 8.26747e-05 0.000104704
Si 11.2586 6.6238 3.67936
Si 13.7731 2.26968 3.67938
Si 11.2585 2.0848 1.83965
Si 13.773 6.43892 1.83962
O 11.1365 5.4616 4.81439
O 13.6502 1.10721 4.81453
O 12.3273 2.55953 2.97511
O 14.841 6.91367 2.97496
O 11.731 0.687362 1.13523
O 14.2448 5.04166 1.13531
O 11.1364 3.24684 0.704482
O 13.6501 7.60123 0.704346
O 12.3272 6.14886 2.54382
O 14.8409 1.79472 2.54397
O 11.7307 8.0207 4.38338
O 14.2445 3.6664 4.38329
Si 0.106901 13.0626 0.000104706
Si 2.62073 8.70843 0.000104707
Si 1.20342 15.3322 3.67949
Si 3.71692 10.978 3.67936
Si 1.20336 10.7931 1.83951
Si 3.71686 15.1473 1.83965
O 1.08088 14.1699 4.81443
O 3.59484 9.81577 4.81439
O 2.27206 11.2679 2.97527
O 4.78562 15.6221 2.97511
O 1.67546 9.39583 1.13528
O 4.18931 13.7499 1.13523
O 1.08082 11.9552 0.704445
O 3.59478 16.3094 0.704482
O 2.27203 14.8572 2.54366
O 4.78559 10.503 2.54382
O 1.67523 16.7289 4.38333
O 4.18909 12.3749 4.38338
Si 5.13491 13.0626 0.000104706
Si 7.64855 8.70843 0.000104707
Si 6.23146 15.3322 3.67938
Si 8.74507 10.9781 3.67949
Si 6.2314 10.7931 1.83962
Si 8.74501 15.1472 1.83951
O 6.10852 14.1697 4.81453
O 8.62253 9.81574 4.81443
O 7.29931 11.2678 2.97496
O 9.81371 15.622 2.97527
O 6.70312 9.39583 1.13531
O 9.21711 13.75 1.13528
O 6.10845 11.9554 0.704346
O 8.62247 16.3094 0.704445
O 7.29929 14.8572 2.54397
O 9.81368 10.5031 2.54366
O 6.7029 16.7289 4.38329
O 9.21688 12.3748 4.38333
Si 10.1624 13.0626 0.000104707
Si 12.6766 8.70843 0.000104705
Si 11.2586 15.3322 3.67936
Si 13.7731 10.978 3.67938
Si 11.2585 10.7932 1.83965
Si 13.773 15.1473 1.83962
O 11.1365 14.1699 4.81439
O 13.6502 9.81556 4.81453
O 12.3273 11.2679 2.97511
O 14.841 15.622 2.97496
O 11.731 9.39571 1.13523
O 14.2448 13.75 1.13531
O 11.1364 11.9552 0.704482
O 13.6501 16.3096 0.704346
O 12.3272 14.8572 2.54382
O 14.8409 10.5031 2.54397
O 11.7307 16.7291 4.38338
O 14.2445 12.3748 4.38329
Si 0.106891 4.35426 5.51898
Si 2.62072 8.91148e-05 5.51898
Si 1.2033 6.62391 9.19838
Si 3.7168 2.26965 9.19825
Si 1.20323 2.0847 7.35854
Si 3.71673 6.43895 7.35868
O 1.08086 5.46159 10.3335
O 3.59482 1.10745 10.3334
O 2.27223 2.55948 8.49427
O 4.7858 6.91368 8.49411
O 1.67544 0.687483 6.65416
O 4.18929 5.04154 6.65411
O 1.0808 3.24685 6.22333
O 3.59476 7.60099 6.22337
O 2.27221 6.1489 8.06257
O 4.78577 1.79471 8.06273
O 1.67521 8.02058 9.90237
O 4.18906 3.66652 9.90242
Si 5.1349 4.35426 5.51898
Si 7.64854 8.91174e-05 5.51898
Si 6.23133 6.62388 9.19827
Si 8.74495 2.26973 9.19838
Si 6.23127 2.08472 7.35866
Si 8.74488 6.43887 7.35854
O 6.1085 5.46141 10.3336
O 8.62251 1.10742 10.3335
O 7.29949 2.55947 8.49396
O 9.81388 6.91366 8.49427
O 6.7031 0.687489 6.65419
O 9.21709 5.04166 6.65416
O 6.10843 3.24703 6.22324
O 8.62245 7.60102 6.22333
O 7.29946 6.14891 8.06289
O 9.81386 1.79473 8.06257
O 6.70287 8.02057 9.90234
O 9.21686 3.6664 9.90237
Si 10.1624 4.35426 5.51898
Si 12.6766 8.91147e-05 5.51898
Si 11.2584 6.62383 9.19825
Si 13.773 2.26971 9.19827
Si 11.2584 2.08478 7.35868
Si 13.7729 6.4389 7.35866
O 11.1365 5.46162 10.3334
O 13.6501 1.10723 10.3336
O 12.3275 2.5595 8.49411
O 14.8411 6.91365 8.49396
O 11.7309 0.687368 6.65411
O 14.2447 5.04166 6.65419
O 11.1364 3.24682 6.22337
O 13.6501 7.60121 6.22324
O 12.3274 6.14888 8.06273
O 14.8411 1.79474 8.06289
O 11.7307 8.02069 9.90242
O 14.2445 3.6664 9.90234
Si 0.106891 13.0626 5.51898
Si 2.62072 8.70844 5.51898
Si 1.2033 15.3323 9.19838
Si 3.7168 10.978 9.19825
Si 1.20323 10.793 7.35854
Si 3.71673 15.1473 7.35868
O 1.08086 14.1699 10.3335
O 3.59482 9.8158 10.3334
O 2.27223 11.2678 8.49427
O 4.7858 15.622 8.49411
O 1.67544 9.39583 6.65416
O 4.18929 13.7499 6.65411
O 1.0808 11.9552 6.22333
O 3.59476 16.3093 6.22337
O 2.27221 14.8573 8.06257
O 4.78577 10.5031 8.06273
O 1.67521 16.7289 9.90237
O 4.18906 12.3749 9.90242
Si 5.1349 13.0626 5.51898
Si 7.64854 8.70844 5.51898
Si 6.23133 15.3322 9.19827
Si 8.74495 10.9781 9.19838
Si 6.23127 10.7931 7.35866
Si 8.74488 15.1472 7.35854
O 6.1085 14.1698 10.3336
O 8.62251 9.81577 10.3335
O 7.29949 11.2678 8.49396
O 9.81388 15.622 8.49427
O 6.7031 9.39584 6.65419
O 9.21709 13.75 6.65416
O 6.10843 11.9554 6.22324
O 8.62245 16.3094 6.22333
O 7.29946 14.8573 8.06289
O 9.81386 10.5031 8.06257
O 6.70287 16.7289 9.90234
O 9.21686 12.3748 9.90237
Si 10.1624 13.0626 5.51898
Si 12.6766 8.70844 5.51898
Si 11.2584 15.3322 9.19825
Si 13.773 10.9781 9.19827
Si 11.2584 10.7931 7.35868
Si 13.7729 15.1472 7.35866
O 11.1365 14.17 10.3334
O 13.6501 9.81558 10.3336
O 12.3275 11.2679 8.49411
O 14.8411 15.622 8.49396
O 11.7309 9.39572 6.65411
O 14.2447 13.75 6.65419
O 11.1364 11.9552 6.22337
O 13.6501 16.3096 6.22324
O 12.3274 14.8572 8.06273
O 14.8411 10.5031 8.06289
O 11.7307 16.729 9.90242
O 14.2445 12.3747 9.90234
Si 0.106891 4.35425 11.038
Si 2.62072 7.62347e-05 11.038
Si 1.20342 6.62388 14.7174
Si 3.71692 2.26963 14.7173
Si 1.20336 2.08472 12.8774
Si 3.71686 6.43898 12.8776
O 1.08088 5.46157 15.8523
O 3.59484 1.10743 15.8523
O 2.27206 2.55951 14.0132
O 4.78562 6.9137 14.013
O 1.67546 0.687476 12.1732
O 4.18932 5.04154 12.1732
O 1.08082 3.24687 11.7424
O 3.59478 7.60102 11.7424
O 2.27203 6.14888 13.5816
O 4.7856 1.79468 13.5817
O 1.67523 8.02058 15.4212
O 4.18909 3.66652 15.4213
Si 5.1349 4.35425 11.038
Si 7.64854 7.62325e-05 11.038
Si 6.23146 6.62386 14.7173
Si 8.74507 2.26971 14.7174
Si 6.2314 2.08474 12.8775
Si 8.74501 6.4389 12.8774
O 6.10852 5.46139 15.8524
O 8.62253 1.1074 15.8523
O 7.29931 2.5595 14.0129
O 9.81371 6.91368 14.0132
O 6.70312 0.687482 12.1732
O 9.21711 5.04165 12.1732
O 6.10845 3.24705 11.7423
O 8.62247 7.60105 11.7424
O 7.29929 6.14889 13.5819
O 9.81368 1.7947 13.5816
O 6.70289 8.02058 15.4212
O 9.21688 3.66641 15.4212
Si 10.1624 4.35425 11.038
Si 12.6766 7.62332e-05 11.038
Si 11.2586 6.6238 14.7173
Si 13.7731 2.26968 14.7173
Si 11.2585 2.0848 12.8776
Si 13.773 6.43892 12.8775
O 11.1365 5.4616 15.8523
O 13.6502 1.10721 15.8524
O 12.3273 2.55953 14.013
O 14.841 6.91367 14.0129
O 11.731 0.687361 12.1732
O 14.2448 5.04166 12.1732
O 11.1364 3.24684 11.7424
O 13.6501 7.60123 11.7423
O 12.3272 6.14886 13.5817
O 14.8409 1.79472 13.5819
O 11.7307 8.0207 15.4213
O 14.2445 3.6664 15.4212
Si 0.106891 13.0626 11.038
Si 2.62072 8.70843 11.038
Si 1.20342 15.3322 14.7174
Si 3.71692 10.978 14.7173
Si 1.20336 10.7931 12.8774
Si 3.71686 15.1473 12.8776
O 1.08088 14.1699 15.8523
O 3.59484 9.81578 15.8523
O 2.27206 11.2679 14.0132
O 4.78562 15.6221 14.013
O 1.67546 9.39583 12.1732
O 4.18932 13.7499 12.1732
O 1.08082 11.9552 11.7424
O 3.59478 16.3094 11.7424
O 2.27203 14.8572 13.5816
O 4.7856 10.503 13.5817
O 1.67523 16.7289 15.4212
O 4.18909 12.3749 15.4213
Si 5.1349 13.0626 11.038
Si 7.64854 8.70843 11.038
Si 6.23146 15.3322 14.7173
Si 8.74507 10.9781 14.7174
Si 6.2314 10.7931 12.8775
Si 8.74501 15.1472 12.8774
O 6.10852 14.1697 15.8524
O 8.62253 9.81575 15.8523
O 7.29931 11.2678 14.0129
O 9.81371 15.622 14.0132
O 6.70312 9.39583 12.1732
O 9.21711 13.75 12.1732
O 6.10845 11.9554 11.7423
O 8.62247 16.3094 11.7424
O 7.29929 14.8572 13.5819
O 9.81368 10.5031 13.5816
O 6.70289 16.7289 15.4212
O 9.21688 12.3748 15.4212
Si 10.1624 13.0626 11.038
Si 12.6766 8.70843 11.038
Si 11.2586 15.3322 14.7173
Si 13.7731 10.978 14.7173
Si 11.2585 10.7932 12.8776
Si 13.773 15.1473 12.8775
O 11.1365 14.17 15.8523
O 13.6502 9.81556 15.8524
O 12.3273 11.2679 14.013
O 14.841 15.622 14.0129
O 11.731 9.39571 12.1732
O 14.2448 13.75 12.1732
O 11.1364 11.9552 11.7424
O 13.6501 16.3096 11.7423
O 12.3272 14.8572 13.5817
O 14.8409 10.5031 13.5819
O 11.7307 16.729 15.4213
O 14.2445 12.3748 15.4212
324
 Atoms. Timestep: 500
Si 0.104511 4.45976 0.105309
Si 2.68444 17.2908 0.27801
Si 1.08706 6.60142 3.72811
Si 3.99574 2.23219 3.77134
Si 1.40685 2.31404 1.86274
Si 3.67745 6.26452 1.93133
O 1.02943 5.48319 4.925
O 3.84732 0.94037 4.83096
O 2.70492 2.55776 2.85771
O 4.78845 6.69027 3.03044
O 1.66926 0.769427 1.18238
O 4.05083 4.91296 1.18717
O 1.19659 3.65448 1.02098
O 3.23918 7.40967 0.83478
O 2.33319 5.99792 2.84347
O 5.09066 1.7701 2.67534
O 1.34646 8.06269 4.40717
O 4.34416 3.65201 4.69085
Si 4.97114 4.44287 16.2079
Si 7.76957 0.170816 16.3294
Si 6.23909 6.64489 3.78964
Si 8.59816 2.27387 3.63245
Si 6.2821 2.34877 1.72332
Si 8.80169 6.61597 1.77898
O 6.36352 5.31593 4.89786
O 8.18768 0.728018 4.09875
O 7.35394 3.02614 2.70842
O 9.87066 7.25266 2.82784
O 6.88049 0.983444 1.06403
O 9.33659 5.13524 1.14619
O 5.99082 3.34592 0.516089
O 8.47018 7.62279 0.566359
O 7.60414 6.35545 2.90027
O 9.71739 2.00141 2.55595
O 6.51914 8.16868 4.28634
O 8.90617 3.47127 4.62991
Si 10.0667 4.35195 16.3025
Si 12.6403 0.103962 0.110606
Si 11.1851 6.71279 3.70281
Si 13.7838 2.43439 3.75121
Si 11.152 2.24207 1.80752
Si 13.4798 6.27616 1.79417
O 10.6202 5.59228 4.80392
O 13.8142 0.983726 4.67961
O 12.4259 2.53714 2.87135
O 14.6529 6.65815 2.90246
O 11.7253 0.77877 1.17672
O 13.8412 4.88218 1.03193
O 11.2379 3.37865 0.645385
O 13.3641 7.40449 0.707992
O 12.1425 5.80119 2.70735
O 0.0715801 2.12116 2.79545
O 11.9668 7.86671 4.47076
O 13.8743 3.89237 4.5608
Si 0.100688 12.9127 0.188873
Si 2.69767 8.7182 0.110586
Si 1.05219 15.3448 3.80856
Si 3.8419 11.0238 3.64327
Si 1.43074 10.8951 1.97203
Si 3.50223 14.8763 2.00217
O 1.07399 14.4404 5.24945
O 3.52998 9.71069 4.65756
O 2.3558 11.5358 3.23077
O 4.50083 15.225 3.23964
O 2.19512 9.604 1.28664
O 3.7098 13.671 0.933166
O 1.24576 11.8552 0.703055
O 3.48505 16.3779 1.36019
O 2.05042 14.5715 2.68444
O 4.87835 10.5114 2.53711
O 1.65953 16.8096 4.12907
O 4.2505 12.2082 4.65892
Si 5.09468 13.1168 0.113333
Si 7.66503 8.70148 16.2588
Si 6.02697 15.0115 3.61895
Si 8.9776 10.764 3.55198
Si 6.34704 10.8272 1.735
Si 8.64015 15.2162 1.98221
O 6.43327 13.6185 4.45399
O 8.71898 9.63372 4.72897
O 7.64019 11.1774 2.73694
O 9.64106 15.5373 3.11639
O 6.52154 9.32399 1.10972
O 9.08139 13.7389 1.24704
O 6.16355 12.1952 0.824653
O 8.55042 16.3483 0.788781
O 7.15205 15.1608 2.49732
O 10.0484 10.0301 2.6458
O 6.17365 16.3022 4.64598
O 9.4711 12.3133 4.02059
Si 10.3233 13.106 0.264867
Si 12.6816 8.60235 16.2357
Si 11.1264 15.4077 3.63715
Si 13.9063 10.8157 3.7415
Si 11.4058 10.7168 1.8984
Si 13.5355 14.9139 1.85944
O 11.4158 14.1941 4.75885
O 13.9006 9.74913 4.9321
O 12.383 11.0244 3.16038
O 14.5469 15.3701 3.01225
O 11.804 9.45229 0.962247
O 14.085 13.4817 1.36413
O 11.3196 12.0528 1.0381
O 13.8164 16.1533 0.685254
O 12.0494 14.7112 2.45259
O 14.7801 10.401 2.47271
O 11.5029 16.9568 4.16353
O 14.4456 12.3051 4.27216
Si 0.173265 4.3399 5.66635
Si 2.55167 17.2414 5.33237
Si 1.0701 6.69919 9.34017
Si 3.81201 2.25848 9.26997
Si 1.25145 1.85153 7.29162
Si 3.65483 6.68927 7.36728
O 1.14209 5.60356 10.5489
O 3.9121 1.09201 10.4631
O 2.4374 2.48685 8.32989
O 4.82781 7.13773 8.62086
O 1.36277 0.476796 6.50064
O 4.26726 5.25602 6.73088
O 1.16741 3.04984 6.15404
O 3.4003 7.72271 6.21564
O 2.30467 6.32514 8.23856
O 5.03906 1.91696 8.30559
O 1.43242 8.18861 10.0487
O 3.88379 3.83375 9.86776
Si 5.20815 4.45974 5.79811
Si 7.37799 17.1264 5.3331
Si 6.19743 6.65959 9.39188
Si 8.89191 2.14905 9.33582
Si 6.34836 2.05792 7.55349
Si 8.64418 6.40112 7.3969
O 6.06822 5.52766 10.4482
O 8.86976 0.951143 10.2959
O 7.4096 2.26344 8.69401
O 9.52954 7.21193 8.57297
O 6.89978 0.931439 6.55466
O 9.27716 4.90885 7.10122
O 6.22685 3.4573 6.6361
O 8.41593 7.16542 6.03676
O 7.18605 6.20055 8.12965
O 9.75988 1.84305 7.93871
O 6.77176 8.1044 9.90117
O 9.26949 3.55059 10.0556
Si 10.0624 4.39027 5.61055
Si 12.5864 0.101098 5.43603
Si 11.0562 6.87643 9.20813
Si 13.7876 2.41299 9.25542
Si 11.2243 2.25561 7.39426
Si 13.5436 6.28287 7.45853
O 11.0869 5.5195 10.1569
O 13.9342 1.3199 10.5067
O 12.3064 2.65933 8.68667
O 14.5453 6.64093 8.68275
O 11.6853 0.655055 6.75618
O 14.1663 4.84165 6.89454
O 11.1252 3.29249 6.21296
O 13.7359 7.40929 6.24464
O 12.1033 6.44481 8.00221
O 14.7717 1.82509 8.16686
O 11.7417 7.9908 10.0763
O 14.319 3.84423 9.93905
Si 0.278321 13.0011 5.46697
Si 2.46603 8.71006 5.42305
Si 1.43082 15.235 8.90025
Si 3.95591 10.8078 8.99714
Si 1.29381 10.9726 7.40898
Si 4.02765 15.1135 7.30561
O 1.12125 14.4002 10.2764
O 3.83971 9.60629 10.0457
O 2.60275 11.493 8.37646
O 5.2093 15.7525 8.2493
O 1.81886 9.59666 6.67359
O 4.79924 13.7494 6.57174
O 1.25836 12.133 6.37125
O 3.34881 15.9841 5.99028
O 2.8176 14.6828 8.19195
O 5.04606 10.3471 7.86868
O 1.86025 16.6478 9.58845
O 4.41942 12.2685 9.72342
Si 5.45394 12.8386 5.51822
Si 7.69519 8.43373 5.36909
Si 6.46601 15.1795 9.06546
Si 9.01634 10.9443 9.30206
Si 6.56966 10.5368 7.30756
Si 8.85548 15.1055 7.16795
O 6.20663 14.0351 10.3367
O 8.98003 9.82648 10.5128
O 7.56325 10.9386 8.56375
O 9.94032 15.388 8.51351
O 7.12391 9.20248 6.61108
O 9.34817 13.6823 6.40048
O 6.45807 11.6366 6.09128
O 8.37388 16.1558 6.10961
O 7.50648 14.7549 7.97282
O 9.94527 10.7447 7.83622
O 7.02483 16.4027 9.9673
O 9.17914 12.4993 9.69439
Si 10.4083 12.9511 5.30911
Si 12.8313 8.75674 5.56062
Si 11.2932 15.2118 9.40546
Si 13.7543 10.9069 9.44122
Si 11.4853 10.9288 7.364
Si 13.5221 14.9677 7.16299
O 11.2792 14.0903 10.5332
O 13.4372 9.8591 10.7431
O 12.32 11.0073 8.71568
O 0.186911 15.3274 7.77181
O 12.0114 9.47755 6.74185
O 13.9246 13.5964 6.35652
O 11.5272 11.9291 5.96593
O 13.4091 16.1696 6.0698
O 12.2595 14.6067 8.27731
O 14.826 10.6986 8.1895
O 11.9227 16.5628 10.0798
O 14.2251 12.4348 10.0233
Si 0.215022 4.5022 11.2068
Si 2.61861 17.1819 10.8956
Si 0.880154 6.89126 14.8572
Si 3.76689 2.19926 14.4913
Si 1.12444 1.90957 12.8351
Si 3.28279 6.57945 12.7776
O 0.85136 5.75746 15.9997
O 3.62242 1.25102 15.9079
O 2.37096 2.17175 13.8143
O 4.47515 7.05425 13.9206
O 1.66474 0.429922 12.0494
O 3.95911 5.32198 12.1487
O 1.24911 3.34119 11.7608
O 3.36032 7.81748 11.6973
O 1.87884 6.4815 13.6382
O 4.7532 1.7144 13.305
O 1.39599 8.26623 15.5221
O 4.27579 3.68678 14.8519
Si 4.83095 4.48176 11.0353
Si 7.92256 17.223 11.0564
Si 5.96105 6.85129 14.4676
Si 8.7175 2.3742 14.5438
Si 6.24228 2.13147 12.6612
Si 8.5828 6.55065 12.8847
O 5.6111 5.77335 15.6542
O 8.88029 1.17843 15.7477
O 7.32147 2.30474 13.8301
O 9.63153 7.14551 14.0786
O 6.88936 1.06498 11.6909
O 9.25524 5.27664 12.081
O 5.93027 3.45318 11.7105
O 8.59187 7.71516 11.6839
O 7.01779 6.22931 13.3641
O 9.85357 2.31667 13.367
O 6.54181 8.13949 15.2367
O 9.08106 3.8338 15.3292
Si 10.1819 4.53319 11.0788
Si 12.7663 0.296513 11.2381
Si 11.0872 6.81906 14.5907
Si 13.6365 2.28507 14.7783
Si 11.3189 2.42741 12.8381
Si 13.5871 6.44159 12.9228
O 10.8717 5.59641 15.6413
O 13.6034 1.26979 16.0556
O 12.2354 2.37252 14.0743
O 14.2751 7.03887 14.2346
O 11.5531 1.07181 11.987
O 14.0311 4.98176 12.3325
O 11.3513 3.85885 12.1011
O 13.7861 7.56496 11.8254
O 12.0059 6.37603 13.3311
O 14.65 1.73519 13.6913
O 11.3941 8.09291 15.4819
O 14.2485 3.73496 15.2047
Si 0.287567 13.1937 11.0371
Si 2.59017 8.92996 10.839
Si 1.35794 15.2525 14.8008
Si 3.69976 10.8347 14.5668
Si 1.31971 11.1856 12.9372
Si 3.60316 14.9368 12.6134
O 1.05209 14.0459 15.8368
O 3.73604 9.65409 15.686
O 2.10109 11.321 14.3837
O 4.719 15.5868 13.749
O 1.72208 9.75524 12.0233
O 4.12576 13.4863 12.0088
O 1.49125 12.3184 11.7601
O 3.59593 16.0628 11.5416
O 2.25926 14.5552 13.5213
O 4.79843 10.3581 13.4246
O 2.23029 16.5345 15.3381
O 4.22031 12.336 15.2323
Si 5.29234 12.8972 10.9986
Si 7.72508 8.74877 11.0159
Si 6.03214 15.3716 14.6779
Si 8.6981 11.2161 14.7622
Si 6.23539 10.748 12.868
Si 8.60185 14.9266 13.0758
O 5.95273 14.5086 15.9449
O 8.18032 10.2087 16.0016
O 7.34422 11.5473 13.8335
O 9.70813 15.1625 14.1992
O 6.77185 9.2581 12.3462
O 9.14917 13.584 12.2648
O 6.49469 11.9451 11.6178
O 8.59442 16.2204 12.152
O 7.15091 14.6328 13.7057
O 9.66377 10.3534 13.832
O 6.72227 16.8272 15.0556
O 9.42385 12.4462 15.5281
Si 10.0913 13.0153 11.1422
Si 12.5802 8.57399 11.2234
Si 11.1222 15.3403 14.7937
Si 13.8401 10.8931 14.52
Si 11.12 10.6127 13.0182
Si 13.6508 15.2502 13.1746
O 11.3785 14.3064 16.0296
O 13.9656 9.47897 15.4732
O 12.2421 11.0808 14.0623
O 14.7696 15.7968 14.2624
O 11.4598 9.15555 12.2577
O 14.2968 13.9071 12.333
O 11.0624 11.6838 11.6706
O 13.5348 16.509 12.2034
O 12.136 14.763 13.6225
O 14.7701 10.7641 13.2171
O 11.6906 16.8973 15.2103
O 14.1498 12.0865 15.5004
324
 Atoms. Timestep: 1000
Si 0.549146 4.39315 16.2341
Si 3.03316 16.889 0.491324
Si 1.28909 6.55468 3.76324
Si 3.90457 2.41007 3.75611
Si 1.51113 2.10752 1.96964
Si 3.74347 6.38315 1.64455
O 1.35223 5.49076 5.09053
O 3.95045 1.01057 4.56558
O 2.32719 2.80496 3.27533
O 4.80069 7.17833 2.80614
O 2.1708 0.552431 1.78649
O 4.22872 4.88851 1.26719
O 1.53852 3.25356 0.885167
O 3.6748 7.36749 0.337292
O 2.28438 6.13448 2.4262
O 4.8581 2.18955 2.51962
O 1.87382 8.05475 4.17825
O 4.30061 3.5937 4.67883
Si 5.13187 4.28263 16.1445
Si 7.77086 0.187501 16.1961
Si 6.07553 6.71107 3.80864
Si 8.79377 2.38066 3.92087
Si 6.3757 2.22333 1.89989
Si 8.48767 6.34988 2.22871
O 5.66013 5.79009 5.10792
O 8.28388 0.98045 4.67384
O 7.43331 2.84382 2.92103
O 9.22294 7.2471 3.36099
O 7.16535 0.828659 1.52568
O 9.63552 5.24683 1.56561
O 6.13472 3.18733 0.594923
O 8.0587 7.2722 0.920794
O 7.14428 5.78557 2.94424
O 10.008 1.70614 2.95277
O 6.63201 8.145 4.28994
O 9.1857 3.55302 4.88196
Si 10.0897 4.43433 0.228426
Si 12.706 0.428047 16.2474
Si 10.9969 6.88357 3.76097
Si 13.5146 2.645 3.68885
Si 11.2286 2.15585 2.03758
Si 13.5576 6.41853 2.00812
O 10.6863 5.54897 4.7951
O 13.2929 1.28077 4.56553
O 12.265 3.00646 2.85502
O 14.4481 6.88301 3.29809
O 12.0163 0.808689 1.52918
O 14.2516 5.01581 1.26948
O 10.7314 2.98834 0.726123
O 13.6627 7.42235 0.688962
O 11.9392 6.27159 2.62575
O 14.6754 2.14674 2.55883
O 11.4583 7.94453 4.86044
O 14.0641 3.83175 4.62873
Si 14.9911 12.9968 0.451387
Si 2.9271 8.73399 16.0588
Si 1.13781 15.3444 3.72199
Si 3.73511 11.0429 4.20173
Si 1.37666 10.5189 2.10874
Si 3.76529 14.8191 2.31803
O 1.27048 13.9824 4.74888
O 3.68942 9.72471 5.30812
O 2.14595 11.1165 3.6096
O 4.60833 15.4079 3.54153
O 2.32278 9.44155 1.4101
O 4.3328 13.4683 1.57021
O 1.22661 11.7623 1.06926
O 4.13818 15.7266 0.959825
O 2.18092 14.9327 2.48499
O 4.65791 10.7775 2.83996
O 1.77496 16.5739 4.65079
O 4.10222 12.3378 5.10199
Si 5.36605 12.8756 0.424928
Si 7.58326 8.73318 16.3776
Si 6.13457 14.9567 3.803
Si 8.79225 10.7262 3.93856
Si 6.19232 10.7786 2.32204
Si 8.43016 15.0035 1.88463
O 6.31376 13.4575 4.4758
O 8.76332 9.59127 5.15057
O 7.20138 10.8613 3.51768
O 9.35933 15.3301 3.07492
O 6.55904 9.59826 1.33167
O 8.67469 13.4908 1.16252
O 6.38751 12.0185 1.21846
O 8.7039 16.0266 0.595361
O 6.87351 15.1621 2.31604
O 9.79113 10.2962 2.77483
O 6.77216 16.0337 4.80962
O 9.02533 12.1732 4.54279
Si 10.0101 12.9809 0.292309
Si 12.7185 8.61729 16.2367
Si 10.8181 15.2009 3.7498
Si 13.5302 10.7218 3.63605
Si 11.1581 10.6724 1.88093
Si 13.3463 15.1763 1.88968
O 10.8184 13.9104 4.80901
O 13.4235 9.74464 4.88413
O 12.1288 11.1799 3.17408
O 14.4167 15.7304 3.08871
O 11.8899 9.39979 1.24166
O 13.8702 13.662 1.45493
O 11.1893 12.007 0.932569
O 13.6824 16.1424 0.647573
O 11.7702 15.1411 2.51493
O 14.4738 10.0767 2.58178
O 11.2519 16.4083 4.70834
O 14.0475 12.1857 4.2598
Si 0.331612 4.46719 5.75222
Si 3.03168 17.1466 5.54999
Si 1.21061 6.81231 9.20648
Si 3.7765 2.7092 9.28853
Si 1.50382 2.23133 7.37317
Si 3.49875 6.258 7.45654
O 1.27369 5.69192 10.4811
O 3.71194 1.55449 10.3184
O 2.30841 3.04173 8.66427
O 4.6186 6.98786 8.52199
O 2.2156 0.961285 6.71096
O 4.16407 4.88758 7.10119
O 1.22677 3.20603 6.16211
O 3.34844 7.18312 6.08834
O 2.08622 6.01877 8.01227
O 4.76952 2.02959 7.968
O 2.1494 8.03002 9.58304
O 4.66091 3.97676 9.67164
Si 5.15253 4.42149 5.83492
Si 7.63246 17.0446 5.80701
Si 6.01404 6.90013 9.35655
Si 8.90019 2.54719 9.06681
Si 6.33084 2.35414 7.59539
Si 8.47434 6.49924 7.4236
O 5.8159 5.95851 10.6568
O 9.04 1.45687 10.4463
O 7.22461 2.72936 8.90503
O 9.46051 7.29078 8.54112
O 6.87767 0.766268 6.99364
O 9.29711 5.17138 7.07047
O 6.38427 3.62882 6.59159
O 8.40785 7.20981 5.96713
O 7.02395 6.60635 8.04001
O 9.81429 2.16963 7.86028
O 6.41011 8.31922 9.9468
O 9.31914 3.95758 9.6766
Si 10.1137 4.45988 5.80703
Si 12.4768 17.2327 5.46685
Si 11.0362 6.89076 9.22604
Si 13.6985 2.48059 9.10317
Si 11.2862 2.25583 7.41885
Si 13.3378 6.33712 7.48062
O 10.887 5.94494 10.5779
O 13.5789 1.46588 10.3971
O 12.1885 2.83866 8.67355
O 14.3317 7.01329 8.7306
O 11.9768 0.952225 6.89693
O 14.1402 4.87059 7.04023
O 11.3627 3.47213 6.29849
O 13.5071 7.39353 6.29171
O 12.0096 6.02467 8.24366
O 14.6572 1.93967 7.90833
O 11.5791 8.30458 9.66196
O 14.3077 3.89902 9.75172
Si 0.347593 12.8379 5.39086
Si 2.67935 8.55548 5.4975
Si 1.65975 15.1392 8.90961
Si 3.80517 11.0473 9.06913
Si 1.28082 10.5162 7.24962
Si 4.08538 14.8549 7.40279
O 1.46161 14.465 10.3624
O 3.94831 9.97697 10.3225
O 2.19752 11.0673 8.52059
O 4.90298 15.737 8.57888
O 1.70641 8.99212 6.74863
O 5.26009 13.7173 7.06884
O 1.41301 11.4973 5.9343
O 3.93077 15.8997 6.15471
O 2.70284 14.256 7.99929
O 4.82434 10.7685 7.83034
O 2.34328 16.5391 9.309
O 4.32221 12.3652 9.94186
Si 5.63801 12.7183 5.73518
Si 7.63476 8.57756 5.50518
Si 6.42193 15.3301 9.13063
Si 8.69772 10.8632 9.21688
Si 6.38505 10.5728 7.35511
Si 8.93532 14.9308 7.34581
O 6.22898 14.5148 10.507
O 8.70062 9.66233 10.2325
O 7.19763 11.1352 8.66123
O 10.135 15.4735 8.18769
O 6.93457 9.07805 6.87748
O 9.22291 13.4337 6.76835
O 6.47803 11.4771 6.04467
O 8.90776 16.2985 6.48177
O 7.38231 14.7537 8.00375
O 9.65374 10.6045 7.87985
O 7.10599 16.8099 9.50053
O 9.30467 12.3108 9.58191
Si 10.1227 12.6647 5.61199
Si 12.6226 8.69733 5.75457
Si 11.4101 15.4137 9.21882
Si 13.6373 11.1051 9.24662
Si 11.1634 10.7159 7.4627
Si 13.6473 14.9544 7.27146
O 11.0156 14.4071 10.5147
O 13.5849 9.87608 10.3099
O 12.0007 11.2413 8.91036
O 0.41117 15.6104 7.94014
O 11.8576 9.2371 7.06682
O 14.095 13.4015 6.70944
O 11.2659 11.7244 6.1108
O 13.4228 16.006 6.11487
O 12.5521 14.6022 8.44203
O 14.4363 10.3997 8.01942
O 11.5188 17.0242 9.64975
O 14.3566 12.5578 9.63439
Si 0.411874 4.39985 11.0577
Si 2.75247 0.216763 10.7823
Si 1.16711 6.94716 14.5561
Si 3.75538 2.14805 14.5877
Si 1.18828 1.90562 12.7661
Si 3.50479 6.37436 12.6256
O 1.41437 5.6313 15.6971
O 3.84594 1.11206 15.8113
O 2.27702 2.05027 13.8032
O 4.60892 7.00444 13.8158
O 1.57063 0.441118 11.738
O 3.83116 4.92499 12.0081
O 1.39587 3.2629 11.7589
O 3.66152 7.49674 11.5228
O 2.10357 6.2827 13.4096
O 4.74205 1.79052 13.3388
O 1.68728 8.34385 15.1032
O 4.29036 3.67307 14.784
Si 5.00174 4.63598 11.0015
Si 7.74227 0.51743 10.9232
Si 6.05248 6.7566 14.4725
Si 8.61503 2.76647 14.5763
Si 6.11721 2.34833 12.778
Si 8.51292 6.26022 12.7304
O 5.85653 5.7184 15.7743
O 8.63842 1.48945 15.5936
O 7.118 3.01688 13.9405
O 9.53859 6.57968 14.1076
O 6.97878 1.23066 12.0613
O 9.12173 4.88948 12.1277
O 5.9217 3.5022 11.6878
O 8.28539 7.29222 11.5436
O 7.05397 6.09901 13.2843
O 9.60401 2.59932 13.3807
O 6.63792 8.09157 15.1647
O 8.84581 4.38925 15.4071
Si 10.1934 4.50292 10.905
Si 12.4938 0.444941 10.926
Si 11.1358 6.59559 14.6493
Si 13.5883 2.63824 14.4053
Si 11.0982 2.33579 12.6413
Si 13.4946 6.31586 12.629
O 11.3304 5.30811 15.7648
O 13.6046 1.65051 15.7108
O 12.1769 2.81472 13.6753
O 14.3229 7.00044 13.917
O 11.6099 0.880368 12.186
O 13.9514 4.7936 12.0789
O 11.3739 3.54726 11.5393
O 13.3893 7.40698 11.417
O 12.0202 6.15939 13.4236
O 14.4048 1.77614 13.2321
O 11.4936 7.85414 15.5373
O 14.4713 3.91359 14.8688
Si 0.48872 13.1709 11
Si 2.84779 8.81133 10.72
Si 1.29955 15.2707 14.5809
Si 4.00274 11.0039 14.3909
Si 1.32084 10.8218 12.7643
Si 3.79245 14.9173 12.6957
O 1.01606 14.0314 15.6036
O 4.09723 9.94655 15.5682
O 2.41457 11.119 13.9988
O 4.86877 15.5712 13.7875
O 1.85092 9.35361 11.9146
O 4.22887 13.5722 12.1211
O 1.41876 11.9438 11.4749
O 3.80281 16.1944 11.5685
O 2.3419 14.625 13.4812
O 4.99796 10.4513 13.0866
O 1.99684 16.5325 15.2777
O 4.46982 12.3144 15.3143
Si 5.45443 13.1106 10.907
Si 7.68657 8.62228 10.8446
Si 6.17673 15.1694 14.614
Si 8.82304 10.8097 14.4512
Si 6.53811 10.8291 12.5788
Si 8.62456 14.8829 12.7305
O 6.32021 14.0459 15.8009
O 8.75196 9.79632 15.9285
O 7.28319 11.152 14.013
O 9.76765 15.6837 13.6287
O 7.27025 9.41553 12.2301
O 9.373 13.4404 12.1962
O 6.62473 12.1467 11.5497
O 8.24352 16.083 11.6252
O 7.37708 14.4815 13.6324
O 9.7337 10.6096 13.2186
O 6.79778 16.6433 14.9603
O 9.37387 12.0517 15.3287
Si 10.1178 13.0797 10.783
Si 12.5039 8.769 10.8645
Si 11.0227 15.3506 14.6008
Si 13.652 10.9668 14.6056
Si 11.3319 10.9735 12.6872
Si 13.4894 15.0813 12.797
O 10.6934 14.3658 15.8993
O 13.7571 9.53106 15.3903
O 12.0436 11.1473 14.1354
O 14.597 15.9256 13.7155
O 11.6587 9.59299 11.939
O 14.1103 13.6102 12.2282
O 11.2661 12.0795 11.4725
O 12.8421 15.8878 11.4656
O 12.2455 14.8187 13.7153
O 14.5123 10.754 13.2195
O 11.6535 16.7279 15.2759
O 13.9354 12.3233 15.4127
324
 Atoms. Timestep: 1500
Si 0.244186 4.64748 16.2284
Si 2.88375 0.403158 15.9115
Si 1.30218 6.72647 3.96483
Si 3.70432 2.6144 3.73372
Si 1.32893 2.36732 2.11065
Si 3.67691 6.53155 2.32458
O 1.47169 5.65369 5.19612
O 3.58569 1.704 5.11883
O 2.12183 2.88007 3.31217
O 4.6694 6.73017 3.61262
O 2.06187 1.09952 1.1196
O 4.19057 5.01456 1.63992
O 1.352 3.68508 1.16755
O 3.75669 7.66707 1.15455
O 2.20606 6.24526 2.73071
O 4.55032 1.78555 2.57314
O 1.87141 8.10361 4.49278
O 4.20581 3.92439 4.36686
Si 5.2433 4.57853 0.417959
Si 7.71761 17.1139 0.502633
Si 6.30243 6.54547 3.89427
Si 8.63752 2.58209 3.8755
Si 6.14296 2.06424 2.18207
Si 8.48374 6.33373 1.98554
O 6.47449 5.37007 5.05657
O 8.49529 1.60763 5.05394
O 6.98187 2.84771 3.41387
O 9.33672 6.76937 3.22184
O 6.57162 0.737121 1.50082
O 8.91815 4.82488 1.39854
O 5.94174 3.19545 0.868914
O 8.66477 7.30183 0.57765
O 6.98403 6.27809 2.40445
O 9.56882 2.15309 2.66118
O 6.55739 7.90256 4.67148
O 9.32997 4.16398 4.27564
Si 9.96946 4.56936 16.2202
Si 12.6022 17.1039 0.333908
Si 10.9885 6.68474 3.72762
Si 13.5739 2.57865 3.86054
Si 11.0669 2.3001 1.97988
Si 13.3831 6.65367 2.07054
O 11.085 5.74291 5.18267
O 13.5414 1.76862 5.31714
O 11.9778 2.60917 3.39189
O 14.3624 7.28293 3.24742
O 11.5659 0.802925 1.48464
O 13.9402 5.30899 1.35036
O 11.0284 3.38662 0.71955
O 13.3383 7.56072 0.639861
O 11.9085 6.00143 2.68559
O 14.4757 1.8927 2.64071
O 11.6622 8.07386 4.07445
O 14.3787 3.91932 4.22147
Si 0.634813 13.082 16.2271
Si 2.81112 8.55305 0.330843
Si 1.38764 15.2144 3.88117
Si 3.8471 10.665 3.65181
Si 1.16759 10.5005 1.96209
Si 3.73453 15.0905 1.8597
O 1.41689 14.0865 4.94903
O 3.93435 9.61202 4.96698
O 2.2627 10.8567 3.1592
O 4.6994 15.2713 3.2036
O 1.42313 9.1081 1.21559
O 4.36288 13.5965 1.50525
O 1.43587 11.6752 0.882365
O 3.71303 15.9779 0.585927
O 2.19021 14.8496 2.50608
O 4.58058 10.0058 2.28296
O 1.97065 16.5558 4.41091
O 4.60812 12.027 4.0295
Si 5.28443 12.8638 0.352518
Si 7.69649 8.64971 16.2047
Si 6.22705 15.2072 3.84811
Si 8.43555 10.9143 3.80138
Si 6.09073 10.319 1.94599
Si 8.82341 15.0166 2.14507
O 6.05648 13.9852 4.84873
O 8.47685 9.88863 5.06193
O 6.89768 11.2271 3.08589
O 9.59055 15.5425 3.58131
O 6.7749 9.04948 1.41887
O 9.37599 13.675 1.361
O 6.06125 11.4815 0.736449
O 8.91335 16.2222 1.00533
O 7.32737 14.7327 2.75264
O 9.34549 10.3689 2.56328
O 6.60155 16.7341 4.23882
O 9.30248 12.1583 4.41719
Si 10.0904 12.9066 16.2411
Si 12.4082 8.72557 16.0866
Si 11.3077 15.1155 4.02797
Si 13.3898 11.0893 3.80273
Si 10.8555 10.4374 1.99303
Si 13.6346 14.846 2.0668
O 11.1053 14.0817 5.24709
O 13.5646 9.91343 5.01997
O 11.8642 10.8512 3.39136
O 14.4357 15.2688 3.48114
O 11.2823 8.97028 1.35759
O 14.1371 13.5142 1.35161
O 11.1771 11.6474 0.813167
O 13.6717 15.8987 0.924062
O 11.9965 14.592 2.58429
O 14.1401 10.5431 2.44697
O 11.9023 16.6944 4.29718
O 13.9968 12.2915 4.65796
Si 0.639808 4.35233 5.65503
Si 2.87265 0.38152 5.64655
Si 1.42404 6.84536 9.06921
Si 3.98549 2.62791 9.33847
Si 1.51456 2.28385 7.45783
Si 3.92339 6.283 7.52882
O 1.5405 5.65903 10.1954
O 3.99872 1.40005 10.2185
O 2.40975 2.72105 8.8251
O 5.05831 6.84743 8.53617
O 2.11229 0.844712 6.9879
O 4.36844 4.97327 6.8142
O 1.48158 3.1087 6.11125
O 3.79067 7.44003 6.36361
O 2.54686 6.1941 8.16877
O 4.76515 2.1196 7.8949
O 1.89701 8.25694 9.69744
O 4.52106 4.19147 9.88024
Si 5.29952 4.31747 5.50818
Si 7.52137 17.1232 5.54585
Si 6.62891 6.51138 9.05791
Si 8.56868 2.74006 9.13569
Si 6.23544 2.19792 7.29602
Si 8.74599 6.32436 7.2991
O 6.45786 5.59405 10.51
O 8.22417 1.67644 10.2878
O 7.40102 3.07843 8.05705
O 9.79693 6.67154 8.49236
O 6.82898 0.714631 6.88823
O 9.22374 4.88488 6.63792
O 6.05726 2.84943 5.78691
O 8.56123 7.70405 6.59
O 7.32706 5.6987 7.72729
O 9.80453 1.95223 8.3852
O 7.2117 7.94621 9.57447
O 9.04925 4.10316 9.85089
Si 10.3034 4.4271 5.5734
Si 12.6568 0.573266 5.59755
Si 11.2711 6.51672 8.99532
Si 13.6294 2.71393 9.10572
Si 11.0474 2.12551 7.2978
Si 13.4792 6.33484 7.07781
O 11.1603 5.51944 10.3316
O 13.6901 1.57538 10.415
O 12.1795 2.6268 8.38793
O 14.4459 6.83637 8.36238
O 11.5654 0.707068 6.90885
O 13.9248 4.77713 6.49393
O 11.1691 3.16523 6.03515
O 13.6725 7.49602 5.88738
O 11.9951 5.76438 7.68601
O 14.4827 2.01776 7.89748
O 11.7535 7.9993 9.6363
O 14.0938 4.11301 9.76219
Si 0.51637 12.9711 5.76
Si 2.87174 8.6179 5.70697
Si 1.50436 15.1799 9.20928
Si 3.62156 11 9.24909
Si 1.43029 10.684 7.37325
Si 3.85664 14.8274 7.30091
O 1.34073 14.0742 10.3015
O 3.49795 10.0656 10.4623
O 2.26418 11.3695 8.58172
O 4.76778 15.5177 8.45382
O 2.13469 9.36019 6.91524
O 4.39401 13.2612 6.81368
O 1.50944 11.7712 6.25286
O 3.87183 15.9055 6.02885
O 2.50714 14.3054 8.13757
O 4.69975 10.2995 8.25452
O 2.35957 16.4583 9.9085
O 4.3106 12.2713 9.80728
Si 5.19389 12.7445 5.49619
Si 7.56547 8.664 5.77163
Si 6.19539 15.4369 9.26865
Si 8.50158 11.1067 9.19556
Si 6.11387 10.5381 7.50332
Si 8.8735 14.9953 7.40137
O 6.04208 14.2398 10.393
O 8.24277 10.2688 10.4963
O 7.05209 11.3565 8.59529
O 10.1162 15.4632 8.25408
O 6.68115 9.1018 6.99212
O 9.13009 13.4265 6.7554
O 6.10527 11.5508 6.1465
O 8.37821 15.9275 6.15187
O 7.40359 14.9878 8.13191
O 9.53463 10.1894 7.96708
O 6.4197 16.6845 10.2316
O 9.20129 12.5318 9.48777
Si 10.037 12.8402 5.66495
Si 12.5751 8.67623 5.47628
Si 11.3821 15.1877 9.23538
Si 13.5543 10.9675 9.11139
Si 10.9104 10.5315 7.35286
Si 13.718 15.0759 7.44559
O 11.2696 13.7155 10.0956
O 13.5767 10.025 10.432
O 12.1128 11.1979 8.53234
O 0.404199 15.6862 8.21974
O 11.3391 9.12535 6.40026
O 14.261 13.6546 6.95985
O 11.0805 11.6414 6.07344
O 13.5006 16.0501 6.16548
O 12.3548 14.7426 8.08082
O 14.6383 10.3856 8.12076
O 11.7273 16.446 10.2358
O 14.1541 12.3952 9.64112
Si 0.563896 4.59171 10.8042
Si 3.0781 0.323909 11.212
Si 1.45299 6.70104 14.4357
Si 3.88561 2.78805 14.5066
Si 1.51722 2.4837 12.7975
Si 3.76406 6.46437 12.7318
O 1.41249 5.54565 15.5657
O 4.00362 1.37571 15.2421
O 2.26305 3.32504 13.9633
O 4.73247 6.93856 14.0443
O 1.97875 1.02585 11.9834
O 4.39509 5.05623 12.2552
O 1.58123 3.45352 11.4748
O 3.76712 7.56525 11.5021
O 2.32906 5.98892 13.2097
O 4.66069 2.32299 13.0695
O 1.8768 8.10036 15.0966
O 4.36976 4.04289 15.2017
Si 5.44816 4.51172 11.1474
Si 7.67545 0.470933 11.0451
Si 6.21113 6.57674 14.4911
Si 8.68063 2.42708 14.6822
Si 6.27115 2.47436 12.78
Si 8.52148 6.73487 12.7918
O 6.36855 5.57779 15.8111
O 8.81297 1.52597 16.0577
O 7.13048 2.84592 14.126
O 9.3394 7.09405 14.0497
O 6.89143 0.895958 12.4806
O 9.08052 5.40448 11.9783
O 6.30891 3.18417 11.3693
O 8.89841 7.92405 11.6174
O 7.0677 6.37703 12.9795
O 9.63968 1.65707 13.5945
O 6.75185 8.14331 14.9051
O 9.25187 3.95792 14.9585
Si 10.0685 4.60613 10.9959
Si 12.8862 0.377379 11.074
Si 10.9897 6.77211 14.4268
Si 13.5566 2.60837 14.3856
Si 11.0611 2.25825 12.7468
Si 13.6362 6.38855 12.765
O 10.7118 5.9003 15.8499
O 13.5635 1.51869 15.747
O 11.8619 2.9814 13.9674
O 14.509 6.73734 14.022
O 12.0221 0.988745 12.3639
O 14.3252 5.09134 12.1118
O 10.9664 3.39474 11.4985
O 13.662 7.58714 11.64
O 12.0643 6.08262 13.3959
O 14.5718 2.20506 13.18
O 11.5538 8.39893 14.7274
O 13.8394 4.08513 15.006
Si 0.383069 12.9388 10.9454
Si 2.67969 8.73819 11.0503
Si 1.41777 15.1514 14.4171
Si 3.76549 10.9721 14.605
Si 1.38921 10.7576 12.8748
Si 4.01093 14.8754 12.9517
O 1.60607 14.106 15.7109
O 3.58611 9.973 15.7688
O 2.31256 11.6505 13.873
O 4.73189 15.2861 14.3179
O 2.22451 9.49012 12.4087
O 4.34011 13.594 12.1939
O 1.12784 11.7013 11.6273
O 4.23433 16.2545 12.0083
O 2.3954 14.8465 13.2301
O 4.60045 10.2742 13.4164
O 1.67624 16.7087 14.8739
O 4.2972 12.4092 15.15
Si 5.31272 13.0148 10.7564
Si 7.64522 8.76914 10.9699
Si 6.36668 15.1848 14.6608
Si 8.50172 10.8586 14.4612
Si 5.98575 10.6099 12.6488
Si 8.71447 15.1573 12.7604
O 6.34838 13.7927 15.6243
O 8.31347 9.94619 15.7272
O 7.07906 11.1916 13.7907
O 9.62334 15.5433 14.0444
O 6.43975 9.18719 11.9103
O 9.61413 13.728 12.1506
O 6.01954 11.6108 11.2944
O 8.798 16.2614 11.5046
O 7.12053 14.9613 13.2043
O 9.55927 10.369 13.2912
O 6.92301 16.5733 15.2781
O 9.1553 12.218 15.1468
Si 10.206 12.8039 10.8963
Si 12.7343 8.71139 10.8941
Si 11.2044 15.0203 14.3163
Si 13.43 11.0843 14.7522
Si 11.1079 10.4898 12.7166
Si 13.6293 14.9324 12.8399
O 11.2804 13.7748 15.476
O 13.3081 10.0368 15.8587
O 12.0166 11.1929 13.9427
O 14.4093 15.0136 14.1614
O 11.685 9.11497 12.1326
O 14.0656 13.5455 12.0743
O 10.8372 11.4362 11.5078
O 14.0754 16.178 11.8059
O 12.0596 14.7763 12.9879
O 14.3791 10.3924 13.4634
O 11.9319 16.257 15.0925
O 14.0489 12.4607 15.1186
324
 Atoms. Timestep: 2000
Si 0.358337 4.37164 0.359559
Si 2.85501 0.402752 0.375361
Si 1.41023 6.82168 3.90944
Si 3.76465 2.59536 3.79204
Si 1.11828 2.03133 2.08399
Si 3.79711 6.64646 2.18975
O 1.25502 5.71124 5.016
O 3.63802 1.54825 5.06109
O 2.20013 2.37598 3.14503
O 4.91595 7.08995 3.21694
O 1.85073 0.559871 1.70294
O 4.12818 5.06215 1.56507
O 1.31479 3.22116 1.01104
O 3.86175 7.80916 0.9239
O 2.29616 6.39852 2.53815
O 4.78483 2.06607 2.67794
O 2.15567 8.20221 4.28132
O 4.21721 3.85333 4.64007
Si 5.21189 4.69246 16.35
Si 7.58662 17.1746 0.185067
Si 6.44253 6.79673 3.64961
Si 8.62827 2.55543 3.84157
Si 6.18869 2.32025 1.92519
Si 8.8202 6.72163 1.80432
O 6.45403 5.36217 4.53394
O 9.06866 1.52164 4.96246
O 7.06203 2.70436 3.30308
O 9.66816 6.911 3.27132
O 6.36255 0.96993 1.04522
O 9.26939 5.29439 1.14089
O 6.1494 3.46165 0.638521
O 8.93112 8.0191 0.869952
O 7.21212 6.61735 2.16327
O 9.43001 2.02736 2.46328
O 7.12315 8.20474 4.33483
O 9.2037 4.06132 4.24853
Si 10.3584 4.69599 16.2106
Si 12.4837 17.153 0.218224
Si 11.1656 6.6693 3.79956
Si 13.5381 2.32479 3.80295
Si 11.0558 2.44408 2.01268
Si 13.7981 6.52904 1.92809
O 11.4017 5.42971 4.83083
O 13.7182 1.0097 4.96711
O 11.8874 2.38875 3.50133
O 14.4679 7.14156 3.26787
O 11.4748 1.24561 0.990986
O 14.1942 4.99599 1.67878
O 11.1265 3.58223 1.02846
O 13.885 7.87973 1.01367
O 12.0494 6.58335 2.46152
O 14.1628 1.9621 2.33167
O 11.4633 8.02083 4.54011
O 13.7292 3.84353 4.44736
Si 0.3169 12.9888 16.1225
Si 2.73153 8.78 0.370732
Si 1.76485 14.9906 3.7245
Si 3.59823 11.2434 3.71997
Si 1.14906 10.7498 1.92214
Si 4.21511 15.1838 1.78762
O 1.71165 13.7763 4.86379
O 3.60443 10.2726 5.0072
O 2.20764 11.2787 3.03517
O 5.148 15.6277 3.17185
O 1.66347 9.23734 1.56257
O 4.26824 13.5527 1.33525
O 1.21992 11.7544 0.715835
O 4.23608 16.455 0.692984
O 2.84357 14.7559 2.599
O 4.81452 10.8281 2.86726
O 2.10485 16.3362 4.39679
O 4.09355 12.7494 4.16222
Si 5.13366 12.821 16.1554
Si 7.56168 8.86616 0.42151
Si 6.57838 15.066 3.75272
Si 8.47858 11.3995 3.89335
Si 6.25 10.8149 2.12035
Si 8.93924 14.99 1.96923
O 6.00424 14.1592 4.999
O 8.51818 10.164 5.06875
O 7.1999 11.6628 2.9828
O 9.87288 15.4649 3.27467
O 6.80863 9.2528 1.9295
O 9.10875 13.5261 1.29812
O 6.11408 11.6044 0.645931
O 8.62191 16.165 0.877698
O 7.40536 14.4564 2.47758
O 9.48303 10.6557 2.66584
O 7.47736 16.2629 4.33753
O 9.00054 12.6787 4.65877
Si 10.1274 12.8534 0.226387
Si 12.5858 8.85218 0.766627
Si 11.4406 14.9012 3.90431
Si 13.342 10.9716 3.90991
Si 11.0625 10.8872 2.2591
Si 13.7335 14.7547 2.10179
O 11.2919 13.7838 5.02794
O 13.398 9.83137 4.95758
O 12.0056 11.6367 3.27401
O 0.249322 15.1642 3.09012
O 11.7661 9.45127 1.98043
O 13.9485 13.5454 1.17265
O 10.8454 11.6004 0.919805
O 13.1779 16.149 1.34631
O 12.2976 14.2237 2.73829
O 14.309 10.4599 2.53504
O 12.1205 16.0598 4.69518
O 13.9356 12.3924 4.52464
Si 0.269488 4.48017 5.5635
Si 2.72117 0.399391 5.65653
Si 1.47359 6.6458 8.97104
Si 3.83396 2.4744 9.09997
Si 1.2781 2.26897 7.39158
Si 4.05943 6.81273 7.41606
O 1.15675 5.66178 10.271
O 3.8035 1.63742 10.5989
O 2.39041 2.7433 8.42545
O 4.97713 7.48398 8.54347
O 1.58227 0.765432 6.86581
O 4.64798 5.55711 6.51294
O 1.37263 3.25833 6.1668
O 3.87568 7.95092 6.31826
O 2.75832 5.86593 8.22519
O 4.78784 1.6005 7.978
O 2.13766 8.12942 9.30541
O 4.51823 3.84685 9.65428
Si 5.43929 4.588 5.49089
Si 8.15128 17.1178 5.65397
Si 6.44596 7.00843 8.84702
Si 8.70164 2.25986 9.0857
Si 6.22777 2.02768 7.39319
Si 8.85398 6.58787 7.12921
O 6.64271 5.6156 9.78064
O 8.62289 1.09894 10.2112
O 7.08729 2.54205 8.72022
O 9.88702 6.71264 8.48838
O 7.14939 0.76846 6.83043
O 9.24833 5.23457 6.40061
O 6.1999 3.27169 6.19198
O 8.95216 7.9819 6.34822
O 7.31395 6.43488 7.54995
O 9.61683 1.67815 7.83503
O 6.85321 8.37542 9.73553
O 9.30262 3.68516 9.66242
Si 10.2767 4.45225 5.40376
Si 12.6955 16.8838 5.79047
Si 11.1169 6.62103 9.3391
Si 13.284 2.47035 9.16619
Si 11.1019 2.168 7.33458
Si 13.7291 6.48265 7.33948
O 11.3048 5.43515 10.5273
O 13.406 1.51886 10.5759
O 11.8695 2.75709 8.57277
O 0.269917 7.33652 8.22079
O 11.8706 0.867366 6.92797
O 13.9996 5.01705 6.74451
O 11.0302 3.18282 6.11072
O 13.3876 7.64419 6.11609
O 12.5728 6.50013 8.4659
O 14.4414 2.32375 7.98586
O 11.3131 8.0835 10.1135
O 13.6939 3.98174 9.64024
Si 0.481871 12.864 5.70444
Si 2.8233 8.97916 5.66651
Si 1.3154 15.1652 9.49869
Si 3.67606 11.0517 8.98397
Si 1.15849 10.5987 7.42654
Si 3.80354 14.8813 7.46721
O 1.45228 13.8137 10.2586
O 3.39815 10.0634 10.3288
O 2.24323 11.4098 8.3911
O 4.96393 14.6885 8.55869
O 1.73457 9.20352 6.86256
O 3.75541 13.449 6.63867
O 1.36802 11.5064 6.07581
O 3.74487 16.1703 6.41034
O 2.59002 15.0812 8.46502
O 4.79497 10.6171 7.78178
O 1.76297 16.6056 10.0747
O 4.05553 12.3926 9.81507
Si 4.8254 13.1995 5.53066
Si 7.71887 8.90646 5.68809
Si 6.28927 14.8502 9.1446
Si 8.49579 11.046 9.06265
Si 6.10775 10.914 7.02513
Si 8.93119 14.7863 7.55785
O 6.23043 13.5896 10.4233
O 8.27738 10.2959 10.5628
O 7.18464 11.4394 8.09662
O 9.71114 15.298 8.88368
O 6.52471 9.17605 6.64779
O 9.45473 13.3991 6.88519
O 5.73445 11.801 5.79774
O 9.20335 16.1318 6.53103
O 7.27064 14.5573 7.78618
O 9.48487 10.2429 7.85459
O 6.70612 16.102 9.9845
O 9.21667 12.4352 9.42939
Si 10.1964 12.8731 5.64349
Si 12.4824 8.76129 5.62596
Si 11.2312 15.0404 9.1852
Si 13.3393 10.7775 9.10441
Si 10.8986 10.5636 7.41735
Si 13.7141 14.9596 7.53576
O 11.2788 13.7465 10.2653
O 13.7145 9.52323 10.0249
O 12.0265 11.3486 8.38866
O 14.4268 15.1122 9.03727
O 11.659 9.2403 6.81162
O 14.486 13.4957 7.04753
O 11.0423 11.5735 6.18126
O 13.9016 16.0878 6.50723
O 12.0582 14.6495 7.72032
O 14.2795 10.2689 7.80184
O 11.819 16.5082 9.59856
O 13.7683 12.0918 9.96843
Si 14.8215 4.44822 10.7926
Si 2.78199 0.355971 11.0904
Si 1.44886 6.6888 14.6133
Si 3.66818 2.74159 14.7369
Si 1.31627 2.31186 12.8634
Si 3.97465 6.47922 12.6884
O 1.18529 5.68665 15.8025
O 3.351 1.85254 16.0177
O 2.1449 3.13336 14.167
O 4.97217 7.11769 13.9249
O 1.89146 0.914364 12.4725
O 4.66169 5.17761 11.9834
O 1.31219 3.34295 11.5843
O 3.85952 7.68037 11.6134
O 2.53661 6.20027 13.4311
O 4.89208 1.97753 13.7013
O 1.84998 8.19155 15.0708
O 4.19144 4.20871 15.1524
Si 5.59836 4.63847 10.6458
Si 7.6417 16.9077 11.0262
Si 6.35869 6.83996 14.6955
Si 8.7498 2.42923 14.6952
Si 6.14119 2.34598 12.6834
Si 8.90551 6.62931 12.8479
O 6.2812 5.6573 15.8036
O 8.53707 1.59224 16.0874
O 7.28745 2.87442 13.8413
O 9.64831 6.98689 14.2788
O 6.54372 0.795274 11.8712
O 9.13637 5.03681 12.0541
O 6.23533 3.2698 11.2458
O 8.87345 7.75288 11.5334
O 7.48692 6.26079 13.4133
O 9.62223 1.5442 13.587
O 6.83852 8.37416 15.0889
O 9.53371 3.87356 15.0367
Si 10.2883 4.32681 10.9124
Si 12.5041 17.0802 10.9785
Si 11.3434 6.9457 14.6171
Si 13.3956 2.357 14.4285
Si 11.1252 1.87735 12.826
Si 13.6069 6.50475 12.7901
O 11.583 5.64597 15.6186
O 13.53 1.26302 15.6374
O 11.8324 2.3452 14.1644
O 14.5449 7.04466 13.9555
O 11.3885 0.51147 12.1037
O 14.0205 5.02732 12.085
O 11.1311 3.11197 11.7585
O 13.6855 7.61003 11.6205
O 11.92 6.31861 13.1193
O 14.3509 1.8746 13.2892
O 12.0379 8.2927 15.3829
O 13.9651 3.56696 15.3628
Si 0.261839 12.7937 10.9198
Si 2.69587 8.57714 10.7748
Si 1.42158 15.3105 14.573
Si 3.49978 10.7859 14.632
Si 1.15497 10.27 12.5401
Si 3.90528 14.817 12.7899
O 1.41561 13.9908 15.7324
O 3.81405 10.0289 16.0021
O 2.13069 10.6295 13.6706
O 4.79213 15.3931 14.041
O 1.52162 8.80399 12.0186
O 4.2213 13.3055 12.1876
O 1.19237 11.4752 11.5699
O 3.68986 15.9387 11.5867
O 2.26275 14.881 13.3478
O 4.54491 10.0749 13.5813
O 1.86689 16.6288 15.3686
O 3.94955 12.3266 15.0256
Si 5.17813 12.6863 10.9082
Si 7.66264 8.75561 11.1609
Si 6.26851 15.0502 14.4709
Si 8.56049 11.1034 14.6047
Si 5.99625 10.426 12.9503
Si 8.53157 14.7724 12.7715
O 6.21269 13.8231 15.5906
O 8.59922 9.92639 15.7281
O 6.87695 11.1572 14.3035
O 9.45271 15.2545 13.9783
O 6.46523 9.00913 12.275
O 9.19917 13.3611 12.1598
O 5.90799 11.4855 11.6883
O 8.78499 15.834 11.622
O 7.03784 14.5784 13.0743
O 9.41448 10.387 13.3761
O 6.78381 16.5011 15.0554
O 9.20555 12.4679 15.0644
Si 10.0772 12.9029 10.7286
Si 12.6057 8.67681 11.0511
Si 11.0377 15.134 14.5111
Si 13.2682 10.9229 14.4546
Si 10.8462 10.7211 12.6483
Si 13.6593 14.9742 12.7347
O 11.041 13.9854 15.6319
O 13.2546 10.2222 16.0065
O 12.0318 11.3292 13.556
O 14.3659 15.0882 14.2586
O 11.7896 9.17619 12.4633
O 14.309 13.6245 12.1054
O 10.9584 11.3733 11.0726
O 13.7615 16.0538 11.4383
O 11.9057 14.4494 13.1403
O 14.19 10.2363 13.372
O 11.6272 16.6096 14.9701
O 14.0515 12.3074 14.8593
324
 Atoms. Timestep: 2500
Si 0.592205 4.51582 16.3072
Si 2.83467 0.170935 16.2549
Si 1.4348 6.65011 3.82314
Si 3.91376 2.48614 3.8162
Si 1.54248 2.31571 2.13379
Si 3.95669 6.19889 1.99605
O 1.05335 5.78004 5.05452
O 3.99367 1.07279 4.77607
O 2.46658 2.78365 3.31962
O 4.88937 7.00601 3.02057
O 2.40705 1.255 1.34739
O 4.5018 4.93412 1.28746
O 1.35875 3.61284 1.02679
O 3.76048 7.52989 0.918256
O 2.50522 5.78884 2.6585
O 4.81859 1.79977 2.65192
O 1.88308 7.98881 4.38884
O 4.75596 3.65666 4.59046
Si 5.47545 4.28525 0.300042
Si 7.52991 17.0915 16.3199
Si 6.28402 6.91003 3.81426
Si 8.6923 2.322 3.94912
Si 6.34448 1.96943 2.01444
Si 8.6908 6.43873 1.95126
O 6.25868 5.81987 5.03717
O 8.90159 1.05029 4.92581
O 7.18604 2.54223 3.38628
O 9.51994 6.98188 3.34461
O 6.6077 0.53475 1.35577
O 9.4575 5.1278 1.28727
O 6.41834 3.03947 0.797892
O 8.49213 7.80156 1.1398
O 7.26173 6.13108 2.68698
O 9.72383 1.73476 2.7526
O 6.89096 8.31506 4.18604
O 9.1307 3.81323 4.20681
Si 10.2333 4.26804 0.174364
Si 12.6411 17.1521 16.239
Si 11.0579 6.80756 3.89261
Si 13.6236 2.44879 3.87389
Si 11.1656 1.95258 2.00033
Si 13.6582 6.72872 1.84392
O 11.1469 5.42191 4.78213
O 13.494 1.33937 5.18917
O 12.2006 2.5732 3.11907
O 14.6785 6.82749 2.96802
O 11.9895 0.594119 1.48445
O 14.4863 5.47331 1.17225
O 11.022 2.92812 0.865187
O 13.6138 7.95634 0.867123
O 12.1196 6.75888 2.40622
O 14.7991 1.65324 2.93857
O 11.4946 7.997 4.86058
O 14.0096 3.98722 4.25081
Si 0.355184 12.9519 16.2401
Si 2.85137 8.68737 0.292305
Si 1.21751 15.2495 3.95774
Si 3.80119 11.0874 3.84033
Si 1.32933 10.8558 2.0204
Si 3.60658 14.9712 2.07468
O 1.09809 14.0595 5.13843
O 3.53225 9.90627 4.99199
O 2.41758 11.5124 3.13978
O 4.75426 15.5289 3.16
O 1.90402 9.2202 1.58195
O 4.11999 13.712 1.25066
O 1.33894 11.7793 0.699608
O 3.55787 16.1441 0.980512
O 2.31198 14.6135 2.95576
O 4.57744 10.5695 2.49631
O 1.68153 16.712 4.75865
O 4.4705 12.286 4.76556
Si 5.15897 13.0396 16.2965
Si 7.61873 8.89659 0.279097
Si 6.07301 15.3313 3.83187
Si 8.65619 11.0662 3.59129
Si 6.1411 10.8618 1.9328
Si 8.616 14.7966 2.12261
O 6.09994 14.3295 5.23764
O 8.46535 10.0489 4.79908
O 7.13103 11.5081 2.96421
O 9.50446 15.4573 3.37811
O 6.58489 9.36006 1.48221
O 8.98611 13.4317 1.35776
O 6.19749 11.9922 0.729863
O 8.2383 15.796 0.778634
O 7.13173 14.6002 2.75601
O 9.28839 10.5455 2.16237
O 6.72687 16.7584 4.42814
O 9.50501 12.3466 4.15053
Si 10.0145 13.1936 16.35
Si 12.5181 8.80041 16.3707
Si 11.1682 15.2392 3.81306
Si 13.5418 10.9551 3.70249
Si 11.0105 10.894 1.83842
Si 13.6194 14.8486 1.95529
O 11.1302 14.1505 5.08627
O 13.3691 10.0246 5.07009
O 12.1822 11.2637 2.89748
O 14.6108 15.5927 3.07815
O 11.2951 9.55299 1.01338
O 14.1929 13.2042 1.43398
O 10.9087 12.1245 0.869468
O 13.4779 15.7376 0.57795
O 12.0474 14.4998 2.58391
O 14.7783 10.2522 2.82681
O 11.7834 16.7608 4.13489
O 14.0176 12.4711 4.15855
Si 14.843 4.56716 5.45415
Si 2.95449 17.223 5.69778
Si 1.28439 6.81235 9.29793
Si 3.4955 2.35782 9.02541
Si 1.22725 2.34338 7.34097
Si 3.76186 6.42865 7.40854
O 1.2768 5.40403 10.1317
O 3.52189 1.09627 9.96175
O 2.12949 3.15274 8.51603
O 4.70417 6.74915 8.69799
O 2.25716 0.98012 6.97313
O 4.44946 4.95675 6.80434
O 0.888831 3.28394 6.01824
O 3.88374 7.60341 6.22436
O 2.31895 6.46633 7.96368
O 4.56554 2.34182 7.56516
O 1.95554 8.13659 9.87837
O 3.80111 3.61657 10.0072
Si 5.58081 4.48098 5.78619
Si 7.66325 0.221339 5.60824
Si 6.14896 6.62576 9.33677
Si 8.68949 2.55251 9.18535
Si 6.24628 2.18 7.3553
Si 8.52366 6.65268 7.40968
O 6.02593 5.52052 10.3992
O 8.78298 1.32399 10.3321
O 7.01249 2.63386 8.72754
O 9.68484 7.15436 8.6462
O 7.0291 0.806157 6.95678
O 9.27765 5.43322 6.67139
O 6.72177 3.38599 6.27949
O 8.54521 7.95537 6.41389
O 7.11471 6.17773 8.03795
O 9.75633 2.13734 8.15139
O 6.67567 7.95975 9.94763
O 9.0956 3.9937 9.67889
Si 9.9248 4.56776 5.46122
Si 12.4526 17.2388 5.5263
Si 11.0359 6.91113 9.25517
Si 13.7429 2.12833 9.31291
Si 11.1566 2.36631 7.44899
Si 13.5605 6.35191 7.60273
O 11.1131 5.46586 10.2167
O 13.6317 1.23968 10.6528
O 12.3913 2.8332 8.65516
O 14.5049 6.75377 8.8821
O 11.4616 0.827509 6.70522
O 14.0101 5.10637 6.68193
O 11.0024 3.44786 6.30071
O 13.5871 7.72808 6.09454
O 12.0267 6.5564 7.93044
O 14.721 1.65038 8.05774
O 11.799 8.31098 9.61852
O 14.1866 3.60989 9.6755
Si 14.8714 12.8577 5.4913
Si 2.66964 8.65101 5.7551
Si 1.1313 15.083 9.10068
Si 3.59975 11.0074 9.16455
Si 1.02054 10.7041 7.57841
Si 3.67962 14.9603 7.54756
O 1.36382 13.9422 10.2374
O 3.57608 10.0987 10.51
O 2.23293 11.0708 8.59541
O 4.70362 15.2954 8.90185
O 1.57111 9.2114 6.81634
O 4.12464 13.5101 6.90772
O 0.919792 11.9089 6.52845
O 4.0189 16.1081 6.40567
O 2.25081 14.8272 7.94944
O 4.56282 10.4086 7.84422
O 1.53176 16.7339 9.36927
O 4.08865 12.5398 9.56925
Si 5.34479 13.0607 5.94112
Si 7.53105 8.98983 5.66577
Si 6.30939 15.3141 9.22823
Si 8.53552 10.8277 9.44068
Si 6.04577 10.7901 7.5259
Si 8.44663 14.9903 7.2919
O 6.26956 14.1032 10.3509
O 8.83724 9.77686 10.6477
O 6.98306 10.8534 8.84835
O 9.60516 15.3729 8.62234
O 6.48649 9.31335 6.73744
O 8.93534 13.5843 6.552
O 6.35611 11.9665 6.57664
O 8.44731 16.1904 6.39402
O 6.98831 14.5166 7.98538
O 9.41373 10.3353 8.02557
O 6.94439 16.7747 9.63863
O 9.1894 12.3503 9.94545
Si 10.0522 12.9795 5.46184
Si 12.6068 8.80979 5.76607
Si 11.1564 15.1655 9.33016
Si 13.4164 11.108 9.27399
Si 11.0056 10.7682 7.49686
Si 13.2792 14.8548 7.2773
O 10.9601 14.0576 10.6334
O 13.3151 10.1241 10.4898
O 11.9382 11.5226 8.70095
O 14.3728 15.0442 8.51877
O 11.7942 9.33392 7.25661
O 13.7016 13.4844 6.46187
O 10.8999 11.6392 6.18481
O 13.1485 15.8578 6.15232
O 12.0569 14.5448 8.2138
O 14.2863 10.5766 8.0182
O 11.7589 16.5598 9.69721
O 13.7949 12.5656 9.8831
Si 0.47196 4.27376 10.8497
Si 2.4552 17.0374 10.6154
Si 1.45725 6.7564 14.4079
Si 3.96158 2.31266 14.5167
Si 1.52687 2.25067 12.7363
Si 4.12367 6.56936 12.7776
O 1.63695 5.40157 15.3358
O 3.90076 0.947687 15.373
O 2.45895 2.77068 13.993
O 5.07121 6.88705 14.0223
O 2.10966 0.882255 12.1818
O 4.32393 5.01576 12.2614
O 1.36051 3.06461 11.4403
O 4.18749 7.59353 11.3784
O 2.51197 6.59809 13.2418
O 4.76932 1.75012 13.1581
O 1.84214 7.88245 15.4533
O 4.58312 3.55963 15.2768
Si 5.02432 4.30786 10.8906
Si 7.73584 0.210783 10.9304
Si 6.4347 6.82474 14.7378
Si 8.55866 2.33873 14.6128
Si 6.12921 2.16643 12.6085
Si 8.83025 6.26719 12.7608
O 6.32444 5.42525 15.7544
O 8.49831 1.139 15.7197
O 7.15895 2.76244 13.8627
O 9.84232 6.87274 13.9723
O 6.86096 0.829029 12.0702
O 9.347 4.86146 12.2699
O 6.13615 3.41224 11.5958
O 8.63345 7.34893 11.3055
O 7.53158 6.5401 13.6253
O 9.44984 2.16922 13.2058
O 6.95296 8.39128 15.1516
O 9.18606 3.60311 15.4281
Si 10.2109 4.36096 10.9362
Si 12.5252 17.2218 11.0172
Si 11.4266 6.60918 14.5598
Si 13.5778 2.56349 14.5735
Si 11.1203 2.29379 12.8726
Si 13.9393 6.53326 12.6196
O 11.2389 5.31709 15.5929
O 13.5538 1.29305 15.7627
O 12.1618 2.77508 14.0602
O 0.213524 7.36333 13.5346
O 11.7304 0.851416 12.3289
O 14.4779 5.24523 11.9339
O 11.3811 3.26654 11.6486
O 13.3364 7.45996 11.4238
O 12.5521 6.35789 13.4039
O 14.6892 1.92475 13.5485
O 11.6602 7.92868 15.3589
O 14.2927 3.87339 15.2981
Si 0.182273 12.8455 10.9254
Si 2.88718 8.75596 11.0964
Si 1.34436 15.3654 14.4074
Si 3.83429 11.0099 14.6466
Si 1.48138 10.6057 12.5666
Si 3.95366 14.8666 12.4629
O 1.18364 14.1637 15.5792
O 3.80654 9.61818 15.5412
O 2.45308 10.9171 13.7157
O 5.0707 15.8017 13.4111
O 1.98832 9.16301 12.3471
O 4.5692 13.3994 12.1019
O 1.45999 11.746 11.3417
O 3.37881 15.8353 11.2414
O 2.56746 14.5283 13.5276
O 5.12799 10.7298 13.5974
O 1.71724 16.8525 15.2019
O 4.03791 12.4079 15.2713
Si 5.11136 12.9506 10.6579
Si 7.74797 8.57019 11.0017
Si 6.11983 15.2856 14.4675
Si 8.81471 11.2257 14.4166
Si 6.36415 10.793 12.5885
Si 8.70873 14.6688 12.6467
O 6.05915 14.3639 15.7989
O 8.63113 10.1903 15.8909
O 7.4771 11.44 13.6416
O 9.85637 15.126 13.854
O 6.61953 9.19327 12.362
O 8.98627 13.2167 12.259
O 6.24068 11.9203 11.2956
O 8.66735 15.8917 11.5455
O 7.26231 14.7358 13.2692
O 9.82478 10.537 13.515
O 6.78152 16.5432 15.0531
O 9.42951 12.6246 14.9958
Si 10.1211 12.8764 11.1669
Si 12.5302 8.78544 11.0018
Si 11.255 15.0977 14.5759
Si 13.8637 10.7075 14.222
Si 11.2547 10.7243 12.8397
Si 13.5893 14.951 12.7598
O 11.1089 14.3295 15.9985
O 13.7851 9.39708 15.2081
O 12.3963 11.4684 13.8354
O 14.7163 15.5294 13.7763
O 11.6319 9.16862 12.2893
O 14.3335 13.6562 12.2132
O 11.1306 11.8662 11.8021
O 13.4432 15.8337 11.3594
O 12.3392 14.4818 13.7028
O 14.6565 10.2928 13.0033
O 11.7225 16.6423 14.9677
O 14.2896 12.2143 15.0379
324
 Atoms. Timestep: 3000
Si 14.9816 4.75527 0.134792
Si 2.61494 17.294 0.154648
Si 1.34548 6.69795 3.74692
Si 3.90102 2.36217 3.69647
Si 1.47256 2.51313 1.79319
Si 3.76629 6.25063 1.72508
O 1.42038 5.56161 4.93604
O 3.62657 1.19428 4.62548
O 2.69284 3.00509 2.64333
O 4.78067 6.73347 2.87524
O 1.82748 1.23738 0.987478
O 3.79428 4.67591 1.19308
O 1.16201 3.82225 0.687889
O 3.68064 7.47536 0.718987
O 2.25707 6.23152 2.39858
O 5.22956 1.95546 2.94005
O 1.68856 8.08027 4.46884
O 4.32452 3.78832 4.34798
Si 5.06442 4.15435 0.10611
Si 7.83234 17.2761 16.3846
Si 6.09541 6.61007 3.73946
Si 8.97768 2.54773 3.88812
Si 6.59574 2.13241 1.86462
Si 8.85767 6.32023 1.98943
O 5.97716 5.74479 5.05328
O 8.20654 1.26801 4.75262
O 7.57507 3.0444 2.92808
O 10.1215 6.84626 2.82737
O 7.15295 0.820036 1.29502
O 9.16004 4.93152 1.27178
O 6.2089 3.2293 0.71298
O 8.5439 7.42722 0.91922
O 7.43758 6.23419 2.84646
O 10.1249 1.76205 3.08867
O 6.59085 8.0245 4.34631
O 9.77784 3.84818 4.52622
Si 9.96978 4.30003 0.0952236
Si 12.7867 0.176656 0.122363
Si 11.3571 6.72775 3.85067
Si 13.649 2.67495 3.56425
Si 11.239 1.97926 1.97704
Si 13.5523 6.40528 2.09069
O 10.8167 5.88586 5.20228
O 13.0833 1.33827 4.31604
O 12.5396 3.11594 2.38278
O 14.6851 6.67678 3.16469
O 11.8274 0.64586 1.31166
O 13.6697 5.0969 1.16019
O 10.5375 2.76636 0.738665
O 13.2995 7.79209 1.28844
O 12.1905 5.86907 2.76511
O 0.199436 2.23118 2.87244
O 12.131 8.16558 3.95323
O 14.1152 3.74015 4.80881
Si 0.391893 13.0535 0.467077
Si 2.98007 8.78897 16.5164
Si 0.884783 15.4574 3.84176
Si 4.02026 10.8069 3.85929
Si 1.64326 10.7425 2.14958
Si 3.3253 14.9756 2.08481
O 0.940961 14.0918 4.88451
O 4.31174 9.57358 4.93636
O 2.32089 10.7322 3.51172
O 4.43257 15.4475 3.25767
O 2.06318 9.46113 1.25784
O 4.19617 13.6132 1.62801
O 1.35119 12.2295 1.41854
O 3.40082 16.3101 1.2189
O 1.79641 14.8726 2.55942
O 4.68014 10.4457 2.39141
O 1.59449 16.8685 4.18698
O 4.37244 12.1727 4.61011
Si 5.05988 12.9905 0.448484
Si 7.76295 8.43583 16.2797
Si 6.00912 15.363 3.68748
Si 9.01359 10.8116 3.7832
Si 6.26045 10.4804 1.86858
Si 8.46597 15.0475 1.81764
O 6.39195 14.1546 4.91137
O 8.7448 9.68522 4.92098
O 7.35197 10.9307 3.00333
O 9.41148 15.817 2.88834
O 6.77565 9.29646 0.947853
O 9.20852 13.5265 1.58454
O 6.12466 11.8602 0.894933
O 8.57571 15.838 0.390021
O 6.94362 15.0914 2.23179
O 9.83317 10.0237 2.65535
O 6.2171 16.8239 4.45271
O 9.42813 12.0318 4.80187
Si 9.97053 12.9425 0.236533
Si 12.7015 8.55224 16.4264
Si 10.9221 15.4636 3.50489
Si 14.0533 10.9341 3.5561
Si 11.151 10.5291 1.71708
Si 13.4848 15.2575 1.95629
O 10.7798 14.2679 4.58752
O 13.9513 9.73617 4.86963
O 12.5695 10.6781 2.73822
O 14.2442 15.6519 3.28476
O 11.3046 9.36931 0.598548
O 14.2012 13.7128 1.41973
O 11.1434 12.2362 1.10784
O 13.9259 16.3217 0.87237
O 11.8809 14.997 2.26913
O 15.1474 10.4367 2.6003
O 11.3203 17.0489 3.86268
O 13.8947 12.3397 4.25806
Si 0.372892 4.49735 5.52965
Si 2.63525 0.147 5.35547
Si 1.23939 6.63288 9.33855
Si 3.63291 2.43662 9.49423
Si 1.45434 2.03099 7.36203
Si 3.56876 6.33766 7.29938
O 1.14949 5.23188 10.2094
O 3.65444 1.17104 10.7081
O 2.30367 2.50999 8.67353
O 4.67818 6.22922 8.62712
O 1.86541 0.600906 6.77306
O 3.85603 4.81251 6.47241
O 1.43623 3.08144 6.21239
O 3.59842 7.5797 6.00297
O 2.19351 6.39507 8.02587
O 4.61967 2.23996 8.25983
O 1.67593 7.86934 10.1667
O 4.38389 3.63779 10.2315
Si 5.15839 4.44211 5.55421
Si 7.07227 0.286527 5.49813
Si 6.22579 6.5773 9.25058
Si 8.75224 2.37779 9.27611
Si 6.11108 2.26913 7.63164
Si 8.50075 6.30938 7.33312
O 6.37736 5.48701 10.5078
O 8.61373 1.33737 10.428
O 7.24734 2.7984 8.65611
O 9.67546 7.11303 8.46749
O 6.49584 0.76608 6.97082
O 9.13212 4.71614 6.92059
O 6.13912 3.50184 6.3351
O 8.51072 7.17251 5.97576
O 6.94853 6.29634 7.71519
O 9.72692 2.04186 8.0653
O 6.7888 7.91964 9.81391
O 9.49329 3.52053 9.88651
Si 10.3501 4.54359 5.77442
Si 12.2405 0.322202 5.19425
Si 11.0537 6.58101 9.12566
Si 13.8058 2.21738 9.10949
Si 11.1703 2.28017 7.38132
Si 13.5843 6.39616 7.48526
O 10.8803 5.51809 10.4164
O 13.5588 0.933633 10.3167
O 12.2265 2.57716 8.81657
O 14.6696 6.54197 8.77119
O 11.253 1.02538 6.24463
O 14.3285 5.25338 6.52586
O 11.3854 3.39211 6.23019
O 13.277 7.49244 6.23196
O 12.1896 5.88788 8.00452
O 14.8137 1.77492 7.91
O 11.783 8.05318 9.58439
O 14.4341 3.13951 10.1944
Si 14.7041 13.1621 5.46572
Si 2.89422 8.89708 5.35016
Si 1.17907 15.3683 9.15378
Si 3.77559 10.7641 8.91743
Si 1.42091 10.9429 7.31937
Si 3.5799 15.1417 7.29274
O 1.22713 14.2872 10.3673
O 3.73912 9.36196 9.82937
O 2.35147 11.5979 8.6627
O 4.5057 16.0835 8.32822
O 2.14381 9.90909 6.28283
O 4.19283 13.822 6.58219
O 0.702644 12.2249 6.65602
O 3.4155 16.2042 6.05761
O 2.10365 14.7015 7.99398
O 4.6269 10.5146 7.54785
O 1.64429 16.892 9.46801
O 4.38996 11.869 10.0675
Si 5.35854 13.0404 5.71193
Si 7.61544 8.51323 5.44953
Si 5.98083 15.5512 9.04793
Si 8.72024 10.9701 9.16077
Si 6.22498 10.6089 7.2292
Si 8.21656 15.2066 7.22572
O 5.68142 14.4813 10.2028
O 8.75633 9.71863 10.339
O 7.10727 10.8721 8.64865
O 9.27769 15.758 8.50597
O 6.65567 9.05735 6.80738
O 9.08062 14.0178 6.52027
O 6.55213 11.9829 6.26698
O 8.22282 16.4916 6.2467
O 6.76657 14.5946 7.91176
O 10.0176 10.5523 8.17304
O 6.9472 16.9175 9.67994
O 8.8901 12.447 10.018
Si 10.1079 13.2695 5.53866
Si 12.779 8.84904 5.21952
Si 10.952 15.1378 8.97857
Si 14.0255 10.6841 8.96413
Si 11.507 10.8999 7.02667
Si 13.4376 15.5081 7.09457
O 10.8814 13.8847 9.97589
O 13.2706 10.0095 10.3634
O 12.7301 11.0642 8.05684
O 14.5876 15.8797 8.37067
O 11.7037 9.84418 5.85666
O 13.5942 13.8472 6.58406
O 11.0414 12.296 6.47601
O 13.3953 16.3424 5.73159
O 12.0369 15.5378 7.88975
O 0.315353 10.0792 8.14396
O 11.187 16.5734 9.87876
O 14.5281 12.145 9.57228
Si 0.256651 4.26403 11.056
Si 2.52363 17.3025 10.796
Si 1.28107 6.78695 14.7277
Si 3.83995 2.01495 14.7798
Si 1.46073 2.12155 12.8331
Si 3.62478 6.29461 12.9142
O 0.774469 6.21423 16.2165
O 3.97375 0.861805 16.0438
O 2.3277 2.38441 14.2926
O 4.80975 6.86275 13.8472
O 1.65413 0.741824 12.262
O 4.26525 4.97705 12.1915
O 1.49833 3.33668 11.8105
O 3.74009 7.53207 11.837
O 2.24804 5.97375 13.6469
O 5.01044 1.70047 13.5631
O 2.05422 8.06546 15.2396
O 4.09478 3.44449 15.3758
Si 5.47358 4.30163 11.316
Si 7.73213 0.14422 10.9855
Si 6.16407 6.46054 14.5744
Si 8.85981 2.40848 14.6544
Si 6.41039 1.87855 12.904
Si 8.73335 6.32027 12.9823
O 5.8173 5.34395 15.8074
O 8.93819 0.968388 15.5837
O 7.58016 2.32897 13.8668
O 9.78418 6.91219 14.3096
O 6.61292 0.359401 12.3067
O 9.1943 5.08081 12.1905
O 6.36469 3.28175 12.0155
O 8.3155 7.52192 11.7606
O 7.12423 5.86105 13.5443
O 9.97255 2.20503 13.5226
O 6.80352 7.94963 15.0163
O 8.82304 3.95594 15.3657
Si 10.0547 4.38946 11.1221
Si 12.4769 17.0833 10.8139
Si 11.2441 6.4646 14.6476
Si 13.9245 2.58609 14.5524
Si 11.4625 2.21508 12.6483
Si 13.6164 6.25295 12.9958
O 11.1751 5.2394 15.852
O 13.6624 1.3471 15.7883
O 12.6779 2.7948 13.5399
O 14.7051 6.85153 13.9841
O 11.6527 0.702264 12.0204
O 14.2148 4.96261 12.1469
O 11.2629 3.52505 11.7183
O 13.4478 7.63698 11.8312
O 12.0845 5.84777 13.258
O 14.7913 1.70215 13.5192
O 12.2999 7.46217 15.2777
O 14.4842 4.11163 15.0125
Si 0.0552047 12.9879 10.7684
Si 2.85416 8.60865 11.0896
Si 1.25061 15.116 14.8655
Si 3.78626 11.1345 14.6036
Si 1.55966 10.9568 12.8155
Si 3.89506 15.1708 12.8652
O 1.3678 14.2216 16.2058
O 3.69632 9.83649 15.546
O 2.40653 11.7245 13.9409
O 5.24405 15.7608 13.7037
O 2.07329 9.6432 11.9196
O 4.14452 13.6891 12.2755
O 1.14426 11.9845 11.7316
O 3.545 16.1438 11.6479
O 2.63231 14.8405 13.9506
O 4.99085 10.698 13.5685
O 1.56686 16.7454 15.4239
O 3.93685 12.2831 15.8051
Si 4.96114 12.9318 11.101
Si 7.66255 8.71838 10.9687
Si 6.32221 15.5491 14.8278
Si 8.8397 10.6351 14.7303
Si 6.3775 10.9167 12.7163
Si 9.01743 15.3137 12.853
O 5.64986 14.4104 15.96
O 8.87197 9.30337 15.5902
O 7.37325 10.6908 14.0013
O 10.4023 15.81 13.6232
O 6.91965 9.88034 11.835
O 9.53011 13.7 12.3423
O 6.14429 12.5106 12.27
O 8.67601 15.9881 11.4319
O 7.66663 15.2355 13.7722
O 10.2513 10.5839 13.93
O 6.60024 16.9595 15.3519
O 8.98415 12.0933 15.5306
Si 9.95221 12.9237 11.1084
Si 12.47 8.67973 10.9821
Si 11.2991 15.2799 14.7838
Si 14.0073 10.9646 14.7646
Si 11.483 10.7665 12.9078
Si 13.5765 14.8442 12.8768
O 10.698 14.2717 15.7797
O 13.4398 9.59015 15.4826
O 12.8493 11.3464 13.6317
O 14.7653 15.2669 14.1068
O 11.4764 9.44863 12.0793
O 13.6585 13.5096 11.784
O 10.8331 11.6674 11.8358
O 13.4204 15.8968 11.5607
O 12.3002 14.6473 13.6471
O 0.226857 10.3695 13.6949
O 11.9541 16.6356 15.2665
O 14.2606 12.3104 15.805
324
 Atoms. Timestep: 3500
Si 0.190282 4.50017 0.107988
Si 2.26096 0.0739709 16.2847
Si 1.35453 6.59695 3.75212
Si 3.76556 2.25503 3.67325
Si 1.23558 2.03966 1.65154
Si 3.62353 6.69704 1.6389
O 1.46576 5.33546 4.77164
O 3.35085 0.94009 4.64457
O 2.65169 2.27382 2.37691
O 4.73126 7.36745 2.74045
O 1.35698 0.59133 1.10693
O 4.0673 5.29275 0.972525
O 1.1465 3.19506 0.503129
O 3.54849 7.625 0.158034
O 2.23937 6.66426 2.46944
O 5.07081 1.62221 2.85932
O 2.01496 7.71054 4.67738
O 3.9641 3.49317 4.79168
Si 4.91475 4.34687 16.2754
Si 7.81993 0.0890422 -0.0595066
Si 6.07413 6.56752 3.64154
Si 8.84683 2.66138 3.75132
Si 6.30968 2.32639 1.94571
Si 8.57048 6.22644 2.06152
O 5.43803 5.72034 4.80257
O 8.60598 1.47537 4.92658
O 7.37181 2.90204 3.08451
O 9.63662 6.57582 3.1766
O 7.07375 1.16202 1.03662
O 9.14798 4.85826 1.10238
O 5.5833 3.22322 0.746915
O 8.48181 7.70387 1.09176
O 7.08948 5.78987 2.63512
O 9.77202 2.12262 2.53774
O 7.0555 7.91747 4.22382
O 9.60795 4.02359 4.37849
Si 10.3068 4.36852 16.3756
Si 12.6845 0.14162 0.349906
Si 11.2387 6.49051 3.89205
Si 13.8821 2.49896 3.6938
Si 11.4604 2.2403 1.84994
Si 13.7625 6.34643 2.06621
O 11.1412 5.61464 5.36309
O 13.3481 1.30889 4.65761
O 12.2877 2.79419 2.92815
O 14.7185 6.84029 3.37457
O 11.616 0.623444 1.44017
O 14.5119 5.07048 1.6026
O 11.1105 3.16005 0.564269
O 13.3903 7.32609 0.620732
O 12.1577 6.18486 2.56901
O 14.9194 2.18935 2.67399
O 11.3795 8.37661 4.30051
O 14.1872 3.65541 4.78624
Si 14.915 12.9306 16.3994
Si 2.67983 8.93862 16.1159
Si 1.24629 15.0096 3.68322
Si 4.09444 10.9622 3.48108
Si 1.16878 10.7766 1.60857
Si 3.65394 15.2241 1.77636
O 1.20442 14.0079 4.93769
O 3.75556 9.78958 4.58759
O 2.54928 10.9258 2.51309
O 4.50396 15.6109 3.28087
O 1.48083 9.45777 0.628096
O 4.23316 13.9079 1.01822
O 1.02898 11.9773 0.444014
O 3.35835 16.3869 0.594895
O 2.278 14.8126 2.42237
O 4.97048 10.5263 2.273
O 1.30845 16.4856 4.47171
O 4.15575 12.4348 4.14893
Si 5.58162 13.342 0.177737
Si 7.82952 8.77166 16.3848
Si 6.11726 15.4427 3.66388
Si 9.02885 11.003 3.91796
Si 6.54645 10.9517 1.83356
Si 8.63099 15.2224 1.99786
O 6.14745 14.1653 4.91807
O 9.03012 9.63375 4.75471
O 7.55439 11.4139 3.05728
O 9.74784 15.7789 3.33926
O 7.26698 9.99571 0.726847
O 9.18204 13.6153 1.4631
O 6.25659 12.2985 1.07485
O 8.7584 16.4801 0.97925
O 7.16478 14.9995 2.31483
O 10.1266 11.211 2.77214
O 7.03356 16.5488 4.28265
O 8.86514 12.1499 5.00256
Si 10.1099 12.9687 0.162673
Si 12.3327 8.54494 0.299517
Si 11.3231 15.3329 3.76818
Si 13.9392 10.9042 3.66248
Si 11.612 10.9611 1.94268
Si 13.7191 14.9584 1.87
O 10.8572 13.84 4.28728
O 13.2605 10.0144 4.99918
O 12.5635 11.473 3.08727
O 14.7393 15.0777 3.06129
O 11.952 9.40085 1.68924
O 13.9343 13.5577 1.01902
O 11.3039 12.2246 0.823565
O 13.7091 16.0943 0.649949
O 12.2603 15.0818 2.46002
O 0.0860489 10.3925 2.76802
O 11.9729 16.1968 4.85492
O 14.4684 12.0889 4.39291
Si 0.195362 4.63832 5.61554
Si 2.42346 17.2427 5.44855
Si 0.908441 6.42811 9.31878
Si 3.81221 2.32427 9.22335
Si 1.09046 2.3056 7.48554
Si 3.65812 6.62638 7.59923
O 0.333147 4.9775 9.87049
O 3.68749 1.00918 10.5958
O 2.4291 2.45395 8.43282
O 4.50339 7.02475 8.98305
O 1.42539 0.720488 6.6161
O 4.1821 5.1309 6.94249
O 1.14686 3.6178 6.59325
O 3.65892 7.91375 6.5689
O 2.24804 6.20453 8.36859
O 4.80498 1.74745 8.13702
O 1.24905 7.61619 10.5301
O 4.17272 3.83363 9.80108
Si 4.99408 4.47269 5.67549
Si 7.80226 0.142074 5.30983
Si 6.0994 6.41347 9.36336
Si 8.61097 2.18955 9.06935
Si 6.16437 1.84038 7.27337
Si 8.50241 6.24923 7.62819
O 5.99955 5.35065 10.5091
O 8.65906 0.694915 10.0484
O 7.07815 2.49024 8.44579
O 9.68721 7.1494 8.57737
O 6.79368 0.436309 6.46273
O 9.03448 4.8273 6.92083
O 5.95239 3.48168 6.43799
O 8.27293 7.43674 6.47497
O 7.28156 5.95875 8.44703
O 9.51088 2.16874 7.74492
O 6.70437 7.8777 9.90378
O 9.20147 3.43666 9.95982
Si 10.1835 4.3407 5.84949
Si 12.6332 0.193975 5.56409
Si 11.032 6.91001 9.22795
Si 13.4594 1.9047 9.42807
Si 11.175 2.10925 7.48888
Si 13.5371 6.75676 7.45507
O 10.9201 5.66254 10.3325
O 13.7112 0.477809 10.1112
O 11.893 2.27872 8.97834
O 14.8384 7.13998 8.51311
O 11.5025 0.724878 6.51702
O 14.0368 5.6005 6.32126
O 11.377 3.31338 6.20927
O 13.1529 7.94045 6.39159
O 12.1986 6.30217 8.27167
O 14.5268 2.03781 8.1773
O 11.4069 8.23164 10.0421
O 13.9282 2.95521 10.5788
Si 0.168021 13.0371 5.55143
Si 2.93388 8.68711 5.5018
Si 1.25115 15.2061 9.04978
Si 4.21915 10.6834 9.23658
Si 1.81054 10.7388 7.37915
Si 3.59342 14.9723 7.34195
O 1.13294 13.9337 10.3482
O 3.46176 9.32397 9.75584
O 3.1009 11.3888 8.11061
O 4.71342 15.5072 8.41161
O 2.1151 9.72367 6.3764
O 3.77257 13.798 6.17659
O 1.09697 11.9728 6.59222
O 3.45656 16.4341 6.39532
O 2.05178 14.5576 7.68769
O 5.77289 10.5622 8.78379
O 2.25966 16.3542 9.58815
O 4.31156 11.5728 10.6225
Si 5.22627 12.9881 5.52346
Si 7.9184 8.59225 5.44323
Si 6.22444 15.042 9.00691
Si 9.04069 10.97 9.01988
Si 6.6732 10.6472 7.34493
Si 8.77473 15.3239 7.11718
O 6.41674 13.8424 10.0043
O 8.31909 9.73103 9.73771
O 8.30838 11.3436 7.627
O 9.91287 15.7498 8.30798
O 6.78896 9.53703 6.24423
O 9.36098 13.9397 6.63322
O 5.95406 11.8463 6.39929
O 8.96213 16.4439 6.02262
O 7.35624 15.2541 7.92984
O 10.7283 10.8941 8.88084
O 6.50199 16.397 10.0792
O 9.15245 12.2367 10.1391
Si 10.0704 13.0347 5.45152
Si 12.3694 8.82321 5.44052
Si 11.2494 15.3316 9.12549
Si 14.2501 10.7026 8.93888
Si 11.5067 10.8601 7.25792
Si 13.8393 15.2831 7.36395
O 11.1125 14.0188 9.98997
O 13.8591 9.37873 9.90652
O 13.1263 11.3041 7.90345
O 14.8946 15.7269 8.68231
O 11.2676 9.50405 6.55041
O 14.1407 13.8452 6.59736
O 11.324 11.92 5.97266
O 13.9007 16.4266 6.19422
O 12.5045 15.3435 8.2607
O 0.693734 10.0205 8.59572
O 11.4959 16.4006 10.413
O 14.3081 11.8144 10.2238
Si 14.8477 4.11006 11.2755
Si 2.6442 17.1957 11.0369
Si 1.07491 6.82514 14.4955
Si 3.63887 2.14132 14.5512
Si 0.991668 1.67627 12.8392
Si 3.36064 6.67354 12.7724
O 0.875186 5.81036 15.871
O 3.09145 1.3371 15.9549
O 2.18274 2.13863 13.7742
O 4.59558 6.80216 13.9016
O 1.304 0.40115 11.9132
O 3.54734 5.57787 11.6376
O 1.0806 3.06808 11.958
O 3.00595 8.1536 12.3702
O 2.00982 6.11175 13.35
O 5.23149 1.4521 13.9249
O 1.6716 8.39467 14.8998
O 3.99588 3.69969 14.9686
Si 4.78568 4.5222 11.1517
Si 7.39427 17.312 10.9649
Si 6.11766 6.72627 14.6495
Si 8.65351 2.40364 14.448
Si 6.08823 2.09462 12.7569
Si 8.63276 6.31153 12.9643
O 6.00939 5.5598 15.821
O 8.68471 1.0556 15.3203
O 7.40312 2.88989 13.4724
O 9.6371 6.79368 14.1873
O 6.734 1.48171 11.4684
O 8.76198 5.07733 11.7616
O 5.08394 3.26935 12.111
O 8.70396 7.69223 11.7732
O 6.86342 6.04525 13.3894
O 9.73509 1.93545 13.3562
O 6.64709 7.99467 15.3117
O 8.90109 3.92719 15.3652
Si 10.0611 4.44392 10.9481
Si 12.4653 0.101303 11.2036
Si 11.1672 6.74067 14.6339
Si 13.5561 2.28657 14.8004
Si 11.1782 2.11342 12.8808
Si 13.6402 6.31827 12.8724
O 11.132 5.73466 16.0108
O 13.6088 1.23396 16.0958
O 12.0851 2.72889 14.2411
O 14.5919 6.98009 13.93
O 12.3514 1.40993 12.1647
O 14.0692 4.70258 12.5352
O 10.8236 3.40832 12.0073
O 13.4645 7.19783 11.3674
O 12.204 6.28455 13.4669
O 14.7211 1.78408 13.7659
O 11.6358 8.174 15.2527
O 14.0045 3.74534 15.6436
Si 14.8795 12.9869 11.0261
Si 2.349 8.80047 11.0893
Si 1.18374 15.0343 14.615
Si 4.05874 11.1159 14.531
Si 1.33142 11.1054 12.876
Si 3.85319 14.9367 13.1206
O 0.814466 14.3185 15.965
O 3.57781 10.2412 15.8121
O 2.522 11.2755 13.9605
O 4.92811 15.078 14.1798
O 1.29038 9.82891 11.6354
O 4.59124 13.8614 12.0872
O 0.969419 12.5677 12.3887
O 3.53256 16.2068 12.062
O 2.57231 14.5349 13.8463
O 5.09036 10.2585 13.6089
O 1.49433 16.5935 15.2652
O 4.9094 12.2857 15.3677
Si 5.39841 12.888 11.0779
Si 7.84947 8.63576 10.7889
Si 6.44878 15.3784 14.6631
Si 9.13771 10.8519 14.7277
Si 6.61105 10.8126 12.648
Si 8.68272 15.1708 12.7678
O 6.61885 14.2998 15.8855
O 8.95497 9.45848 15.5491
O 7.74918 11.0785 13.8926
O 10.1347 15.5618 13.6606
O 7.07166 9.63389 11.7508
O 9.37556 13.9381 11.7477
O 6.48971 12.1232 11.9173
O 8.10101 16.5754 12.197
O 7.40009 14.6637 13.4832
O 10.1533 10.8277 13.4974
O 6.67275 16.8471 15.2855
O 8.96441 12.0414 15.7711
Si 10.3221 12.8734 10.9746
Si 12.8419 8.5589 10.8284
Si 11.2598 15.2674 14.7443
Si 13.9462 10.6419 14.7904
Si 11.612 10.6821 12.8721
Si 13.4749 14.9483 12.9319
O 10.6496 14.2719 15.9072
O 13.1553 9.77862 15.9819
O 12.5711 11.0574 14.1012
O 0.0969821 15.0572 13.4252
O 12.1429 9.58511 11.9913
O 13.5475 13.7723 11.8231
O 11.4323 12.0234 11.7387
O 13.036 16.3292 12.3426
O 12.5637 14.5526 14.2018
O 14.9969 10.3105 13.5719
O 11.5617 16.7592 15.5151
O 14.1259 12.2562 15.2622
324
 Atoms. Timestep: 4000
Si 14.8992 4.30723 0.0826849
Si 2.64006 0.0648666 16.5042
Si 1.06012 6.58514 3.57919
Si 3.48811 2.31692 3.76558
Si 1.00442 2.02405 1.84966
Si 3.52884 6.37649 1.79083
O 0.303197 5.36532 4.59229
O 3.64412 1.08195 5.06405
O 1.95766 2.00941 3.11627
O 4.63108 6.3871 3.01063
O 1.45545 0.689028 0.941874
O 4.15984 5.49327 0.669408
O 0.783282 3.55882 1.36759
O 3.30871 7.96732 1.09482
O 2.09233 5.81432 2.51998
O 4.64583 1.80132 2.67244
O 1.63274 7.62056 4.69328
O 3.82222 3.80437 4.16366
Si 5.18232 4.42104 16.3568
Si 7.62235 0.147129 0.278256
Si 6.20642 6.33006 3.5311
Si 8.65542 2.13861 3.56343
Si 5.97632 2.163 1.93498
Si 8.85622 6.28242 1.68268
O 6.14052 5.18269 4.62007
O 8.49263 0.918374 4.55838
O 7.22074 2.52827 2.71379
O 9.92132 6.78537 2.72511
O 6.36252 0.934521 1.05869
O 9.08684 4.80602 0.846611
O 5.81798 3.42908 0.96574
O 8.65208 7.44448 0.447944
O 7.44381 6.20799 2.49663
O 9.69831 1.75779 2.33795
O 6.17403 7.8657 4.31083
O 8.86174 3.68908 4.44545
Si 10.2849 4.3785 16.3451
Si 12.8162 0.175558 0.167734
Si 11.1846 6.5292 3.58317
Si 13.5757 2.18927 3.6707
Si 11.2928 2.21862 1.92046
Si 13.627 6.76768 1.74754
O 11.0795 5.1163 4.5819
O 13.4569 0.837292 4.61004
O 11.9482 2.48643 3.30421
O 14.7638 7.17514 2.7713
O 11.8197 0.925181 1.06485
O 13.9797 5.33967 1.02745
O 11.1643 3.36073 0.694123
O 13.6208 8.06144 0.743631
O 12.3797 6.69872 2.67076
O 14.3588 1.53341 2.42046
O 11.6455 7.73551 4.68761
O 13.979 3.26166 4.78553
Si 0.275955 13.1353 0.0599499
Si 2.38486 8.83102 0.0794642
Si 1.41963 15.2757 3.5738
Si 3.94845 10.4697 3.62575
Si 1.18639 10.9633 2.02155
Si 3.81037 14.986 1.7576
O 1.20113 14.1918 4.80555
O 3.44697 9.52116 4.86669
O 2.36066 10.8324 2.97578
O 5.42414 15.4523 2.30546
O 1.28123 9.87584 0.781538
O 3.92381 13.479 0.898922
O 1.06175 12.1357 1.04742
O 3.52598 16.2703 0.963226
O 2.89777 14.555 3.0721
O 4.89325 9.90229 2.46655
O 1.71763 16.6826 4.29318
O 4.68394 11.8058 4.11129
Si 5.25837 12.9743 16.3875
Si 7.67123 8.6091 16.4628
Si 6.38162 15.4274 3.5696
Si 8.93457 10.8286 3.90542
Si 6.22276 10.6527 1.81149
Si 8.94405 15.154 1.85044
O 5.8852 14.0769 4.46067
O 8.67563 9.29984 4.39688
O 7.40099 11.2368 3.02313
O 10.1705 15.6589 2.97847
O 6.84596 9.33172 1.20483
O 8.94159 13.7979 0.912353
O 6.0645 11.8938 0.837752
O 8.53981 16.5332 1.25078
O 7.76798 14.9023 2.91272
O 10.1819 10.8284 2.85034
O 6.55663 16.6112 4.55227
O 9.61063 11.5701 5.29568
Si 10.2907 13.0243 16.2654
Si 12.493 8.93073 0.0691782
Si 11.2876 15.1021 3.79561
Si 13.7202 11.0864 3.87816
Si 11.4652 11.088 1.91865
Si 13.7997 15.1084 1.89095
O 10.6967 13.949 4.72792
O 13.2354 9.98221 5.03143
O 12.5347 11.7456 3.04494
O 0.0608113 15.3614 2.8936
O 11.6889 9.57029 1.4765
O 14.128 13.9647 0.799513
O 11.4976 12.1876 0.646001
O 13.7411 16.4109 1.10987
O 12.5378 14.7053 2.81914
O 15.0205 10.6067 3.06149
O 11.9724 16.0295 5.04298
O 14.4297 12.1628 4.82831
Si 14.888 4.25692 5.74335
Si 2.41776 17.36 5.46687
Si 0.965349 6.90007 9.17425
Si 3.47423 2.11842 9.23323
Si 0.887025 2.15232 7.35341
Si 3.58223 6.32607 7.45073
O 0.877222 5.65054 10.1961
O 3.74759 1.01075 10.4038
O 2.12434 2.25918 8.42817
O 4.70352 6.78547 8.57198
O 1.39334 0.915651 6.36332
O 3.92844 5.17461 6.49688
O 1.09667 3.33924 6.18783
O 3.67818 7.73469 6.51391
O 2.04726 6.05933 8.25438
O 4.61803 1.8966 8.06117
O 1.46516 8.28381 9.89155
O 3.82854 3.78084 9.98399
Si 4.84061 4.46473 5.31835
Si 7.58384 0.110186 5.52111
Si 6.20793 6.44991 9.08362
Si 8.43957 2.22599 9.10991
Si 6.07566 2.30796 7.37891
Si 8.63903 6.38904 7.21495
O 6.2174 5.01947 9.89601
O 7.83793 0.810379 9.70698
O 7.42177 2.97453 8.021
O 9.7486 7.02631 8.34907
O 6.81142 0.761043 6.60809
O 9.22339 5.00418 6.59595
O 5.76427 3.43474 6.19365
O 8.07251 7.56129 6.18876
O 7.40973 5.9373 8.1067
O 9.48865 1.82058 7.94322
O 6.84024 7.62967 10.0526
O 9.12989 3.31613 10.1651
Si 10.0942 4.16741 5.47833
Si 12.7961 17.1549 5.76341
Si 11.203 6.71153 8.92871
Si 13.5044 2.4189 9.24601
Si 11.0218 1.98502 7.34485
Si 13.6224 6.4645 7.35444
O 11.181 5.33615 10.0634
O 13.447 1.24921 10.3231
O 11.9522 2.42302 8.61873
O 14.5418 7.03518 8.58674
O 11.9274 0.702164 6.72722
O 14.0954 5.01648 6.89557
O 10.9606 2.88837 5.89344
O 13.6734 7.5288 6.14536
O 11.9694 6.35938 7.68817
O 14.3415 1.94014 7.93274
O 11.7647 8.07002 9.75882
O 13.8476 4.07094 9.764
Si 0.477591 13.1047 5.68432
Si 2.56774 8.55127 5.62432
Si 1.68132 14.7672 9.5259
Si 4.33023 10.7869 9.12802
Si 1.77127 10.8709 7.4899
Si 3.82838 14.8151 7.31224
O 1.03665 13.7743 10.627
O 3.96782 9.36256 9.99771
O 3.276 11.2586 7.8526
O 5.1703 15.3761 8.09103
O 1.56835 9.47012 6.67304
O 4.03471 13.8405 6.08617
O 1.541 12.1764 6.38949
O 2.78305 16.0715 6.44535
O 2.94825 14.3487 8.58973
O 5.75444 10.6144 8.62819
O 2.22493 15.898 10.6422
O 4.3793 12.0455 10.1263
Si 5.26757 12.8235 5.19379
Si 7.26643 8.64857 5.26898
Si 6.29576 15.0758 9.15414
Si 9.06957 10.9732 9.48102
Si 6.79322 10.9548 7.24978
Si 9.01655 15.3208 7.47853
O 6.47423 13.9047 10.256
O 8.17562 9.76967 9.94653
O 8.26825 11.1886 7.93415
O 10.194 16.0423 8.45126
O 6.55692 9.74994 6.17965
O 9.53484 13.825 6.88235
O 5.92884 11.9792 6.32576
O 8.63133 16.3532 6.18229
O 7.66589 14.7555 8.29162
O 10.6203 10.764 8.92798
O 6.40707 16.2707 10.1256
O 8.69647 12.3424 10.3837
Si 10.3621 12.9427 5.82813
Si 12.5754 8.56426 5.62292
Si 11.2129 15.1611 9.281
Si 14.2382 10.8342 9.35797
Si 11.7569 10.9024 7.59796
Si 14.0079 15.164 7.56588
O 10.6684 13.7074 9.50405
O 13.8343 9.81473 10.5218
O 13.258 10.8078 8.11214
O 0.29025 15.1971 8.7329
O 11.7209 9.26074 6.76876
O 14.47 13.792 6.79856
O 11.4729 12.1994 6.70761
O 14.0477 16.4294 6.62304
O 12.7477 14.9957 8.44387
O 0.66999 10.705 8.79544
O 12.0641 16.065 10.678
O 14.035 12.3559 10.2529
Si 14.7815 4.68999 10.9226
Si 2.61309 0.210357 11.3788
Si 1.30655 6.42785 14.7164
Si 3.71399 2.36863 14.6733
Si 1.11539 2.39933 12.7086
Si 3.47599 6.565 12.7481
O 0.849895 5.12294 15.5782
O 3.64539 1.18555 15.7803
O 2.44812 2.93332 13.6686
O 4.40766 6.55051 14.0701
O 1.40441 0.71618 12.1122
O 4.0296 5.57618 11.6553
O 0.831136 3.40553 11.4592
O 3.33793 8.15711 12.1689
O 2.10292 6.05195 13.3578
O 4.73065 1.53586 13.5321
O 1.63023 7.58227 15.6736
O 4.272 3.73592 15.1507
Si 4.95895 4.41124 10.888
Si 7.28341 17.3388 10.9267
Si 5.98882 6.71797 14.6293
Si 8.52676 2.42498 14.8455
Si 6.02295 2.11163 12.8272
Si 8.72502 6.55609 12.9604
O 6.24645 5.38206 15.4717
O 8.57631 1.40253 16.0317
O 6.82573 2.58105 14.1936
O 9.57064 7.05245 14.2775
O 6.5962 1.30721 11.5909
O 9.19978 5.19941 11.9955
O 5.57332 3.58626 12.1717
O 9.05524 7.83529 11.7605
O 7.03597 6.65815 13.2425
O 9.45234 1.76628 13.4303
O 6.42239 7.79414 15.5986
O 9.35629 3.7029 15.25
Si 10.1082 4.40948 10.8977
Si 12.4586 0.187036 11.3109
Si 11.171 6.71693 14.5658
Si 13.6714 2.22869 14.6076
Si 10.9032 2.32963 12.8152
Si 13.8208 6.67259 12.8033
O 11.3455 5.64523 15.8156
O 13.8892 1.06594 15.7329
O 12.2022 2.17163 13.7168
O 14.9081 6.98302 13.9268
O 11.1074 1.10741 11.685
O 13.9306 5.13489 12.1923
O 11.0029 3.53659 11.9307
O 13.5197 7.57635 11.5449
O 12.3609 6.61507 13.5007
O 14.9284 2.14379 13.7206
O 11.6277 8.2515 15.2969
O 13.9814 3.51331 15.6551
Si 14.7772 13.308 11.3147
Si 2.56375 8.78069 10.9315
Si 1.62594 15.2449 14.6627
Si 3.65921 10.7372 14.5713
Si 1.17351 10.9183 12.9666
Si 4.02407 15.2067 12.9344
O 1.33828 14.1256 15.8443
O 3.43604 9.51826 15.5275
O 2.42436 11.3771 13.8907
O 5.40182 15.727 13.6776
O 1.72165 9.83931 11.8336
O 4.33149 14.0783 11.6658
O 0.275514 12.2089 12.6197
O 3.5457 16.6386 12.4176
O 2.71496 14.5214 13.6628
O 4.88804 10.2137 13.5401
O 2.0601 16.7154 15.276
O 4.62539 11.915 15.2826
Si 5.49914 12.9308 11.0103
Si 7.81155 8.58057 10.9703
Si 6.74119 15.387 14.6794
Si 8.65774 10.8346 14.519
Si 6.26841 10.6871 12.9689
Si 8.91642 15.4716 12.8288
O 6.2357 14.1342 15.6176
O 8.77896 9.5309 15.7225
O 7.25415 11.1365 14.2322
O 10.0081 16.0648 13.8968
O 7.07731 9.66206 11.9439
O 9.52266 14.422 11.8576
O 6.47661 12.0524 12.0533
O 7.98244 16.5546 12.1709
O 7.85419 14.5881 13.7016
O 9.81513 10.6026 13.3903
O 6.92578 16.863 15.3723
O 9.26536 12.1287 15.2892
Si 10.1091 13.0733 11.0039
Si 12.6456 8.81704 10.9072
Si 11.3958 15.567 14.691
Si 13.8688 10.9429 14.5168
Si 11.2914 10.8909 12.6738
Si 13.9808 15.6612 12.9256
O 11.088 14.1417 15.3721
O 13.0423 10.1951 15.9439
O 12.4455 11.1279 13.862
O 0.170395 15.3491 13.8731
O 11.3716 9.70975 11.6822
O 13.8511 14.5393 11.7138
O 11.2587 12.3635 11.9421
O 13.478 17.2328 12.754
O 12.5716 15.0886 13.7478
O 14.9976 10.0748 13.6815
O 11.8194 16.6097 15.6363
O 14.6047 12.2614 15.2536
324
 Atoms. Timestep: 4500
Si 15.0128 4.26932 16.374
Si 2.73768 0.182219 0.447803
Si 1.28916 6.55772 3.49573
Si 3.34345 2.40143 3.77064
Si 0.998823 2.18841 2.03398
Si 3.6024 6.30134 1.87011
O 0.571198 5.31831 4.37449
O 3.47473 1.18665 4.85615
O 1.84822 2.95001 3.18859
O 4.75178 6.65614 2.92439
O 1.60316 0.758418 1.57334
O 3.60084 5.27332 0.754232
O 1.00252 3.32873 0.873388
O 3.14965 7.79357 1.39215
O 2.46011 5.59059 2.83048
O 4.27144 1.66054 2.54666
O 1.91327 7.76034 4.2178
O 4.10578 3.68617 4.264
Si 5.0346 4.68757 0.0698548
Si 7.41034 0.15632 0.227757
Si 5.9439 6.44161 3.81223
Si 8.34635 2.19446 3.73701
Si 5.62389 2.02466 1.88011
Si 8.45504 6.4377 1.99148
O 6.11523 5.18386 4.80991
O 8.28955 0.971714 4.73751
O 6.85782 2.24645 2.83345
O 9.5518 7.23233 2.94955
O 6.03809 0.798654 0.679821
O 9.28306 5.12605 1.5472
O 5.69081 3.66649 1.15907
O 8.44235 7.44872 0.798925
O 7.21513 5.94673 2.88951
O 9.41373 1.86172 2.52026
O 6.70662 7.656 4.56881
O 8.8409 3.58072 4.51208
Si 9.94376 4.30239 0.373242
Si 12.5063 17.1139 0.144259
Si 11.0468 6.70428 3.46823
Si 13.2941 2.07011 3.82812
Si 10.9183 2.03286 2.0741
Si 13.7937 6.80595 1.71253
O 10.7082 5.1295 4.23969
O 12.9048 0.491719 4.37525
O 11.9001 2.25737 3.29012
O 0.142496 7.11053 2.59381
O 11.609 0.795052 1.07197
O 14.0664 5.25899 1.10609
O 10.9414 3.17829 0.979969
O 13.5836 8.12309 0.728974
O 12.4407 6.4493 2.7421
O 14.3969 1.78989 2.7403
O 11.387 7.99463 4.40934
O 13.8687 3.2224 4.89461
Si 0.299581 13.2578 16.3175
Si 2.29055 8.55628 0.237249
Si 1.58205 15.2111 3.75571
Si 3.65889 10.8652 3.73596
Si 1.22909 10.7877 1.8107
Si 3.93125 14.984 2.05192
O 0.774804 13.9374 4.4975
O 3.28564 9.82494 4.9326
O 2.66229 11.1195 2.48376
O 5.73732 15.2313 2.23635
O 1.14637 9.71444 0.534155
O 4.11689 13.6046 1.10514
O 0.905732 12.214 1.07303
O 3.65142 16.3449 1.13571
O 3.11415 14.772 3.39994
O 5.13357 10.3541 3.22582
O 1.80495 16.3545 4.82958
O 3.76212 12.1635 4.73095
Si 5.03096 12.8531 0.048422
Si 7.8265 8.90445 0.20036
Si 6.61756 15.0661 3.71684
Si 8.54791 11.1209 3.67973
Si 6.20865 10.8544 2.09239
Si 9.15035 15.3988 1.98442
O 5.83981 13.8619 4.56669
O 8.49739 9.64021 4.45097
O 7.20048 11.5528 3.0171
O 10.5946 15.6366 2.8169
O 6.97173 9.55631 1.43997
O 9.29434 14.4958 0.709091
O 5.62303 11.6166 0.736219
O 8.37687 16.8171 1.46801
O 8.0057 14.6433 2.9374
O 9.78761 10.7598 2.75727
O 6.62389 16.4027 4.46771
O 8.66155 12.4128 4.81063
Si 10.0461 13.3235 16.2478
Si 12.2807 8.94413 16.5227
Si 11.6419 14.9013 3.90358
Si 13.658 10.9066 3.55865
Si 11.0145 11.1378 1.74132
Si 14.1265 15.1777 1.89565
O 11.1923 13.4429 4.43139
O 13.2194 9.64229 4.44121
O 12.3702 11.3691 2.54874
O 0.727785 15.1057 2.34446
O 11.2502 9.56674 0.992493
O 13.8889 14.0843 0.597006
O 11.0722 12.2561 0.681772
O 13.4639 16.4625 1.41705
O 13.1169 14.4718 3.19332
O 0.0817416 10.2554 2.93338
O 11.6 15.8826 5.30094
O 14.1648 12.065 4.56888
Si -0.00203664 4.24801 5.41946
Si 2.76873 17.2894 5.68843
Si 1.2227 6.69705 9.14336
Si 3.63267 2.40345 9.39016
Si 1.39677 2.22446 7.3963
Si 3.76694 6.29422 7.32333
O 1.22439 5.97664 10.6097
O 3.54962 1.00773 10.1718
O 2.38609 2.96435 8.55861
O 4.7846 6.5441 8.58855
O 1.89007 0.672659 6.90239
O 3.89683 4.85414 6.6449
O 1.14445 3.16205 6.09104
O 3.74174 7.73381 6.43635
O 2.27985 5.99595 8.25709
O 4.91691 2.18585 8.24284
O 1.7797 8.15924 9.59796
O 4.11978 3.34722 10.7467
Si 4.95707 4.22495 5.53905
Si 7.46277 17.2036 5.6025
Si 6.40016 6.23494 8.96773
Si 8.87239 2.17607 9.04183
Si 6.19783 2.09614 7.32826
Si 9.03341 6.46491 7.00943
O 6.23952 4.97538 9.91348
O 8.31746 1.46473 10.464
O 7.63598 2.54646 7.9018
O 9.81569 6.91106 8.33149
O 6.54016 0.308827 6.81397
O 9.4794 5.12884 6.46085
O 5.89997 3.19569 6.19269
O 8.68009 7.53557 5.91743
O 7.44908 6.34814 7.74668
O 10.2088 1.94705 8.13527
O 6.47815 7.41599 10.1247
O 9.04541 3.75829 9.64756
Si 10.0805 4.2344 5.29674
Si 12.5456 17.0815 5.79255
Si 11.1538 6.58931 9.14947
Si 13.7405 2.71313 8.96322
Si 11.4394 2.39707 7.09991
Si 13.6479 6.28054 7.32852
O 11.1611 5.53321 10.4164
O 12.9986 2.01109 10.1144
O 12.6069 3.16521 7.8182
O 14.694 6.97731 8.38127
O 11.8503 0.721488 6.7938
O 14.4451 5.03744 6.70064
O 11.1693 3.02758 5.7349
O 13.6009 7.27662 6.10566
O 12.3188 5.83828 8.15901
O 14.8421 1.74021 8.17945
O 11.8366 8.0074 9.93889
O 14.4888 4.10763 9.61969
Si 0.164587 12.885 5.61721
Si 2.45796 8.56199 5.52553
Si 1.58271 15.1503 9.28038
Si 3.87303 10.8426 9.08434
Si 1.39824 10.6342 7.27577
Si 4.26888 15.1892 7.40763
O 1.59323 13.5078 10.0241
O 3.8183 9.69701 10.2405
O 2.8172 10.666 7.95989
O 5.72943 15.415 7.87912
O 1.26661 9.02486 6.6949
O 4.43065 13.7678 6.75735
O 1.32822 11.7416 6.08623
O 3.89613 16.5078 6.36755
O 2.8886 15.0037 8.40514
O 5.12817 10.3121 8.35642
O 2.01826 16.1765 10.5814
O 3.88394 12.1618 9.86759
Si 5.15681 12.8496 5.62083
Si 7.60698 8.60899 5.38604
Si 6.48053 15.2057 9.26237
Si 9.05514 10.988 9.38279
Si 6.60753 10.7691 7.56815
Si 8.91467 15.1957 7.41365
O 5.89983 13.9754 10.2484
O 8.46496 9.69027 9.99318
O 7.96739 11.2876 8.22899
O 10.3412 15.6169 8.05436
O 7.07347 9.52001 6.67528
O 9.3535 13.7662 6.66023
O 5.87063 11.5642 6.37349
O 8.45784 16.0752 6.16641
O 8.07176 14.9088 8.87388
O 10.4773 10.4078 8.53207
O 6.56485 16.7671 9.94959
O 9.15809 12.4528 9.8647
Si 10.1685 12.8952 5.55243
Si 12.5344 8.49107 5.48696
Si 11.5037 15.3333 9.06796
Si 13.9911 11.2248 9.18998
Si 11.6207 10.7088 7.38845
Si 13.9369 15.0329 7.52295
O 10.896 14.4887 10.2273
O 13.5551 9.87941 10.072
O 13.0598 11.3436 7.77947
O 0.0866034 15.2721 8.60563
O 11.8026 9.01639 6.82792
O 14.8088 13.6969 6.91985
O 10.9459 11.5708 6.08666
O 13.6599 15.913 6.25107
O 12.4614 14.4041 8.17774
O 0.537195 10.9868 8.7384
O 12.1645 16.8196 9.44748
O 14.0811 12.5096 10.0794
Si 0.232325 4.81703 10.9336
Si 2.75359 0.073423 11.3223
Si 1.4327 6.26239 14.6806
Si 3.60634 2.5531 14.8149
Si 1.12246 2.47183 12.9117
Si 3.83789 6.78506 12.8501
O 1.03918 4.79284 15.2639
O 3.63098 1.39056 16.1083
O 2.04629 2.61617 14.2564
O 4.94316 7.52929 13.7297
O 1.77162 1.01133 12.0734
O 4.42785 5.58746 11.825
O 1.25082 3.82495 11.8931
O 2.96534 8.07543 12.2018
O 2.71606 6.09506 13.788
O 4.63811 1.93369 13.6146
O 1.6329 7.50376 15.6193
O 4.29447 4.10174 15.1478
Si 5.26637 4.38505 11.1452
Si 7.58233 0.235797 11.196
Si 6.17608 6.98544 14.6333
Si 8.63371 2.28679 14.829
Si 6.1351 2.22454 13.1844
Si 8.66284 6.42172 12.8372
O 5.95442 5.84357 15.8132
O 8.72672 1.01566 15.8918
O 7.26436 2.73583 14.191
O 9.6857 7.18186 13.8376
O 6.47429 0.647713 12.3214
O 9.07802 5.04217 12.1694
O 6.11968 3.46797 12.0629
O 8.51169 7.80281 11.8718
O 7.05185 6.23643 13.4976
O 9.70101 2.00033 13.5719
O 7.04319 8.13787 15.2941
O 9.19279 3.64544 15.4632
Si 9.96827 4.44056 10.9031
Si 12.7886 0.412099 10.6431
Si 10.9886 6.76366 14.8522
Si 13.4821 2.12792 14.5972
Si 11.1368 2.2443 12.6925
Si 13.5014 6.41498 12.95
O 10.6796 5.75006 16.0497
O 13.5847 0.850001 15.5984
O 11.9715 2.62712 13.9994
O 14.8633 6.62807 13.9415
O 11.9036 0.92472 11.9711
O 13.967 5.34738 11.7826
O 11.0051 3.35444 11.5801
O 13.5779 7.68956 11.8634
O 12.207 6.17851 13.9063
O 14.4823 2.11559 13.2891
O 11.4136 8.19188 15.31
O 13.8783 3.40889 15.5548
Si 0.532046 13.1405 11.1391
Si 2.6833 8.76334 10.8477
Si 1.47722 15.8104 14.7207
Si 3.51796 10.6257 14.6961
Si 1.14886 10.6316 12.8916
Si 3.9725 15.2564 12.8542
O 1.27547 14.4701 15.7864
O 3.42839 9.26968 15.6565
O 2.32311 11.1818 13.8582
O 5.21535 15.1303 13.9542
O 1.52131 9.79059 11.6545
O 3.86231 14.0638 11.6546
O 0.64798 11.9329 12.2526
O 3.98991 16.766 12.3383
O 2.62501 15.3218 13.7305
O 4.99046 10.2051 13.6943
O 1.55342 17.1766 15.6298
O 3.86731 11.9897 15.7429
Si 4.76993 13.0567 10.8026
Si 7.35383 8.65871 10.9276
Si 6.4963 14.895 14.8433
Si 8.64657 11.0059 14.6998
Si 5.93079 10.817 12.7293
Si 9.04349 14.9767 12.7826
O 6.21171 13.589 15.7085
O 8.86569 9.68186 15.7181
O 7.38461 10.8818 13.707
O 10.1429 15.7095 13.6096
O 6.40137 9.94874 11.3554
O 8.74112 13.5946 11.949
O 5.46451 12.1392 11.9443
O 8.70617 16.2944 11.529
O 7.68869 14.6228 13.8442
O 10.1565 10.8003 14.0114
O 6.99378 16.1013 15.8289
O 8.69594 12.2 15.7691
Si 10.048 13.2344 10.9109
Si 12.6747 8.81315 10.9929
Si 11.4769 15.2684 14.3635
Si 13.8032 11.0544 14.6226
Si 11.3732 10.9842 12.8807
Si 14.1194 15.6609 12.6733
O 10.9346 13.7661 14.8996
O 13.128 9.99586 15.6856
O 12.604 11.5968 13.7649
O 15.0307 15.8917 14.0063
O 11.4647 9.70412 12.0516
O 14.8751 14.4116 11.9027
O 10.9204 12.0662 11.6897
O 13.964 16.6356 11.235
O 12.64 15.3145 13.1204
O 14.7659 10.0353 13.7324
O 11.8326 16.2556 15.6136
O 14.6016 12.4042 15.0399
324
 Atoms. Timestep: 5000
Si 14.9393 4.32284 16.4294
Si 2.7101 0.272084 0.174999
Si 0.777851 6.31993 3.82385
Si 3.75218 2.5184 3.59964
Si 1.23292 2.19975 2.01074
Si 3.44432 6.59499 2.05741
O 0.485379 5.01651 4.50498
O 3.83326 1.00842 4.32733
O 2.23822 2.82223 3.0372
O 4.58293 7.02634 3.21417
O 1.56288 0.792286 1.18808
O 3.80085 5.20683 1.20274
O 1.0575 3.41642 0.903963
O 3.16606 8.13497 1.45465
O 2.04844 6.23272 2.77284
O 4.62033 2.13925 2.17172
O 1.28843 7.47544 4.88223
O 4.55924 3.64561 4.41069
Si 5.09893 4.66843 0.203863
Si 7.52198 17.1679 0.336288
Si 6.09225 6.78986 3.66662
Si 8.45403 2.42515 3.82458
Si 6.15168 2.39121 1.93202
Si 8.65023 6.51028 1.64495
O 6.09352 5.65757 4.73329
O 8.61875 1.04999 4.7878
O 6.89698 2.652 3.32479
O 9.76374 6.57129 2.90735
O 6.88838 1.40183 0.808866
O 9.16356 5.31212 0.682969
O 6.12707 3.93638 1.16103
O 8.82305 7.67928 0.517768
O 7.12798 6.34778 2.32728
O 9.34217 2.36303 2.37138
O 6.59291 8.31976 4.36714
O 8.94846 3.78193 4.49412
Si 10.1778 4.30388 16.3817
Si 12.146 17.2141 0.17739
Si 11.1243 6.41897 3.74388
Si 13.5953 2.01167 3.88308
Si 10.9293 2.01274 1.90271
Si 13.4684 6.33698 1.75804
O 11.234 5.21669 5.05997
O 13.8776 0.65276 4.70977
O 11.8758 2.12998 3.20526
O 14.3178 6.97606 3.10511
O 10.9424 0.366086 1.16404
O 14.1837 5.06968 1.24505
O 11.1221 3.1676 0.756898
O 13.5762 7.62154 0.642098
O 12.0835 5.66598 2.64379
O 14.8036 1.98492 2.8212
O 11.688 7.52663 4.67335
O 13.5996 3.18291 5.20187
Si 14.8539 13.4349 0.276696
Si 2.34146 8.78643 0.0894475
Si 1.45645 15.1292 3.84944
Si 3.62755 10.6027 3.75792
Si 0.972942 11.0809 1.81085
Si 3.96193 15.0855 1.80879
O 1.34772 13.8153 4.86199
O 3.3304 9.1809 4.50867
O 2.40009 11.0178 2.85804
O 5.46093 14.8166 2.48477
O 1.43606 9.92551 0.637128
O 3.76086 13.7884 0.764965
O 1.07214 12.5248 0.906852
O 3.78281 16.4596 0.913895
O 2.77813 15.312 2.89158
O 4.89157 10.1273 2.7622
O 1.50629 16.4201 4.86601
O 4.03613 12.0722 4.46718
Si 4.57133 12.7569 16.1409
Si 7.59968 8.81857 16.2624
Si 6.64253 14.924 3.64458
Si 8.39388 11.1441 3.83297
Si 6.08931 10.563 1.82755
Si 9.13189 15.1513 1.99765
O 6.07098 13.8722 4.96134
O 8.97881 9.64264 4.65244
O 7.0886 11.3253 2.84207
O 10.6449 15.3948 2.61688
O 6.703 9.28003 1.18185
O 9.31651 14.2325 0.592924
O 5.34559 11.5221 0.595621
O 8.28586 16.4692 1.44199
O 7.97243 14.3105 2.96356
O 9.42107 11.0064 2.59849
O 6.64901 16.497 4.1721
O 8.80949 12.2845 4.78406
Si 10.105 13.1347 16.2313
Si 12.478 9.01188 16.4043
Si 11.6145 15.2847 3.91545
Si 13.5333 10.9414 3.63703
Si 10.9006 10.9531 1.95175
Si 13.9615 15.424 1.9855
O 10.9813 13.933 4.463
O 13.4889 9.56201 4.41005
O 11.9268 11.2755 3.16145
O 0.545375 15.5865 2.65474
O 11.3238 9.45294 1.06138
O 13.7995 13.9313 1.45151
O 11.0143 12.0115 0.680439
O 13.5435 16.7211 1.2119
O 13.0118 15.2426 3.26622
O 14.4043 10.704 2.21759
O 11.5283 16.6444 4.86454
O 14.1841 12.2747 4.25792
Si 14.7527 4.04558 5.72228
Si 2.81332 17.1583 5.42475
Si 1.4349 6.55605 9.21639
Si 3.89597 2.41061 9.23992
Si 1.60305 1.97811 7.26516
Si 3.81067 6.41242 7.39339
O 1.27222 5.68388 10.6008
O 3.23109 1.31141 10.1253
O 2.85584 2.86463 8.10959
O 4.72327 6.84055 8.49688
O 2.27218 0.681485 6.73991
O 4.22923 5.09447 6.62315
O 1.18922 3.04925 6.11467
O 3.44012 7.21562 6.03734
O 2.41816 5.68224 8.1986
O 5.4016 1.97384 8.56832
O 2.22342 8.06383 9.34728
O 4.29334 3.72314 10.0337
Si 5.44071 4.34788 5.62
Si 7.64284 17.1001 5.55965
Si 6.29123 6.7556 9.06206
Si 8.96965 2.30129 9.24907
Si 6.54904 2.16242 7.40802
Si 8.75903 6.4339 7.36845
O 6.0548 5.75858 10.2376
O 8.8676 1.37718 10.5636
O 7.96158 2.4826 7.96293
O 9.78759 6.96336 8.64944
O 6.72039 0.740239 6.59473
O 9.25298 5.0249 6.89943
O 6.50262 3.43915 6.30965
O 8.74903 7.52314 6.14343
O 7.11491 6.23995 7.78669
O 10.4248 1.73579 8.7584
O 6.91236 7.95913 9.75118
O 8.91385 3.81647 9.77449
Si 9.97331 4.26668 5.63253
Si 12.7061 17.3327 5.61865
Si 11.1589 6.69211 9.44533
Si 13.9798 2.30752 9.19446
Si 11.4148 2.22851 7.55997
Si 13.8269 6.34791 7.53327
O 11.13 5.2747 10.0921
O 13.5236 1.61779 10.5388
O 12.7841 2.77126 8.13002
O 0.0995235 6.8091 8.38608
O 11.851 0.69313 7.06058
O 14.2113 4.85475 7.11282
O 10.7378 2.75407 6.26777
O 13.9251 7.49912 6.22581
O 12.343 6.59957 8.37477
O 0.310235 1.59753 8.33061
O 11.3213 8.13427 10.2379
O 14.4984 3.78666 9.75406
Si 0.294466 12.7514 5.52819
Si 2.43683 8.25434 5.63558
Si 1.42259 15.2695 9.09767
Si 3.85221 11.1812 9.17597
Si 1.28709 10.4609 7.36936
Si 3.97015 14.9494 7.22205
O 1.40348 13.7183 9.79036
O 3.41274 10.3272 10.4629
O 2.3996 11.3533 8.49513
O 5.36887 15.3497 7.98229
O 1.93787 9.11526 6.81814
O 4.3578 13.482 6.72361
O 1.31133 11.4722 6.13259
O 3.97029 16.1203 6.04817
O 2.89934 15.1519 8.47624
O 5.08642 10.4056 8.52427
O 1.44562 16.5285 10.3266
O 4.39257 12.6728 9.70236
Si 5.1313 12.8054 5.51754
Si 7.77418 8.72984 5.47517
Si 6.45958 15.6535 9.18546
Si 8.79365 10.8295 9.04522
Si 6.34564 10.667 7.50837
Si 8.92506 14.9619 7.54272
O 6.24279 14.6628 10.6752
O 8.11746 10.2107 10.3612
O 7.86431 11.5393 7.94014
O 10.2568 15.8043 8.30413
O 6.69572 9.33017 6.67118
O 9.63784 13.8304 6.71823
O 5.78623 11.4952 6.24236
O 8.41371 15.9081 6.29141
O 7.78703 14.783 8.77984
O 9.81334 10.2461 7.87844
O 6.95421 17.1865 9.69232
O 9.47079 12.2635 9.55638
Si 10.2148 12.931 5.46019
Si 12.7992 8.43812 5.36326
Si 11.619 15.5051 9.20866
Si 13.6012 11.0121 9.37746
Si 11.354 10.4709 7.11284
Si 14.0602 15.0702 7.32271
O 11.1314 14.3493 10.2008
O 13.3318 9.69776 10.2768
O 12.306 11.2524 8.62179
O 0.394184 15.8831 7.95806
O 12.2538 9.27951 6.54624
O 14.6786 13.5699 6.86795
O 11.0309 11.5937 5.88424
O 13.5286 15.8512 6.0185
O 13.136 14.6869 8.5222
O 14.8198 10.5852 8.25361
O 11.9787 16.9866 9.82563
O 14.4728 12.0533 10.09
Si 0.115142 4.29357 11.0556
Si 2.50096 0.133144 11.0363
Si 1.32501 6.39166 14.4533
Si 3.73505 2.42777 14.7567
Si 1.134 1.98132 13.1535
Si 3.7873 6.67909 12.8981
O 1.05663 5.19915 15.5536
O 3.69985 1.61884 16.1733
O 2.39577 2.5427 13.9047
O 4.77795 7.25891 13.9891
O 1.60824 0.847807 12.0768
O 4.61029 5.51793 12.3711
O 0.680904 3.26107 12.1662
O 3.45997 7.803 11.6268
O 2.47423 5.80314 13.487
O 4.93097 1.88256 13.8002
O 1.97418 7.78753 15.2555
O 4.45574 3.94502 15.3205
Si 5.27353 4.49151 10.9888
Si 7.82601 0.291239 11.0503
Si 6.17083 6.7711 14.678
Si 8.65149 1.87812 14.861
Si 6.26868 2.14311 12.9457
Si 8.83181 6.60496 12.862
O 5.95579 5.83926 16.0916
O 8.49174 0.463071 15.5795
O 7.2414 2.19419 14.1772
O 10.0252 6.87656 13.6479
O 6.7258 0.983097 11.925
O 9.23577 5.36952 12.0561
O 6.02405 3.48396 12.0412
O 8.46468 7.78268 11.8853
O 7.35807 6.09458 13.7649
O 9.61674 1.60767 13.6551
O 6.61536 8.30749 15.1173
O 9.07464 3.39039 15.4749
Si 9.85447 4.47123 10.9568
Si 12.5889 0.372888 11.2012
Si 11.2831 6.75389 14.6918
Si 13.3546 2.32332 14.6967
Si 10.9197 2.15121 12.8996
Si 13.5637 6.3324 12.6959
O 11.238 5.38428 15.6736
O 12.439 1.18564 15.5344
O 12.2082 2.74615 13.7473
O 14.8248 6.60904 13.7752
O 11.3279 0.751252 12.1032
O 13.6599 5.21713 11.5348
O 10.7452 3.45623 11.8095
O 13.4662 7.69124 11.838
O 12.4896 6.12241 13.8361
O 14.8206 1.64013 14.1213
O 11.5182 8.23943 15.1215
O 13.7211 3.64347 15.5501
Si 0.498719 13.0914 11.0105
Si 2.60466 8.87377 10.6485
Si 1.26717 15.5586 14.8034
Si 3.67027 10.6848 14.4748
Si 1.25025 10.5574 12.4983
Si 3.81327 15.3064 12.7857
O 0.670057 14.8007 16.1142
O 3.64473 9.61215 15.7257
O 2.83722 10.4347 13.1157
O 4.7525 15.5678 14.0626
O 1.06493 9.43285 11.4608
O 4.11647 13.818 12.2964
O 1.48981 12.1371 11.8968
O 3.68285 16.4143 11.6303
O 2.2799 14.848 13.7615
O 5.29783 10.5927 14.0002
O 1.66149 16.8892 15.3701
O 3.33621 12.1903 15.13
Si 5.38274 13.3557 11.036
Si 7.55 8.75906 11.0679
Si 6.12956 15.049 14.6767
Si 8.7875 11.1913 14.552
Si 6.22347 10.7372 12.6967
Si 8.72693 15.0596 12.8238
O 5.57648 13.827 15.6251
O 8.09645 10.19 15.525
O 7.80614 11.2793 13.2409
O 9.81483 15.4052 14.0606
O 6.06371 9.35249 11.7056
O 9.1062 13.8061 11.8903
O 6.067 11.9979 11.7651
O 8.86933 16.2862 11.7116
O 7.25985 14.9595 13.643
O 10.3222 10.9448 14.0936
O 6.42164 16.2641 15.9195
O 8.76865 12.5357 15.3933
Si 10.1967 13.1428 10.7661
Si 12.5188 8.69998 11.1448
Si 11.2925 14.8644 14.3949
Si 13.8654 11.2619 14.7232
Si 11.3372 10.9534 12.9001
Si 14.0015 15.213 12.8396
O 11.1413 13.4156 15.0324
O 13.4099 10.012 15.5457
O 12.6922 11.6312 13.6388
O 14.8046 15.7956 14.0682
O 11.2936 9.68264 12.0806
O 14.5377 14.359 11.5242
O 11.1402 12.1473 11.6065
O 13.6043 16.6785 12.04
O 12.4844 14.6351 13.2919
O 0.232971 10.9348 13.7976
O 11.5627 15.9226 15.7027
O 13.7514 12.4657 15.9633
324
 Atoms. Timestep: 5500
Si 0.278392 4.59161 0.22041
Si 2.68738 17.2136 0.22978
Si 1.05943 6.71413 4.09342
Si 3.9242 2.39109 3.75711
Si 1.44013 2.26303 1.91125
Si 3.6363 6.54104 2.00764
O 1.10388 5.4432 5.18236
O 3.84896 1.46902 5.02091
O 2.19844 2.33112 3.35299
O 4.69291 7.04533 3.13094
O 1.95879 0.916807 1.15226
O 4.1444 5.16426 1.2658
O 1.28174 3.41525 0.753921
O 3.29034 7.66231 0.908634
O 2.25576 6.5881 2.99886
O 4.76495 2.0352 2.49378
O 1.3042 8.07511 4.95023
O 4.07746 3.69167 4.80514
Si 5.16613 4.55638 0.0305542
Si 7.50012 0.19098 0.124389
Si 6.00036 6.54329 3.83346
Si 8.69166 2.13036 3.8226
Si 6.23119 2.28969 1.86423
Si 8.48072 6.51671 2.16863
O 6.35177 4.9704 4.30829
O 8.51887 0.873575 4.81114
O 7.36523 2.56259 3.07744
O 9.41256 7.07156 3.32531
O 6.69352 1.36032 0.761288
O 9.14005 5.0906 1.53014
O 5.91503 3.54507 0.90288
O 8.70275 7.55077 0.912201
O 6.97442 6.30686 2.46321
O 9.60959 1.9234 2.59187
O 6.21896 8.1138 4.63556
O 9.20189 3.30208 4.76754
Si 9.8527 4.51234 0.227516
Si 12.5707 0.273015 -0.00577454
Si 10.9039 6.62645 3.82962
Si 13.7306 2.15789 3.6771
Si 11.0478 2.12798 1.78406
Si 13.6485 6.32965 2.09121
O 10.9808 5.62296 5.10945
O 13.7457 0.923287 4.78974
O 12.2318 2.44756 3.01923
O 14.4631 6.71204 3.53243
O 11.4257 1.1342 0.503416
O 14.202 4.95777 1.46163
O 11.1832 3.62315 0.928672
O 13.4951 7.34374 0.757819
O 12.114 6.17014 2.6543
O 14.7805 1.88122 2.56676
O 11.3989 7.94591 4.55176
O 14.0817 3.65926 4.54462
Si 0.163254 13.0242 0.174992
Si 2.81372 8.88015 16.3919
Si 1.30007 15.1195 3.78962
Si 3.37684 10.6764 3.76682
Si 0.915646 10.6554 1.95433
Si 3.99418 15.0608 2.03123
O 0.741025 14.2186 4.89064
O 3.78727 9.45118 4.79419
O 1.62768 10.6812 3.43932
O 5.57053 15.6323 2.37772
O 1.75314 9.91318 0.855871
O 3.80322 13.8325 0.985245
O 1.10473 12.0972 1.30447
O 3.53664 16.3662 1.20682
O 2.78392 14.7843 3.12199
O 4.32755 10.7693 2.18388
O 1.79725 16.6871 4.3109
O 3.8989 12.1332 4.35754
Si 5.05663 13.0957 0.264079
Si 7.75475 8.72627 0.182133
Si 6.48586 14.8961 3.55444
Si 8.56856 10.7113 3.80018
Si 5.98029 10.8757 1.88398
Si 8.60874 15.0768 1.94667
O 5.62215 13.7657 4.34003
O 8.24858 9.83848 5.16585
O 7.08018 10.9169 3.11634
O 9.78688 15.5182 2.97904
O 6.48958 9.66056 0.897719
O 8.87452 14.1649 0.608108
O 6.19279 12.4098 1.1488
O 7.95206 16.4587 1.42558
O 7.77017 14.0468 3.02608
O 9.55218 9.84345 2.89948
O 6.66605 16.2151 4.3959
O 9.3125 12.1254 3.90615
Si 9.94943 13.0159 0.0379597
Si 12.691 8.66586 0.202322
Si 11.2361 15.4674 3.95045
Si 13.4924 10.9074 3.70663
Si 10.9894 10.5961 2.09282
Si 13.591 15.2018 1.93051
O 10.9114 14.2834 4.99875
O 13.6605 9.88469 5.10088
O 11.9107 11.2497 3.44397
O 0.193447 15.363 2.72397
O 11.7461 9.37819 1.2381
O 13.866 13.8448 1.00234
O 10.4976 11.9528 1.11901
O 13.493 16.6818 1.29397
O 12.3367 14.739 2.83743
O 14.2759 10.228 2.21988
O 11.3812 16.8806 4.8421
O 14.1464 12.3478 3.98839
Si 14.8667 4.29473 5.74262
Si 2.88634 0.10942 5.44988
Si 1.21078 6.80584 9.15951
Si 3.9334 2.31893 9.08844
Si 1.44556 2.0171 7.44208
Si 3.71783 6.29654 7.36791
O 1.54107 5.82854 10.4424
O 3.96936 1.06506 10.3722
O 2.46575 2.52896 8.58566
O 4.81098 6.50251 8.64205
O 2.1159 0.800292 6.74307
O 4.57002 5.33282 6.40155
O 0.873944 3.11505 6.39053
O 3.75513 7.54149 6.28012
O 2.34229 6.27324 7.93157
O 5.06939 1.73934 8.17083
O 1.71812 8.21231 9.6134
O 4.30582 3.91732 9.64506
Si 5.36912 4.31309 5.51029
Si 7.51934 16.9459 5.55638
Si 6.46649 6.54287 9.15784
Si 8.6662 2.20939 9.30842
Si 6.44609 1.83096 7.27642
Si 8.81379 6.27209 7.34863
O 6.37271 5.60083 10.486
O 8.36852 1.23783 10.5403
O 7.79272 1.82299 8.02011
O 9.6609 7.18977 8.39598
O 6.39116 0.578158 6.41269
O 9.51674 4.77815 7.01784
O 6.28934 3.19899 6.13817
O 8.25791 7.39162 6.26465
O 7.32042 6.01443 8.00107
O 10.3266 1.85274 8.96285
O 7.06365 8.10078 9.66376
O 8.91879 3.7592 9.65964
Si 10.2097 4.20405 5.7238
Si 12.7376 17.3224 5.84192
Si 11.0197 6.81882 9.07086
Si 14.0804 2.28078 9.23407
Si 11.4365 2.15551 7.83312
Si 13.5178 6.52654 7.43677
O 11.0268 5.54314 10.0995
O 14.1077 1.17838 10.3687
O 12.8538 2.83418 8.33508
O 14.6193 6.82657 8.45432
O 12.052 0.829515 7.12502
O 13.8569 5.17304 6.65751
O 11.189 3.09078 6.35279
O 13.5593 7.80566 6.40473
O 11.9929 6.6557 7.85843
O 0.244856 1.67467 8.2838
O 11.3296 8.19716 9.87898
O 14.5783 3.92207 9.79798
Si 14.9176 12.7542 5.48004
Si 2.58036 8.57417 5.68279
Si 1.35974 15.4398 9.02079
Si 3.65307 11.1311 9.11712
Si 1.29261 11.0101 7.31659
Si 3.94385 14.8785 7.09245
O 0.662478 14.6585 10.4737
O 3.50532 9.83252 10.2502
O 2.31901 11.7097 8.59726
O 5.5763 15.1691 7.47299
O 1.89879 9.60869 6.79281
O 4.38019 13.4199 6.5251
O 1.26509 11.8827 6.03581
O 3.82478 16.0082 5.95914
O 2.99248 15.0187 8.38951
O 4.6371 10.6059 7.93159
O 1.75752 16.9491 9.68152
O 4.15038 12.3757 9.88325
Si 5.07086 12.7677 5.24874
Si 7.3943 8.62321 5.58975
Si 6.49024 15.1364 8.87374
Si 8.65026 11.037 9.11499
Si 6.24839 10.6907 7.19825
Si 8.90268 14.702 7.28954
O 6.12736 14.2493 10.2205
O 8.86345 10.1293 10.4054
O 7.1053 11.2191 8.60719
O 10.4583 15.2582 7.9593
O 6.46064 9.12839 6.86679
O 8.71034 13.4507 6.24623
O 6.11064 11.789 5.87387
O 8.40821 16.0465 6.59675
O 7.86251 14.6362 8.55753
O 9.44869 10.6243 7.70655
O 6.56527 16.6468 9.74543
O 9.42538 12.3962 9.71445
Si 9.97121 12.9193 5.27107
Si 12.5849 8.8042 5.61586
Si 11.6103 15.1352 9.14962
Si 13.6799 11.0114 9.12348
Si 11.0538 10.8373 7.19191
Si 13.7648 14.6378 7.33277
O 10.8741 14.541 10.5117
O 13.4017 9.75604 10.2506
O 12.2321 11.0378 8.42144
O 0.231343 15.4271 7.90413
O 11.4202 9.30487 6.59967
O 13.9612 13.1591 6.73413
O 11.1614 11.9611 6.00494
O 13.4809 15.9525 6.28446
O 12.887 14.4454 8.50936
O 14.799 10.5163 7.99359
O 12.2037 16.4813 9.8071
O 14.3471 12.2692 9.82076
Si 0.601216 4.45396 11.0013
Si 2.82533 0.0885801 10.8557
Si 0.995795 6.83535 14.4415
Si 3.80768 2.39236 14.8871
Si 1.4926 2.19743 12.9359
Si 3.66536 6.41176 12.9469
O 0.878768 5.874 15.8368
O 3.70888 1.0557 15.7163
O 2.24103 2.76189 14.3565
O 4.60911 7.01782 14.2652
O 1.97838 0.868919 12.1351
O 4.35646 5.3506 12.1232
O 1.63438 3.34822 11.8521
O 3.60907 7.64315 11.7431
O 2.26116 6.10637 13.7439
O 4.8958 2.3712 13.6553
O 1.75976 8.18838 15.2229
O 4.17955 3.88475 15.3735
Si 5.27852 4.50925 10.8794
Si 7.32415 0.024346 11.0303
Si 6.16297 6.72554 14.6982
Si 8.88414 2.27852 14.5982
Si 6.30365 2.26352 12.7341
Si 8.47295 6.59354 12.7175
O 6.32879 5.41206 15.7826
O 8.7002 0.84232 15.5
O 7.53372 2.20982 13.7041
O 9.23448 6.69026 14.1342
O 6.17095 0.778486 11.9733
O 9.26661 5.45744 11.8713
O 6.25229 3.30802 11.4595
O 8.70232 7.94178 11.7609
O 6.98437 6.60351 13.1882
O 10.1981 1.79969 13.6713
O 6.84564 8.12448 15.2888
O 8.91928 3.59919 15.5995
Si 9.93169 4.42837 10.8256
Si 13.0018 17.3533 10.9044
Si 10.8563 6.72391 14.6542
Si 13.7554 2.55122 14.643
Si 11.4517 2.15167 12.7018
Si 13.4388 6.42924 12.6443
O 10.8034 5.45568 15.6143
O 13.5611 1.28761 15.6482
O 12.6655 3.00455 13.416
O 14.2936 7.09471 14.0278
O 11.8122 0.779356 12.0133
O 14.0385 5.05065 12.125
O 10.708 3.46876 11.8333
O 13.3551 7.42583 11.3062
O 11.8218 6.4484 13.2122
O 14.9499 1.77448 13.6361
O 11.4961 7.95117 15.4869
O 14.0664 3.93327 15.4773
Si 15.0355 13.1783 10.9824
Si 2.72656 8.79077 10.9022
Si 1.2958 15.3809 14.7744
Si 4.20528 10.8905 14.6543
Si 1.64094 10.6821 12.7141
Si 3.55198 15.0746 12.8014
O 1.27996 14.1827 15.9091
O 3.87402 9.48607 15.4337
O 3.05564 11.3415 13.4283
O 4.4954 15.8659 13.8851
O 1.51991 9.33623 11.9096
O 4.36601 13.8347 12.1631
O 1.18771 12.1007 11.6419
O 3.14584 15.9348 11.5328
O 2.08757 14.6235 13.5579
O 5.67047 11.1625 13.9078
O 1.6518 16.6872 15.4245
O 4.20056 11.802 15.8604
Si 5.25186 13.0383 10.8896
Si 7.74168 8.9213 10.8481
Si 5.977 15.2397 14.4425
Si 9.1998 11.017 14.7639
Si 6.77082 10.9945 12.6867
Si 8.5212 15.1094 12.8526
O 5.61382 14.2997 15.6278
O 8.74565 9.82201 15.8277
O 8.26139 11.1462 13.462
O 9.7466 15.3686 13.9967
O 6.70318 9.78866 11.776
O 8.87978 13.7266 11.9654
O 6.33441 12.2599 11.7379
O 8.34391 16.3715 11.989
O 7.12849 14.6059 13.5229
O 10.6742 10.4702 14.3093
O 6.91743 16.5595 15.0838
O 8.81606 12.314 15.4915
Si 10.2464 13.0644 11.0546
Si 12.3942 8.75373 10.8353
Si 11.1833 15.1603 14.5921
Si 14.039 10.6423 14.6441
Si 11.5892 10.8638 12.9194
Si 13.8409 15.1687 12.8045
O 11.0268 13.9395 15.6331
O 13.6495 9.61521 15.7805
O 12.9976 11.2327 13.5849
O 14.7964 15.8476 13.9338
O 11.5326 9.55709 12.0865
O 14.0072 13.7426 12.1311
O 11.1291 12.1089 11.8136
O 14.0598 16.3347 11.7152
O 12.2932 15.0932 13.4312
O 0.63237 10.6348 13.8926
O 11.7645 16.371 15.4851
O 14.2847 12.1752 15.4768
324
 Atoms. Timestep: 6000
Si 0.130302 4.5166 0.124556
Si 2.40238 17.0857 16.4033
Si 1.35021 6.89148 3.52955
Si 3.63337 2.14253 3.93284
Si 1.1495 2.22172 1.92498
Si 3.67939 6.5301 1.84366
O 1.51432 5.56452 4.67062
O 3.44423 1.25785 5.14819
O 2.09145 2.38199 3.13709
O 4.71838 7.00697 3.12292
O 1.57768 0.97192 0.942134
O 4.10952 5.18975 1.1725
O 0.797096 3.72394 1.45909
O 3.49662 7.94642 0.891304
O 2.13694 6.47177 2.2215
O 4.52854 1.81196 2.59368
O 2.1502 8.13152 4.19901
O 3.9365 3.55703 4.78893
Si 5.16517 4.46251 0.141972
Si 7.63289 0.413648 16.3219
Si 6.06753 6.84799 4.02308
Si 8.94364 2.19965 3.78382
Si 6.10684 2.24878 1.90621
Si 8.30694 6.67467 2.00738
O 5.63712 5.93204 5.22308
O 8.89641 1.19017 5.08061
O 7.32247 1.91102 3.15716
O 9.51281 6.88334 3.03374
O 6.24203 1.0676 0.853158
O 8.93141 5.17555 1.24598
O 6.06266 3.84131 1.43894
O 8.29168 7.79326 0.930095
O 7.09543 6.13335 2.97206
O 9.9226 1.66811 2.72176
O 6.83424 8.31507 4.36669
O 9.17249 3.71084 4.34424
Si 10.0899 4.6501 0.351832
Si 12.8234 0.266979 16.2404
Si 10.9587 6.72407 3.67732
Si 13.8002 2.49055 3.87639
Si 11.3801 2.12793 2.13836
Si 13.677 6.65595 1.8542
O 10.9116 5.68109 4.811
O 13.8959 1.42184 5.0337
O 12.2211 2.78408 3.43616
O 14.7443 7.10866 3.05636
O 12.1318 1.02893 1.22055
O 13.8956 5.48784 0.578101
O 10.9306 3.46062 1.21457
O 13.5265 7.88021 0.709228
O 12.1611 6.27014 2.57297
O 14.6421 1.78281 2.67954
O 11.188 8.19129 4.55335
O 14.2992 3.95463 4.37095
Si 0.143371 13.008 16.4303
Si 2.57272 9.00019 16.4098
Si 1.03458 15.4273 3.80597
Si 3.7342 10.8108 3.76634
Si 1.0793 10.7664 1.77682
Si 3.8154 15.146 2.05211
O 1.16541 14.1822 4.70942
O 3.7838 9.69509 4.90853
O 2.23625 10.9603 2.90668
O 4.91288 15.7985 3.20113
O 1.34359 9.96123 0.515742
O 4.29923 13.7439 1.38502
O 0.650412 12.0801 1.18163
O 3.2627 15.849 0.616668
O 2.28861 15.0946 2.71488
O 4.80112 10.5761 2.6027
O 1.15575 16.7726 4.71246
O 3.93104 12.2209 4.45833
Si 5.36424 13.0773 0.544162
Si 7.60898 8.8004 16.1912
Si 6.37735 15.1855 3.778
Si 8.85287 10.7501 3.70415
Si 6.31741 10.6755 1.94444
Si 8.82156 15.203 1.85101
O 5.79896 14.0791 4.80499
O 8.87823 9.61383 4.90925
O 7.35595 10.7526 3.15005
O 9.61377 15.8778 3.01036
O 6.60576 9.70966 0.746652
O 9.64996 14.0391 1.33655
O 6.29449 12.0561 1.12965
O 8.54817 16.402 0.800589
O 7.35672 14.8682 2.54568
O 9.97487 10.2403 2.63223
O 7.03503 16.3633 4.83833
O 9.36544 12.1525 4.46544
Si 10.2347 13.1138 16.4319
Si 12.5285 8.79133 16.1817
Si 11.1371 15.4098 3.59714
Si 13.7177 10.9455 3.65896
Si 11.1858 10.5736 1.56156
Si 13.7011 15.2721 1.68139
O 10.916 14.1248 4.55114
O 13.404 9.86796 5.1083
O 12.6053 11.1728 2.48642
O 14.5556 15.7522 3.03052
O 11.3569 9.26423 0.850828
O 14.0719 14.0137 0.835795
O 10.9363 11.6746 0.518325
O 13.7395 16.3581 0.5729
O 12.1343 15.2861 2.32687
O 14.9528 10.2594 2.91253
O 11.9169 16.4627 4.46775
O 14.1679 12.4745 4.01553
Si 0.584866 4.46575 5.55476
Si 2.2754 0.176041 5.79176
Si 1.00821 6.81669 9.42199
Si 3.64047 2.35758 9.05224
Si 1.20935 2.41638 7.48982
Si 3.56846 6.23584 7.50933
O 1.13615 5.91661 10.6205
O 3.77763 0.745312 10.0432
O 2.05018 2.84281 8.79244
O 4.42588 7.03107 8.77519
O 1.85963 0.927294 7.204
O 4.04052 4.83287 6.97612
O 1.47295 3.25135 6.09276
O 3.48906 7.37028 6.26366
O 2.19894 6.23185 8.34183
O 4.65022 2.27558 7.81632
O 1.21498 8.38231 9.8735
O 4.29179 3.60949 9.93993
Si 4.87907 4.5088 5.62783
Si 7.7735 17.3748 5.79516
Si 5.94847 6.57717 9.36788
Si 8.534 2.48215 9.18288
Si 6.18547 2.30876 7.3346
Si 8.35292 6.02148 7.43836
O 5.58665 5.60604 10.5165
O 9.03489 1.05862 10.1631
O 7.12969 2.76785 8.63737
O 9.59763 6.54839 8.41676
O 6.82442 0.939916 6.67821
O 8.9261 4.68254 6.60291
O 6.3126 3.42446 5.9921
O 8.23832 7.29096 6.46031
O 6.962 6.01572 8.25722
O 9.3008 2.09335 7.78808
O 6.68898 8.1087 9.48533
O 9.35635 3.82918 9.68306
Si 10.0823 4.47336 5.55771
Si 12.8673 0.208375 5.66136
Si 11.0879 6.30168 9.06447
Si 13.4817 2.4333 9.24002
Si 11.0047 2.13056 7.35022
Si 13.5816 6.2841 7.20071
O 10.9604 5.74727 10.497
O 13.4104 0.994021 10.2167
O 11.9824 2.64324 8.57322
O 14.5603 6.97134 8.24072
O 11.5697 0.946684 6.37318
O 14.352 4.95626 6.64992
O 11.2071 3.58317 6.27528
O 13.3595 7.40997 6.00341
O 12.2283 5.68594 7.90522
O 14.5574 2.17187 8.0107
O 12.104 7.68589 9.56929
O 14.2801 3.76816 10.0241
Si 0.118084 12.9174 5.36134
Si 2.82644 8.59564 5.56946
Si 1.48842 15.0332 9.45566
Si 3.63307 10.7349 9.32586
Si 1.16367 10.7335 7.38022
Si 3.95144 15.0935 7.35342
O 1.29914 13.8937 10.4762
O 3.66871 9.26004 9.82511
O 2.03377 10.9248 8.77597
O 5.38663 15.4803 8.03652
O 1.66441 9.47789 6.39661
O 4.08552 13.6007 6.80483
O 1.19883 11.9432 6.18238
O 3.10231 16.1301 6.31418
O 2.96085 14.8434 8.80299
O 4.4649 10.8016 7.87537
O 1.57719 16.4655 10.2251
O 3.99136 12.1441 10.1682
Si 4.94035 12.7855 5.61963
Si 7.7951 8.77242 5.73992
Si 6.38071 15.0551 9.19333
Si 8.68112 11.1478 9.21021
Si 6.26203 10.82 7.31144
Si 9.0173 15.1775 7.44296
O 6.11999 14.1325 10.6847
O 8.51147 9.89985 10.2518
O 7.13547 11.3999 8.64123
O 10.2642 15.5351 8.32172
O 7.28116 9.56661 6.86526
O 9.26502 13.6636 6.65921
O 6.14979 11.6798 5.80056
O 8.90252 16.4103 6.50215
O 7.4937 14.697 8.21703
O 9.87054 10.7406 8.33818
O 6.75336 16.7662 9.78559
O 9.00497 12.4009 10.1269
Si 10.2849 13.0293 5.46653
Si 12.5043 8.73201 5.62349
Si 11.255 15.1339 9.4466
Si 13.7102 11.1064 9.0286
Si 11.2518 10.9347 7.50371
Si 13.7347 14.9573 7.36591
O 11.2614 14.1146 10.6667
O 13.3012 9.96386 10.3372
O 12.434 11.5939 8.38266
O 0.312015 15.0449 8.18086
O 11.7724 9.51037 7.00049
O 13.6824 13.455 6.62648
O 11.3627 12.0997 6.24714
O 13.6896 16.4532 6.70212
O 12.7131 14.7916 8.65396
O 14.6061 10.379 7.88357
O 11.3307 16.6341 10.0111
O 14.3909 12.3239 9.7412
Si 0.389455 4.51895 11.0784
Si 2.8096 17.213 11.0357
Si 0.944958 6.67839 14.6003
Si 3.63069 2.18608 14.8201
Si 1.50909 2.2574 12.7204
Si 3.37799 6.13982 12.658
O 0.95324 5.49235 15.6159
O 3.4901 0.825122 15.6135
O 2.37631 2.81432 14.0716
O 4.58562 6.89327 13.716
O 1.8772 0.999901 11.932
O 3.86178 4.68425 12.1503
O 1.4904 3.5409 11.8478
O 3.53472 7.07181 11.3682
O 1.95356 6.21045 13.2097
O 4.9023 1.75335 13.5667
O 1.86436 7.81914 15.2365
O 4.53746 3.4137 15.3727
Si 5.17033 4.2766 11.3256
Si 7.84821 17.2001 10.894
Si 5.96487 6.68694 14.4409
Si 8.83277 2.58002 14.6061
Si 6.36029 2.01044 12.9856
Si 8.62361 6.38345 12.8247
O 5.75051 5.83596 15.8246
O 8.69627 1.49622 15.964
O 7.22884 2.59514 14.3161
O 9.63799 7.03543 13.8442
O 7.19532 0.865733 12.2206
O 9.44845 4.81052 12.4818
O 6.49858 3.43815 11.9449
O 8.41223 7.30729 11.4157
O 7.26079 6.0973 13.5179
O 9.79666 2.2369 13.373
O 6.67197 8.05303 14.9665
O 9.56366 3.76054 15.3372
Si 10.3054 4.35695 11.0708
Si 12.4406 17.2801 11.0973
Si 11.1196 6.35519 14.518
Si 13.9158 2.42233 14.4703
Si 11.2839 2.38725 12.7715
Si 13.6623 6.43938 12.7748
O 11.1927 5.48282 15.9255
O 13.6619 1.05345 15.2219
O 12.4262 2.75971 13.8137
O 14.4051 6.86752 14.1355
O 11.6724 0.955535 12.2965
O 14.2215 5.13602 12.1383
O 11.3713 3.3878 11.5464
O 13.6239 7.7361 11.9058
O 12.1949 5.79961 13.2168
O 14.9214 2.28902 13.2788
O 11.789 7.7196 15.1206
O 14.5731 3.39979 15.4712
Si 0.276172 12.8585 11.0548
Si 2.74445 8.46705 10.9801
Si 1.22165 15.0241 14.4751
Si 4.20621 11.0999 14.5583
Si 1.79543 10.7862 12.8115
Si 3.6778 14.9381 12.9817
O 1.31573 13.7889 15.5403
O 3.70004 9.84566 15.5133
O 3.28276 11.296 13.2576
O 4.64907 15.6451 14.127
O 2.03757 9.09348 12.4456
O 4.31823 13.5429 12.3785
O 0.891093 11.5468 11.7767
O 3.80021 16.1512 11.8756
O 2.2032 14.5541 13.2326
O 5.80871 10.7588 14.0476
O 1.49721 16.4815 15.0058
O 4.51417 12.2731 15.5203
Si 5.0641 12.8219 11.1153
Si 7.63785 8.71618 10.6719
Si 6.24201 15.2536 14.81
Si 9.08678 11.1784 14.3766
Si 6.74174 10.5182 12.6811
Si 8.57546 14.8909 12.8351
O 6.01448 14.2764 15.9833
O 8.7197 9.85693 15.5296
O 8.30972 10.7037 13.0926
O 9.60076 15.5418 14.0248
O 6.63381 9.16385 11.8825
O 9.22997 13.4084 12.4465
O 6.20477 11.7021 11.5136
O 8.74292 16.0245 11.677
O 7.25554 14.4598 13.8048
O 10.7558 10.7085 13.999
O 6.78779 16.792 15.2926
O 9.07383 12.5541 15.2433
Si 10.2149 12.8652 11.1323
Si 12.6304 8.59237 10.8527
Si 11.1643 15.2728 14.5474
Si 14.1896 10.8748 14.4317
Si 11.7515 10.6929 12.6436
Si 13.5141 14.8099 12.7379
O 11.1072 14.1555 15.7314
O 13.7346 9.7007 15.5299
O 13.3868 11.0857 13.0473
O 14.57 15.0653 13.9027
O 11.6285 9.21833 11.9723
O 14.1929 13.6779 11.9341
O 11.3286 11.8052 11.537
O 13.1858 16.1899 11.8828
O 11.9569 14.5506 13.3087
O 1.02038 10.849 14.3682
O 11.8119 16.605 15.218
O 13.9641 12.3571 15.1613
324
 Atoms. Timestep: 6500
Si 0.127382 4.34897 0.23171
Si 2.70528 0.228389 16.3342
Si 1.15687 6.69309 3.50828
Si 3.77773 2.07971 3.7377
Si 1.23059 2.11138 2.01426
Si 3.5853 6.43819 1.70878
O 1.32997 5.42307 4.59506
O 3.69588 1.25603 5.11007
O 2.48447 2.6607 2.86426
O 4.60394 6.87532 3.02035
O 1.78119 0.613736 1.27802
O 4.46154 5.11001 1.1853
O 0.910655 3.07408 0.779933
O 3.91164 7.41835 0.337427
O 2.12736 6.46132 2.12896
O 4.77302 1.57095 2.44234
O 1.78389 8.06388 4.14063
O 4.32791 3.55711 4.28501
Si 5.30911 4.39178 16.4225
Si 7.81733 0.15774 0.32511
Si 6.16579 6.67617 3.65527
Si 8.86926 2.49937 3.56257
Si 6.36474 2.15466 2.11493
Si 8.50481 6.67407 1.77435
O 5.97274 5.58891 4.92541
O 8.78287 1.35063 4.70148
O 7.29472 2.81824 3.10241
O 9.39619 7.29692 2.8707
O 6.97463 0.542263 1.75042
O 9.13989 5.07449 1.36173
O 6.12667 3.1453 0.889765
O 8.60651 7.67436 0.335961
O 6.97231 6.43425 2.15175
O 9.73378 1.82436 2.32194
O 6.8762 7.95988 4.23491
O 9.66856 3.88266 3.92616
Si 10.1452 4.67625 0.198324
Si 12.7219 0.299945 16.4721
Si 10.9511 6.92181 3.3933
Si 13.6182 2.41966 3.79856
Si 11.1691 2.47214 1.71463
Si 13.5549 6.45508 1.85906
O 11.0041 5.71169 4.38831
O 13.317 1.39887 5.08737
O 12.3017 2.3222 2.93046
O 14.3223 7.00349 3.19712
O 11.684 1.19872 0.862711
O 14.2699 4.91938 1.52746
O 11.1757 3.63976 0.813092
O 13.2851 7.52351 0.579732
O 11.9839 6.17499 2.08013
O 14.7652 1.76666 2.84757
O 11.4198 8.29513 3.99979
O 13.982 3.7933 4.36338
Si 15.1132 12.9437 0.100448
Si 2.90638 8.61722 16.3013
Si 1.13018 14.9965 3.98776
Si 4.14248 11.2194 3.80869
Si 1.61792 10.7175 1.91504
Si 3.67047 15.406 2.15839
O 1.0826 13.7355 4.97279
O 3.34138 10.1845 4.73706
O 2.86539 11.5456 2.6267
O 4.55582 16.0419 3.52232
O 2.07677 9.30641 1.33295
O 4.38051 14.1672 1.25385
O 1.13373 11.5876 0.554602
O 3.84597 16.386 0.647733
O 2.23578 14.8488 2.6559
O 5.16908 10.2573 2.84143
O 1.58745 16.6004 4.54843
O 4.9399 12.3215 4.63692
Si 5.30546 13.4644 0.298296
Si 7.41034 8.65532 16.1082
Si 6.09373 15.7199 3.87851
Si 8.80322 10.9501 3.64473
Si 6.32315 10.7672 1.7262
Si 8.63191 14.9841 2.05588
O 5.85381 14.7126 5.17458
O 8.65211 9.90087 4.77189
O 7.65306 11.2261 2.5668
O 9.44732 15.0977 3.42678
O 6.57015 9.45416 0.779554
O 8.90868 13.4966 1.5377
O 6.11461 12.2898 1.0933
O 8.95292 16.1893 0.791213
O 7.03395 15.2988 2.66896
O 10.3227 10.6778 3.1059
O 6.74503 17.2163 4.50163
O 9.1978 12.389 4.50844
Si 9.91168 13.0061 16.6657
Si 12.5389 8.78944 16.3962
Si 11.1338 15.2503 3.64271
Si 14.1085 10.7743 3.78347
Si 11.4478 10.8952 1.84824
Si 13.7449 15.1702 1.92537
O 11.5384 13.8972 4.69881
O 13.7052 9.27318 4.75554
O 12.8607 11.1294 2.83875
O 14.5103 15.4212 3.28837
O 11.5367 9.40412 1.37812
O 14.0995 13.6751 1.17746
O 11.2939 12.0821 0.785613
O 13.7376 16.4767 0.958843
O 12.1384 15.1667 2.39446
O 0.518272 10.6939 3.0813
O 11.4687 16.6091 4.47221
O 14.0527 12.0555 4.73875
Si 0.285308 4.50485 5.44576
Si 2.48334 0.109589 5.66897
Si 1.00306 6.60993 9.02138
Si 3.43661 2.43707 9.23735
Si 0.981577 2.12587 7.33069
Si 3.50849 6.65755 7.14181
O 0.554055 5.41282 10.1325
O 3.40246 1.3231 10.4346
O 1.98411 2.64242 8.49129
O 4.71423 6.86851 8.22165
O 1.59131 0.6379 6.90119
O 3.62302 5.09313 6.30049
O 1.13765 3.22569 5.98272
O 3.57052 7.76609 5.98801
O 1.99624 6.42032 7.76652
O 4.53757 1.7505 8.30767
O 1.93242 7.57932 9.99558
O 3.95812 3.64133 10.0885
Si 4.88004 4.51955 5.41452
Si 7.67361 0.65593 5.54627
Si 5.98453 6.52168 9.10939
Si 8.59839 2.43569 9.10547
Si 5.90559 2.32622 7.45367
Si 8.64867 6.41255 7.15364
O 5.90713 4.85055 9.48715
O 8.64348 1.13228 10.0846
O 6.97838 2.64556 8.79871
O 9.68297 6.61608 8.32379
O 6.6655 0.999296 6.81599
O 9.24957 5.2034 6.28203
O 5.83781 3.58672 6.54013
O 8.81776 7.65462 6.1824
O 7.14595 6.50241 7.99348
O 9.27455 1.80792 7.86171
O 6.48409 7.66737 10.1891
O 9.26657 3.68279 9.68252
Si 10.3263 4.47827 5.3367
Si 12.358 0.164506 5.68642
Si 11.0123 6.28937 9.09557
Si 13.2474 2.30462 9.18736
Si 10.7768 2.27543 7.38482
Si 13.4596 6.53108 7.46164
O 10.9772 5.27037 10.3587
O 13.2557 0.999129 10.1441
O 11.9614 2.97153 8.42575
O 14.5328 7.26538 8.3668
O 11.4439 0.910165 6.70224
O 14.1219 5.28751 6.46499
O 11.0189 3.27314 6.04263
O 12.8539 7.53084 6.29477
O 12.2723 5.69671 8.13084
O 14.3548 1.82586 7.99875
O 11.627 7.80151 9.58176
O 13.1788 3.46984 10.3885
Si 14.8188 12.9588 5.66397
Si 2.60996 8.8097 5.26983
Si 1.41435 15.1017 9.46294
Si 3.90079 10.7046 9.20813
Si 1.24405 10.5874 7.43148
Si 3.89748 15.2654 7.51853
O 1.31238 13.7984 10.4553
O 3.64114 9.56378 10.3162
O 2.61358 10.6166 8.30734
O 5.17145 15.9958 8.18895
O 1.36728 9.5102 6.23361
O 4.54478 13.9921 7.08029
O 0.925733 12.1244 6.68528
O 3.36822 16.1996 6.29944
O 2.87062 14.8941 8.74179
O 5.13591 10.1134 8.26544
O 1.62826 16.2342 10.5062
O 4.0372 12.1548 9.84161
Si 5.39499 13.2822 5.8863
Si 7.74615 8.79414 5.49272
Si 6.34483 15.3557 9.03142
Si 8.7251 10.9453 9.22931
Si 6.35919 10.8678 7.39601
Si 8.91243 15.2297 7.3042
O 5.83799 13.9089 9.71102
O 8.58378 9.36118 10.0737
O 7.24187 11.3999 8.65176
O 10.1184 15.5964 8.24748
O 6.80712 9.59898 6.46442
O 9.69195 14.0885 6.52946
O 6.46976 12.2322 6.41129
O 8.35815 16.3602 6.21375
O 7.46296 14.6509 8.11271
O 9.85309 10.6129 8.25705
O 6.59572 16.4748 10.344
O 8.96616 12.1589 10.4424
Si 10.3035 13.0851 5.48614
Si 12.4018 8.68623 5.23456
Si 11.1245 15.311 9.58871
Si 13.6988 10.4621 9.32996
Si 11.0629 10.5756 7.30933
Si 13.7702 15.178 7.48308
O 11.1742 13.8219 10.0238
O 13.4439 9.44323 10.529
O 12.2695 10.8722 8.4763
O 0.256301 15.2419 8.32694
O 11.2199 9.29709 6.58874
O 13.7258 13.7471 6.86922
O 11.0836 11.8505 6.24569
O 13.5775 16.3479 6.32926
O 12.6029 15.2961 8.82914
O 14.7605 9.95507 8.19965
O 11.256 16.5573 10.6754
O 14.1338 11.8887 9.99709
Si 14.5782 4.21582 10.8978
Si 2.61652 17.3355 11.2653
Si 1.35298 6.44006 14.5462
Si 3.72688 2.55016 14.3945
Si 1.24107 2.21597 12.6886
Si 3.95812 6.38914 12.7633
O 1.41365 5.39028 15.8874
O 3.53429 1.34062 15.5277
O 2.36829 3.00665 13.6213
O 4.71593 6.83268 14.1518
O 1.71115 0.665537 12.4832
O 4.67612 4.97144 12.0777
O 0.872599 3.1069 11.2137
O 4.02682 7.65398 11.8174
O 2.5731 5.9889 13.4972
O 4.89206 1.93759 13.4083
O 1.76051 7.98247 15.122
O 4.2944 4.08361 15.0863
Si 5.35478 4.12764 10.8693
Si 7.83512 17.2559 10.9901
Si 6.09239 6.42389 14.411
Si 8.75827 2.41568 14.7744
Si 6.39221 1.98467 12.8751
Si 8.73193 6.44637 12.858
O 6.35805 5.25765 15.5245
O 8.45152 1.5842 16.2239
O 7.40941 2.91895 14.0288
O 9.6697 7.06203 13.878
O 7.07274 0.54961 12.4612
O 9.3167 4.93618 12.1578
O 6.23824 2.93913 11.553
O 8.644 7.63145 11.8864
O 7.14551 5.69745 13.1235
O 9.66873 1.57454 13.5833
O 6.67966 7.83317 14.9275
O 9.40829 3.79269 15.3236
Si 10.1582 4.17051 11.1544
Si 12.6693 17.0562 11.1937
Si 11.1909 6.96017 14.5672
Si 13.597 2.57523 14.6951
Si 11.2005 1.87137 13.0332
Si 13.567 6.16026 12.8992
O 10.9099 5.95527 15.9817
O 13.8793 1.1348 15.582
O 11.947 2.54609 14.2627
O 15.0703 6.75397 13.474
O 12.3654 0.79388 12.6571
O 14.1817 4.65281 12.3611
O 11.005 2.78749 11.5021
O 13.2906 7.04273 11.6803
O 12.3324 5.87346 13.8537
O 14.7997 2.39962 13.6641
O 11.7232 8.47334 15.022
O 13.981 4.01599 15.3194
Si 0.241818 12.7373 11.1278
Si 2.77342 8.38467 11.0338
Si 1.45242 15.1637 14.8004
Si 3.94553 11.2651 14.8151
Si 1.627 10.6905 12.9326
Si 3.99773 15.1335 12.7946
O 1.03295 14.3297 16.0656
O 3.50717 10.1065 15.9134
O 2.68591 11.6868 13.9291
O 5.07657 15.9064 13.7983
O 1.99966 9.15208 12.4649
O 4.55 13.7198 12.0474
O 1.27469 11.7521 11.8134
O 3.97063 16.3665 11.7009
O 2.71376 14.6378 13.7744
O 5.24769 10.5979 14.0099
O 1.93071 16.675 15.0253
O 4.4415 12.6344 15.2466
Si 5.21212 12.9213 10.7997
Si 7.564 8.66424 11.1275
Si 6.41811 15.4706 14.694
Si 8.92198 11.0108 14.488
Si 6.35511 10.7548 12.9979
Si 8.93541 15.2334 12.8018
O 6.41076 14.3619 15.9798
O 8.61256 9.69079 15.5132
O 7.93698 11.0291 13.3288
O 9.67553 15.9324 14.1777
O 6.48842 9.36957 12.1118
O 9.70693 13.8527 12.3937
O 6.16443 11.9262 11.7366
O 8.98552 16.2188 11.6186
O 7.5552 14.7867 13.6148
O 10.17 10.4216 13.8255
O 6.65303 16.786 15.4313
O 8.80704 12.2586 15.5775
Si 10.2809 12.9068 11.1284
Si 12.4762 8.31178 11.0581
Si 11.2206 15.4589 14.6037
Si 13.9165 10.9369 14.4541
Si 11.3302 10.5325 12.817
Si 13.8216 14.7134 12.9263
O 10.8217 14.2077 15.7861
O 13.5566 10.175 16.0127
O 12.7392 11.0907 13.4635
O 14.9242 15.2434 13.8533
O 11.4996 9.02955 12.0903
O 14.0839 13.3355 12.2357
O 11.2311 11.7535 11.6948
O 13.6725 15.8797 11.5767
O 12.2177 15.0303 13.4442
O 0.354525 10.2783 13.9533
O 11.8785 16.4678 15.4977
O 14.2076 12.6108 14.9685
324
 Atoms. Timestep: 7000
Si 0.271145 4.60933 16.4389
Si 2.58808 0.278116 0.282954
Si 1.18272 6.52002 3.77806
Si 3.70499 2.62969 3.61633
Si 1.18842 2.42066 1.78141
Si 3.79566 6.39302 2.18749
O 0.839597 5.53959 4.98062
O 3.61634 1.53776 4.8045
O 2.33436 3.0193 2.84842
O 4.75073 6.69263 3.32557
O 1.74208 0.844973 1.50919
O 4.51657 5.08019 1.47124
O 1.28974 3.50328 0.637322
O 3.6417 7.40979 0.908621
O 2.31315 5.9262 2.57779
O 4.8131 1.88232 2.65172
O 1.84128 7.87258 4.2831
O 4.35236 3.91261 4.48501
Si 5.1758 4.50528 0.1116
Si 7.77417 17.1978 0.207915
Si 6.26113 6.73481 3.7756
Si 8.48891 2.71674 3.41143
Si 6.05786 2.17159 1.70829
Si 8.75154 6.13335 1.84057
O 6.47258 5.47983 5.07671
O 7.87123 1.69473 4.47264
O 7.18905 3.09757 2.52022
O 9.82657 6.38179 2.99934
O 6.75861 0.868335 1.22293
O 9.081 4.661 1.18199
O 6.01436 3.1344 0.501018
O 8.76419 7.47821 0.806675
O 7.14538 6.31412 2.28358
O 9.61821 1.79277 2.59091
O 6.61821 8.00961 4.5237
O 9.12966 4.03242 4.24898
Si 9.8656 4.1574 16.2608
Si 12.6694 17.227 0.171529
Si 11.2611 6.52343 3.80343
Si 13.3747 2.43215 3.56189
Si 10.9809 1.97883 1.79677
Si 13.757 6.41511 1.90292
O 11.1982 5.42723 5.07361
O 13.3614 1.37529 4.88263
O 11.8306 2.68922 2.93157
O 14.7773 7.10605 2.94014
O 11.4791 0.519326 1.25003
O 14.4661 4.97672 1.46743
O 10.6751 2.80301 0.31187
O 13.4913 7.55108 0.7311
O 12.5696 6.13757 2.75276
O 14.4785 2.2728 2.24726
O 11.8932 7.94466 4.11083
O 13.5985 3.77792 4.39125
Si 0.389463 12.8598 0.0617275
Si 3.01618 8.60182 16.4124
Si 1.21574 15.0768 3.90754
Si 4.04177 11.1351 3.68075
Si 1.81308 10.7236 1.89129
Si 3.65597 14.9863 1.99105
O 1.44905 14.1224 5.13792
O 3.20017 10.0557 4.64695
O 3.0607 11.4516 2.45251
O 4.87621 15.2079 3.19134
O 2.01093 9.27147 1.24252
O 4.34042 13.6151 1.35122
O 1.35495 11.8573 0.741383
O 3.40577 16.3557 0.990865
O 2.30391 14.8617 2.75078
O 5.64193 10.8766 3.27688
O 1.72008 16.7396 4.31653
O 4.19165 12.6812 4.25712
Si 5.04864 12.8738 16.4144
Si 7.68684 8.51974 0.401167
Si 6.34997 15.2176 3.83517
Si 8.84625 10.9951 3.71835
Si 6.64609 10.8361 1.98179
Si 8.80357 14.9234 2.04114
O 6.22432 14.273 5.12776
O 8.22331 10.0823 4.9863
O 8.17413 11.2543 2.37476
O 9.69077 15.4702 3.235
O 6.83984 9.16875 1.60572
O 9.31736 13.4764 1.3468
O 6.17608 11.6591 0.694954
O 8.84381 16.1354 0.820519
O 7.2954 14.4211 2.74572
O 10.5108 10.5521 3.38751
O 7.10584 16.7145 4.02693
O 8.97748 12.3918 4.69949
Si 10.3748 13.2009 0.204603
Si 12.6923 8.82113 0.158301
Si 11.3099 15.2158 3.58899
Si 14.1517 11.1717 3.8755
Si 11.3531 10.978 2.07156
Si 13.5806 14.9363 2.07782
O 11.1362 14.1401 4.90738
O 13.8183 9.81802 5.06719
O 12.8496 11.3668 2.88646
O 14.5438 15.3212 3.34088
O 11.8733 9.42888 1.48997
O 14.3357 13.6829 1.17293
O 11.339 11.8581 0.637952
O 13.6605 16.3375 1.12442
O 12.0154 14.3478 2.37738
O 0.555241 10.4815 3.17241
O 12.1294 16.5535 4.05509
O 14.2128 12.8017 4.39396
Si 14.8227 4.362 5.5563
Si 2.63282 0.167008 5.43203
Si 1.27179 6.56313 9.14985
Si 3.41834 2.33237 8.88532
Si 1.06945 1.91681 6.96332
Si 3.71478 6.67392 7.18608
O 1.17515 5.25626 10.1075
O 3.05012 1.24884 9.99938
O 2.09854 2.67824 8.11663
O 4.96808 6.66188 8.17261
O 1.71851 0.450342 6.87578
O 4.17458 5.73749 5.96278
O 1.08451 3.1535 5.80664
O 3.41887 8.08125 6.41234
O 2.17237 6.32656 7.89416
O 4.63334 1.56397 8.13678
O 1.77002 7.75251 10.1993
O 4.1547 3.49796 9.67298
Si 5.25792 4.63866 5.55778
Si 7.41814 0.384641 5.27056
Si 6.40511 6.52341 8.93735
Si 8.53497 2.50578 9.25405
Si 5.98021 2.15501 7.30077
Si 8.78374 6.50639 7.11319
O 6.46426 4.99533 9.72132
O 8.50692 1.27545 10.2632
O 6.97819 2.09743 8.68302
O 9.76719 6.96945 8.32204
O 6.25389 0.724594 6.37619
O 9.05683 4.8625 6.95264
O 5.79953 3.59805 6.68161
O 8.74609 7.97428 5.98071
O 7.18169 6.41988 7.60146
O 9.56034 2.17734 8.07112
O 6.92046 8.23514 9.56213
O 8.8333 3.87756 9.94293
Si 10.0587 4.39114 5.61475
Si 12.4153 0.189531 5.37219
Si 11.0568 6.67196 9.27025
Si 13.6588 2.03074 9.10381
Si 11.0392 2.07682 7.35483
Si 13.6806 6.59991 7.52367
O 11.109 5.14284 9.9871
O 13.7645 0.844935 10.2674
O 12.0539 2.39361 8.82016
O 14.6162 6.89561 8.79569
O 11.4367 0.7009 6.36696
O 14.0598 5.15448 6.74362
O 10.8592 3.16048 6.30201
O 13.7169 7.84923 6.50599
O 12.3123 6.60193 8.22072
O 14.2999 1.68697 7.62457
O 11.4046 7.90956 10.2009
O 13.8416 3.47952 10.1274
Si 0.1333 13.1177 5.69874
Si 2.36512 8.9128 5.36722
Si 1.12835 15.4243 9.15966
Si 3.73909 10.8201 9.04619
Si 1.25672 10.7033 7.42479
Si 3.53245 15.01 7.12829
O 0.934059 13.7608 9.681
O 3.81557 9.41108 10.0364
O 2.06012 11.0244 8.71524
O 4.92912 15.4466 7.9557
O 1.55279 9.57716 6.49608
O 3.86957 13.6278 6.52942
O 1.06769 12.0872 6.43859
O 3.72529 16.3351 6.16922
O 2.38269 14.974 8.19748
O 4.74565 10.7269 7.81509
O 1.13903 16.5744 10.3657
O 4.16092 12.0436 10.0009
Si 5.11066 13.2247 5.54313
Si 7.51134 8.79685 5.66948
Si 6.07172 15.2972 9.06826
Si 8.59778 10.7231 9.1015
Si 6.2006 10.8807 7.16943
Si 8.73237 15.5476 7.31469
O 6.09784 13.8842 9.94446
O 8.90769 9.42242 10.2335
O 7.22422 11.3709 8.51166
O 9.64834 16.0342 8.49926
O 6.49088 9.15423 7.01136
O 9.64535 14.4018 6.67058
O 6.01703 11.7661 5.86752
O 8.6168 16.6721 6.15152
O 7.45413 14.9431 8.10633
O 9.70394 10.2451 8.0844
O 6.54049 16.5607 9.93276
O 9.0244 11.813 10.439
Si 10.0063 13.2138 5.65008
Si 12.7343 8.73212 5.47139
Si 10.9807 15.2126 9.25778
Si 13.5394 10.721 9.16539
Si 11.0897 10.7136 7.34509
Si 13.4194 15.1678 7.3435
O 10.5375 13.7715 9.79413
O 13.6383 9.56732 10.4555
O 12.1276 10.6543 8.53625
O 14.711 15.8398 8.26263
O 11.4064 9.39191 6.49933
O 14.2761 13.9546 6.84853
O 10.7389 12.0297 6.36772
O 13.5051 16.3489 5.97141
O 12.0847 14.9562 8.10027
O 14.6179 10.1711 8.11346
O 11.7004 16.1515 10.509
O 13.8137 12.1046 9.73747
Si 0.139419 4.16589 11.0143
Si 2.37719 0.137559 11.0298
Si 1.34953 6.8691 14.7376
Si 3.81345 2.57845 14.8373
Si 1.14886 2.16572 13.0973
Si 3.7944 6.50046 12.8765
O 1.42601 5.87963 16.0108
O 3.8011 1.23157 15.9685
O 2.28105 2.60906 14.2067
O 4.84704 6.79981 14.1666
O 1.74224 0.826101 12.3927
O 4.10798 5.29574 11.7664
O 0.755585 2.85619 11.6857
O 3.86861 7.86097 12.0631
O 2.44823 6.36295 13.6623
O 4.78834 2.07878 13.6232
O 1.8656 8.29928 15.1896
O 4.17331 4.06644 15.3239
Si 5.15829 4.38072 10.7962
Si 7.57041 0.168003 10.9579
Si 6.34979 6.52221 14.8348
Si 8.7654 2.28513 14.536
Si 6.3455 2.20161 12.8385
Si 8.65132 6.33613 12.8679
O 6.38391 5.3506 15.9055
O 8.56908 1.28096 15.877
O 7.74118 2.37708 13.3929
O 9.8591 7.2152 13.6347
O 6.47723 0.893102 12.0085
O 9.18737 4.98595 12.1211
O 5.94271 3.3035 11.7128
O 7.85388 7.11763 11.6924
O 7.39976 5.91981 13.8107
O 9.99338 1.839 13.5606
O 6.60027 7.95945 15.6216
O 8.95313 3.79104 15.0286
Si 10.1201 4.36167 11.0499
Si 12.7264 17.2339 11.2084
Si 11.2751 6.71975 14.6868
Si 13.7271 2.46811 14.7518
Si 11.3763 2.3488 12.81
Si 13.7876 6.4876 12.8064
O 10.8857 5.35173 15.832
O 13.2788 1.46104 15.9686
O 12.3415 2.96277 13.9723
O 15.0138 7.30481 13.7753
O 12.0427 0.971292 12.2363
O 14.6104 5.21183 12.1157
O 11.07 3.19431 11.4842
O 13.3332 7.42633 11.6808
O 12.3796 5.97713 13.6371
O 14.8719 1.66585 13.9876
O 11.8354 8.18526 15.117
O 14.1223 3.98787 15.3202
Si 14.9114 12.8495 10.7022
Si 2.82939 8.50286 11.0148
Si 1.5243 15.3322 14.949
Si 3.62465 10.8693 14.5308
Si 1.20455 10.6124 12.6266
Si 3.88476 15.1952 12.7803
O 1.28918 14.4129 16.1698
O 3.87808 9.68985 15.6446
O 2.20341 11.0806 13.9658
O 5.22995 15.4371 13.5294
O 1.77151 9.20914 12.087
O 4.38385 13.5542 12.1782
O 0.928854 11.723 11.4129
O 3.55431 16.2496 11.5881
O 2.66937 14.8376 13.8788
O 4.79361 10.7058 13.3174
O 1.60323 16.8201 15.5379
O 3.83756 12.2302 15.475
Si 5.23692 13.0164 10.9352
Si 7.66511 8.70195 11.0106
Si 6.46871 15.114 14.5118
Si 8.73426 11.1117 14.6552
Si 6.25555 10.7785 12.7365
Si 9.10476 15.1431 13.1331
O 6.08263 13.8043 15.5612
O 8.56234 9.79778 16.0194
O 7.16778 11.2755 14.1637
O 10.505 15.3098 13.7135
O 6.94045 9.29489 12.3263
O 9.49174 13.8484 12.1153
O 6.14324 11.7603 11.5707
O 8.43131 16.1406 11.9785
O 8.02655 14.7426 14.2041
O 9.74934 10.6794 13.3852
O 6.6303 16.6156 15.2183
O 9.35655 12.5562 15.3343
Si 10.0797 12.8628 11.0842
Si 12.4597 8.71291 11.2436
Si 11.7591 14.9963 14.7118
Si 13.7718 10.9141 14.6053
Si 11.2061 10.9327 12.9597
Si 14.1407 14.9411 13.0985
O 11.5993 14.4207 16.2232
O 13.5758 10.097 15.9036
O 12.2229 11.2845 14.1253
O 0.161242 15.6212 14.1531
O 11.8464 9.38582 12.5598
O 14.523 13.6933 12.0381
O 11.3374 12.1078 11.7839
O 13.6228 16.2508 12.1998
O 12.8855 14.1771 14.0258
O 14.668 10.2401 13.4807
O 12.1791 16.4534 15.1255
O 14.5748 12.3372 15.1358
324
 Atoms. Timestep: 7500
Si 0.528309 4.39586 16.417
Si 2.68808 0.162288 0.392775
Si 1.4007 6.75801 4.11381
Si 3.95144 2.52265 3.76806
Si 1.39562 2.29331 2.03861
Si 3.87382 6.32248 2.09193
O 0.944661 5.59231 5.14265
O 4.00261 1.36851 4.76794
O 2.38582 2.80497 3.17683
O 5.38047 6.83805 2.60546
O 1.70679 0.841916 1.48173
O 3.84366 4.83018 1.52432
O 1.53721 3.44128 0.920304
O 3.62788 7.40719 0.856383
O 2.54697 6.51429 2.90464
O 4.80939 1.83039 2.58096
O 1.92511 8.25302 4.58735
O 4.34438 3.93364 4.61285
Si 4.84689 4.48551 0.270158
Si 7.4839 17.1493 0.146992
Si 6.53966 6.74465 3.70559
Si 8.69204 2.39936 3.87281
Si 6.16819 2.25559 1.93121
Si 9.178 6.65797 1.99495
O 6.14827 5.79641 5.04878
O 8.45586 1.25058 4.99886
O 6.95173 2.53719 3.44029
O 10.1175 7.32787 3.2338
O 6.75852 0.886265 1.26631
O 9.70717 5.31774 1.35086
O 6.20137 3.5742 0.951492
O 8.71449 7.86281 0.948252
O 7.8578 6.16036 2.88022
O 9.95436 2.00701 2.84536
O 7.00305 8.37417 4.23539
O 9.1061 3.81853 4.60278
Si 10.1247 4.30169 0.193508
Si 12.5306 17.2668 16.1908
Si 11.4757 6.71778 3.8652
Si 13.546 2.52839 3.73821
Si 11.2271 1.94126 1.91567
Si 13.8928 6.55313 1.88053
O 11.159 5.44692 5.04006
O 13.316 1.63112 4.94221
O 12.2923 2.92987 2.78417
O 14.7965 6.81132 3.12519
O 11.593 0.58034 1.17609
O 14.5267 5.07439 1.20112
O 10.831 3.00175 0.769377
O 14.031 7.60545 0.687253
O 12.4149 6.15176 2.39038
O 14.921 2.00139 2.82336
O 12.4008 7.69508 4.57089
O 13.8154 4.21419 4.23513
Si 0.246728 12.8486 16.2289
Si 2.63449 8.57031 0.204062
Si 1.41828 15.347 3.60982
Si 3.87787 10.7296 3.8894
Si 1.49505 10.6493 1.84182
Si 3.80969 14.8573 1.71514
O 1.19902 14.7023 5.05057
O 3.70408 9.98836 5.31781
O 2.79869 10.9296 2.74892
O 5.01275 15.0975 2.8423
O 1.45507 9.18305 1.1172
O 3.98601 13.3562 1.14006
O 1.32596 11.8017 0.698476
O 3.76827 16.1802 0.917903
O 2.59048 14.5431 2.75678
O 5.079 10.2145 2.92571
O 2.13515 16.7374 4.10394
O 4.13551 12.313 4.62589
Si 5.16054 12.7311 16.3225
Si 7.80811 8.7885 0.07128
Si 6.21776 15.0188 3.87546
Si 9.07729 11.0881 3.73831
Si 6.45913 10.7627 2.13741
Si 8.61739 14.8417 1.78368
O 6.44192 13.8471 4.94625
O 8.69518 10.0619 5.0884
O 7.69074 11.1514 3.06839
O 9.60723 15.5705 2.86234
O 7.10264 9.55911 1.31636
O 9.29237 13.588 1.11362
O 6.07682 11.5067 0.807741
O 8.39064 16.0182 0.586813
O 7.33933 14.6191 2.62551
O 10.2711 10.5732 2.5883
O 7.01566 16.3748 4.46209
O 9.44421 12.5934 4.16981
Si 10.1583 13.0283 16.2394
Si 12.8485 8.62007 16.4819
Si 11.2304 15.3428 3.42298
Si 14.0897 11.0482 3.68632
Si 11.6314 10.8236 1.75343
Si 13.8145 15.2328 1.679
O 11.2839 14.5293 5.0015
O 13.4009 10.2231 4.97769
O 13.107 11.175 2.47278
O 14.9373 15.672 2.83419
O 11.8273 9.14371 1.24308
O 14.4527 14.0781 0.777657
O 10.8426 11.6169 0.407047
O 13.6864 16.6179 0.605859
O 12.2559 14.9477 2.26342
O 0.487051 10.3489 3.27548
O 11.8788 16.8028 4.03875
O 14.2746 12.6642 4.16804
Si 14.611 4.65558 5.59182
Si 2.71825 0.204639 5.40398
Si 1.19324 6.42364 9.15486
Si 3.63588 2.49159 9.23817
Si 1.31683 2.42537 7.2353
Si 3.75253 6.34388 7.54986
O 1.41106 5.10021 10.0544
O 3.30818 1.37179 10.4398
O 2.63671 3.00344 8.07367
O 4.59916 6.97587 8.68124
O 1.84059 1.06119 6.45728
O 4.58156 5.13451 6.95515
O 0.585395 3.4819 6.1878
O 3.68415 7.5942 6.38263
O 2.00698 5.92833 7.808
O 4.98086 1.73231 8.48096
O 1.81698 7.74969 9.91833
O 4.09242 4.00524 9.80592
Si 5.47395 4.42787 5.64447
Si 7.56348 17.2151 5.7137
Si 6.05251 6.7744 9.67495
Si 8.81735 2.03341 9.14056
Si 6.15599 1.77246 7.37052
Si 8.3824 6.44745 7.54585
O 5.81389 5.70614 10.7611
O 8.35442 1.49541 10.7172
O 7.4826 1.51197 8.3152
O 9.58937 7.32546 8.46235
O 6.31469 0.505678 6.46776
O 8.91969 5.04349 6.878
O 6.03316 3.09742 6.24536
O 8.37155 7.52585 6.28203
O 6.92006 6.47348 8.3526
O 9.98629 1.59675 8.20151
O 6.29289 8.22489 10.1088
O 9.13511 3.4922 9.6399
Si 9.94981 4.54108 5.71704
Si 12.5889 0.296762 5.5018
Si 11.0016 6.8852 9.15176
Si 13.8969 2.17331 9.40849
Si 11.2856 2.02859 7.46555
Si 13.5576 6.66582 7.56723
O 10.7285 5.47476 9.85376
O 13.552 1.216 10.6802
O 12.6576 2.37377 8.36771
O 14.4474 6.5868 8.9609
O 11.6427 0.56996 6.80621
O 13.7222 5.43123 6.57923
O 10.7595 3.27941 6.47332
O 14.0125 8.08934 6.8677
O 12.1054 6.67503 8.09231
O 0.361287 2.03474 8.46684
O 11.2386 8.09004 10.1503
O 14.1514 3.57499 10.2028
Si 0.296271 13.2798 5.50969
Si 2.79124 8.78817 5.88167
Si 1.23879 15.1707 9.10705
Si 3.54731 10.8774 9.17197
Si 1.27181 11.0518 7.50391
Si 3.745 15.3246 7.32828
O 1.17866 13.6268 9.70387
O 3.17066 9.91372 10.417
O 2.04249 11.4498 8.90478
O 4.57241 15.6091 8.72684
O 1.78437 9.63224 6.92878
O 4.22893 13.9416 6.60715
O 1.38958 12.2678 6.38397
O 3.78395 16.5805 6.2861
O 2.25564 15.3038 7.95061
O 4.26552 10.2153 7.88692
O 1.42524 16.4769 10.2115
O 4.41837 12.1918 9.55326
Si 5.27384 12.9663 5.69922
Si 7.73822 8.89717 5.62751
Si 6.04937 15.2225 9.20915
Si 8.52487 10.8004 8.9634
Si 5.79305 10.6378 7.58643
Si 8.48014 15.0746 7.51281
O 5.95044 14.1909 10.4266
O 8.5048 9.6722 10.1434
O 6.98792 10.8818 8.88761
O 9.49739 15.1525 8.75946
O 6.7407 9.45218 6.76392
O 9.2317 13.6739 6.50599
O 6.09761 11.8672 6.55267
O 8.67002 16.276 6.58379
O 7.00266 14.6948 7.95115
O 9.54881 10.4596 7.61652
O 6.98714 16.4586 9.86671
O 9.17347 12.2775 9.3728
Si 10.427 13.2001 5.42524
Si 12.9201 8.90446 5.74705
Si 11.1864 15.3194 9.05805
Si 13.5551 11.2357 8.99826
Si 11.1109 10.832 7.49273
Si 13.712 15.1651 7.08536
O 11.2482 13.98 10.1201
O 13.4705 9.73925 9.8927
O 11.9641 11.6743 8.57492
O 14.765 15.5582 8.24323
O 11.843 9.61279 6.89255
O 13.9098 13.6039 6.5462
O 11.243 12.0603 6.09828
O 13.6922 16.4646 5.94416
O 12.2256 15.1771 7.86761
O 14.5861 10.9709 7.75733
O 11.6595 16.6759 9.75559
O 13.9574 12.4531 10.061
Si 0.303094 4.40506 11.0339
Si 2.6076 17.1906 10.9294
Si 1.28464 6.55239 14.4449
Si 3.60997 2.27514 14.9028
Si 1.20905 1.86775 12.9216
Si 3.78354 6.48284 12.7702
O 1.53894 5.28253 15.4524
O 3.65815 1.42331 16.4469
O 2.03121 2.11111 14.4458
O 5.25155 6.62127 13.3662
O 1.68622 0.512302 12.2811
O 3.79349 4.95084 12.2875
O 1.08104 2.93691 11.758
O 3.75513 7.70373 11.8056
O 2.22558 6.39615 13.0949
O 4.52891 1.70206 13.6864
O 1.84517 7.90819 15.2099
O 4.30294 3.78795 15.2638
Si 4.91941 4.51619 11.1426
Si 7.28019 0.288742 10.993
Si 6.39217 6.56287 14.547
Si 8.57248 2.32115 14.6663
Si 5.97197 1.97175 12.8595
Si 8.71689 6.30165 12.776
O 5.61424 5.7205 15.7363
O 8.21146 1.03057 15.5067
O 7.30198 2.45735 13.6741
O 9.76469 6.88434 13.9631
O 6.17081 0.786617 12.0079
O 8.9452 4.8489 12.077
O 5.80922 3.28357 11.7953
O 8.36962 7.46618 11.5875
O 7.67159 5.87187 13.8648
O 9.67076 2.18912 13.4019
O 6.9281 7.98413 15.4077
O 8.81285 3.70019 15.7087
Si 9.96002 4.30859 10.8802
Si 12.3821 0.120258 10.9491
Si 11.2949 6.43798 14.5868
Si 13.7218 2.36475 14.5228
Si 11.1737 2.23072 12.6796
Si 13.6145 6.52001 12.6936
O 11.0918 5.12166 15.457
O 13.2069 1.41871 15.7262
O 12.3728 2.74022 13.7184
O 14.7539 6.63187 13.9065
O 11.4499 0.644253 12.2301
O 14.5914 5.60881 11.9471
O 11.2846 3.49919 11.5171
O 13.4055 7.79496 11.7333
O 12.0989 6.22696 13.3196
O 14.6935 1.38168 13.6438
O 11.9727 7.56506 15.4496
O 14.3973 3.60099 15.3444
Si 0.358325 12.892 10.8116
Si 2.581 8.61091 11.1535
Si 1.57468 15.1607 14.6511
Si 3.63677 10.6549 14.5039
Si 1.31173 10.7543 12.6018
Si 4.11063 15.0232 12.6466
O 1.67297 13.7008 15.4179
O 3.65082 9.8968 16.0163
O 2.24371 10.5814 13.9837
O 5.42127 15.169 13.4917
O 1.36885 9.30192 11.9669
O 3.96323 13.541 11.9718
O 1.27928 11.9019 11.5091
O 3.90679 16.2189 11.4402
O 2.92919 15.0636 13.718
O 4.62329 10.1675 13.3228
O 1.69526 16.5593 15.586
O 4.39642 12.212 14.9606
Si 5.08535 12.9145 10.873
Si 7.59349 8.87293 11.0843
Si 6.3632 14.9917 14.7129
Si 8.72623 11.0025 14.8025
Si 6.13683 10.6577 12.9263
Si 8.52593 15.0573 12.7588
O 6.13494 14.0466 15.9841
O 8.88153 9.77366 15.7071
O 7.01352 11.1438 14.0802
O 9.90278 15.2401 13.573
O 6.85076 9.37343 12.4054
O 8.89893 14.1267 11.3681
O 5.99155 11.7886 11.7741
O 7.76202 16.3392 12.1167
O 7.75093 14.4552 13.9998
O 9.485 10.4033 13.3037
O 6.40462 16.5311 15.4144
O 8.8935 12.5351 15.2909
Si 9.95508 13.093 10.654
Si 12.4477 8.82965 10.9472
Si 11.2718 15.1099 14.3419
Si 13.4272 10.9458 14.5645
Si 10.9358 10.8953 12.7679
Si 14.0237 15.235 12.6073
O 11.1117 14.0091 15.6219
O 13.5303 9.63372 15.3764
O 11.8567 11.3398 14.0359
O 0.240999 15.594 13.7512
O 11.8529 9.8015 12.1207
O 14.6752 13.8279 11.9715
O 10.3505 12.0168 11.8794
O 13.6654 16.2513 11.4738
O 12.6311 14.5623 13.4202
O 14.629 10.7589 13.3543
O 11.3034 16.5556 15.0889
O 13.8526 12.2539 15.5339
324
 Atoms. Timestep: 8000
Si 0.01545 4.24661 0.235566
Si 2.83559 17.0942 0.335889
Si 1.38124 6.54218 3.87246
Si 3.99706 2.40571 3.71892
Si 1.46063 2.11013 2.03679
Si 3.91592 6.42781 1.92278
O 1.78248 5.31077 5.21586
O 3.5688 1.57685 4.98068
O 2.4174 2.74601 3.06025
O 5.10734 6.47497 3.05919
O 2.29247 0.870912 1.56412
O 4.39136 5.07942 1.19524
O 0.95017 2.99717 0.808993
O 3.83045 7.6869 0.902351
O 2.49955 6.30594 2.71932
O 5.04805 1.65748 2.77612
O 1.63489 7.94761 4.53707
O 4.48285 3.96028 4.28133
Si 5.27643 4.31677 16.408
Si 7.65373 17.3287 16.2081
Si 6.50627 6.41142 3.71816
Si 8.81647 2.18753 3.82047
Si 6.35287 2.1146 1.83098
Si 8.82871 6.55712 1.85741
O 6.37659 5.62691 5.05749
O 8.98924 0.907613 4.81965
O 7.33413 2.1908 3.29384
O 9.93923 7.08507 2.86506
O 6.46703 0.83926 0.737845
O 9.56606 5.21095 1.45957
O 6.36993 3.56817 1.14462
O 8.37248 7.30261 0.575443
O 7.60857 5.82829 2.82115
O 10.0337 1.87305 2.86571
O 6.94023 8.04694 4.32884
O 8.94736 3.63045 4.59533
Si 10.0943 4.1896 0.214203
Si 12.3467 17.2919 16.2868
Si 11.2942 6.50214 3.64189
Si 14.0237 2.39565 3.76536
Si 11.4709 2.20985 2.08163
Si 13.7943 6.26332 1.83486
O 10.9881 5.39583 4.97251
O 13.6005 1.48645 5.02829
O 12.6081 2.89311 3.07101
O -0.00729923 6.57997 2.98566
O 11.7512 0.73625 1.42721
O 13.8397 4.72849 1.27047
O 11.1394 3.06618 0.7925
O 13.4397 7.32392 0.728407
O 12.4939 5.93538 2.82236
O 14.9999 1.53536 2.63779
O 11.8188 7.99456 4.36926
O 14.8549 3.82357 4.26446
Si 14.9042 13.0195 0.223389
Si 2.68345 8.82184 0.579139
Si 1.35544 15.5993 3.635
Si 3.6016 11.0202 3.45607
Si 1.04337 10.9433 1.96821
Si 3.8773 14.9316 2.03578
O 0.914417 14.5832 4.90126
O 3.72815 9.77045 4.76963
O 2.023 11.3681 3.21249
O 4.96381 15.3423 3.26071
O 1.76494 9.44888 1.88513
O 4.22722 13.451 1.55185
O 1.2272 11.8564 0.70616
O 4.09863 16.1469 0.949911
O 2.34103 14.8802 2.48818
O 4.41686 10.2421 2.30361
O 2.29158 16.8142 4.36379
O 4.63368 12.0884 4.36578
Si 5.00032 12.9373 0.136707
Si 7.53804 8.61451 16.3544
Si 6.47097 15.1768 3.7553
Si 8.7238 10.8661 3.33698
Si 6.13331 10.4822 1.71526
Si 8.76997 15.0073 1.73106
O 6.48887 13.9154 4.86975
O 8.56648 9.78965 4.69316
O 7.46747 11.0715 2.43682
O 9.97579 15.6356 2.71772
O 6.44487 9.08764 1.19358
O 9.53679 13.7562 1.07457
O 5.93074 11.6104 0.546461
O 8.34319 16.1335 0.684353
O 7.46625 14.5576 2.45047
O 9.73963 10.0559 2.27104
O 6.73156 16.7511 4.21582
O 9.29483 12.3079 4.00311
Si 10.3313 12.8824 16.3451
Si 12.5049 8.43997 16.2611
Si 11.2792 15.4669 3.84464
Si 13.4178 11.0882 3.91789
Si 11.2011 10.5369 1.84537
Si 13.8186 15.3216 1.9988
O 10.8017 14.4245 4.92761
O 13.4052 9.96542 5.07701
O 11.8927 11.0537 3.34046
O 14.773 16.0323 3.08093
O 11.6858 9.29011 1.04114
O 14.3592 13.9031 1.53142
O 11.2967 11.8944 0.804663
O 13.312 16.3213 0.646538
O 12.3945 14.7927 2.88683
O 14.3739 10.8018 2.42135
O 11.6727 16.9118 4.49096
O 14.1033 12.4153 4.35462
Si 0.344186 4.52351 5.69894
Si 2.64978 0.34987 5.77213
Si 1.21251 6.7661 9.30198
Si 4.18688 2.36181 9.14089
Si 1.38248 2.20892 7.58524
Si 3.8355 6.60663 7.35646
O 1.28084 5.7903 10.6089
O 3.95306 1.22293 10.4689
O 2.8746 2.62916 8.03311
O 4.7211 7.27415 8.46168
O 1.23249 0.949579 6.36428
O 4.1028 5.00444 6.57526
O 0.703628 3.59434 6.96443
O 3.8026 7.71816 6.14841
O 2.29532 6.23059 8.08415
O 5.51206 1.82899 8.22151
O 1.52289 8.13331 9.91398
O 4.51667 3.86204 9.91257
Si 5.23987 4.51301 5.52049
Si 7.74987 17.1359 5.35787
Si 6.18822 6.69577 8.99452
Si 9.09569 2.53547 9.28814
Si 6.73212 2.19145 7.20648
Si 8.72081 6.61687 7.60424
O 6.31803 5.76272 10.4107
O 8.59736 1.3873 10.3955
O 8.07917 2.69701 7.92734
O 9.70882 7.02932 8.96751
O 7.06056 0.804233 6.46963
O 9.46959 5.39026 6.82378
O 6.15978 3.40062 6.18663
O 8.43879 7.90219 6.6362
O 7.13232 6.29851 7.8172
O 10.4238 1.98291 8.57879
O 6.914 7.86437 9.70877
O 8.7541 4.05715 9.93002
Si 10.0186 4.42175 5.56655
Si 12.59 0.231132 5.67468
Si 11.2064 6.36388 9.20666
Si 13.8662 2.42186 9.20547
Si 11.5224 2.30818 7.47303
Si 13.5676 6.5328 7.42905
O 11.0312 5.30345 10.2842
O 12.9577 1.40702 10.092
O 12.9009 2.94154 8.00285
O 14.4595 6.53847 8.7925
O 11.6935 0.79703 6.82911
O 14.0343 5.56915 6.10593
O 11.0039 3.41238 6.35952
O 13.195 7.99491 6.86043
O 12.0957 5.9536 7.91493
O 0.169372 1.5618 8.50388
O 11.7166 7.9366 9.93654
O 14.3651 3.82016 9.95328
Si 0.351699 13.0518 5.47344
Si 2.73705 8.77748 5.55308
Si 1.21714 15.1547 9.21566
Si 3.68303 10.9102 9.24235
Si 1.47134 10.8227 7.17715
Si 3.77778 15.113 7.37112
O 1.13901 14.2089 10.4165
O 2.91088 10.0287 10.1894
O 2.69042 11.5155 8.07342
O 4.80142 15.0022 8.61993
O 1.85074 9.25187 6.88856
O 4.16918 14.1805 6.11005
O 1.36373 11.6563 5.85458
O 3.5885 16.6395 6.73476
O 2.17136 14.743 7.93267
O 4.87628 10.1665 8.33428
O 1.82064 16.5758 9.75977
O 4.35744 12.305 9.5545
Si 5.21499 12.9002 5.57837
Si 7.77851 8.80243 5.46041
Si 6.34084 14.7723 9.25017
Si 8.76248 10.9797 9.17798
Si 6.13877 10.5652 7.33925
Si 8.69196 14.7223 7.24512
O 6.00306 13.9654 10.5997
O 8.83129 9.97827 10.5757
O 7.3051 10.7368 8.51262
O 9.74129 15.5641 8.10741
O 6.61422 9.68349 6.08692
O 9.13275 13.2673 6.65788
O 5.79723 12.0744 6.88843
O 8.11985 15.6811 6.01185
O 7.32087 14.291 8.05446
O 9.73715 10.7263 7.94591
O 7.14201 16.164 10.0199
O 9.06806 12.3909 9.82901
Si 10.2482 12.8527 5.26578
Si 12.2266 8.73452 5.65087
Si 11.164 15.387 8.94411
Si 13.9711 11.145 9.15299
Si 11.2871 10.9291 7.45365
Si 13.7336 15.0432 7.17345
O 11.0364 14.0913 10.154
O 13.7914 9.79524 10.023
O 12.3555 11.4633 8.55387
O 14.6939 15.3227 8.44472
O 11.0702 9.51707 6.50535
O 14.1396 13.4339 6.68526
O 11.3363 12.0877 5.98262
O 13.5557 16.4807 6.43699
O 12.3735 14.9817 7.94583
O 14.8165 11.1657 7.80619
O 11.4825 16.7482 9.76807
O 14.0146 12.2782 10.3741
Si 0.479049 4.49954 11.0371
Si 2.77948 0.254989 10.8726
Si 1.14633 6.77719 14.8445
Si 3.59539 2.12704 14.6357
Si 1.2848 2.07589 12.7497
Si 3.58088 6.37472 13.0103
O 0.83304 5.69368 16.2019
O 3.19653 0.71025 15.3773
O 2.09991 2.61017 14.1323
O 4.44121 6.87202 14.2351
O 1.84492 0.897174 12.005
O 4.43717 5.30049 12.1764
O 1.52036 3.21566 11.4815
O 3.42956 7.34541 11.756
O 2.0315 6.08709 13.6335
O 4.58338 2.19088 13.3159
O 1.48306 8.13233 15.9239
O 4.3809 3.02581 15.8155
Si 5.4518 4.62888 11.1189
Si 7.58217 0.184917 10.9227
Si 6.08193 6.5591 14.4025
Si 8.56228 2.40733 14.7668
Si 6.14579 2.251 12.7785
Si 8.4613 6.46751 12.7822
O 6.11752 5.22891 15.3485
O 8.82105 1.08245 15.6596
O 7.19336 2.34465 13.9791
O 9.29413 6.80111 14.0899
O 6.56189 0.893529 11.971
O 9.15396 4.9317 12.4322
O 6.29717 3.64119 12.1224
O 8.59018 7.62244 11.56
O 6.77432 6.61651 12.915
O 9.55761 2.27796 13.4643
O 6.6736 7.98423 15.125
O 8.76195 3.63307 15.8004
Si 9.91744 4.42417 11.0667
Si 12.3822 0.206787 10.9824
Si 10.8898 6.23458 14.3754
Si 13.4943 2.5395 14.4511
Si 11.0531 2.13515 12.8454
Si 13.7293 6.45344 12.9258
O 10.8827 4.97343 15.3722
O 12.9677 1.39456 15.511
O 12.1799 3.06806 13.65
O 14.5614 7.06547 14.2467
O 11.8728 0.768157 12.3723
O 14.2285 5.02357 12.424
O 10.6947 2.92303 11.3845
O 13.6825 7.68188 11.7649
O 11.9671 6.19882 13.1555
O 14.7085 1.98532 13.5625
O 11.5302 7.58459 15.3266
O 14.0286 3.83438 15.2481
Si 0.307067 12.9945 11.1494
Si 2.4913 8.7533 11.0433
Si 1.20682 15.3137 14.7494
Si 3.66552 10.9259 14.7137
Si 1.38762 10.8687 12.7863
Si 3.66619 15.2146 12.7191
O 0.582056 13.8388 15.2824
O 3.34266 9.96498 15.9103
O 2.14039 11.2689 14.2149
O 5.01256 15.4816 13.7432
O 2.0652 9.36125 12.5406
O 3.69335 13.8338 12.0345
O 1.45331 12.0204 11.5588
O 3.6265 16.2482 11.5467
O 2.17607 15.1379 13.3807
O 4.53622 10.4106 13.5115
O 1.64918 16.0522 16.1412
O 4.03957 12.5673 15.4095
Si 4.80737 12.9606 10.9875
Si 7.78521 8.78503 10.9524
Si 6.21912 15.135 14.6857
Si 8.84386 10.721 14.7114
Si 6.26805 10.6994 13.0045
Si 8.74069 15.3049 12.8305
O 5.78974 14.2737 16.0061
O 8.74721 9.60532 15.8357
O 7.43043 11.2979 13.7953
O 10.3442 15.777 13.3177
O 6.50601 9.3925 12.0613
O 8.8038 13.9786 11.8454
O 5.78014 12.1525 12.0004
O 8.47983 16.6959 12.1117
O 7.70786 14.4757 13.8837
O 9.59975 10.224 13.3291
O 6.8747 16.4751 15.1449
O 9.39799 11.9747 15.3859
Si 10.0169 13.2597 10.9945
Si 12.7341 8.86606 11.007
Si 11.2641 15.2117 14.6029
Si 13.5221 10.809 14.4765
Si 11.1217 10.8327 12.7878
Si 13.689 15.1902 12.6658
O 10.9019 13.9114 15.3683
O 13.0618 9.36183 15.0563
O 12.0319 11.3297 14.0163
O 14.8936 16.0715 13.702
O 11.9425 9.74987 11.9366
O 14.1922 13.7162 12.2473
O 10.7493 12.1687 11.939
O 13.518 16.2766 11.6001
O 12.7419 14.8762 13.9851
O 14.6397 10.6495 13.1673
O 11.1366 16.5229 15.4495
O 13.779 11.7957 15.9457
324
 Atoms. Timestep: 8500
Si 0.233383 4.31728 16.3224
Si 2.82296 17.1633 16.3027
Si 1.1201 6.4868 3.51981
Si 3.67091 2.58922 3.59613
Si 1.35466 2.06098 1.8616
Si 3.59768 6.5933 1.92026
O 1.14347 5.31277 4.72363
O 3.23217 1.34964 4.57731
O 2.3372 2.9124 2.77686
O 4.57228 6.91435 3.17189
O 2.48302 0.975772 1.07793
O 4.44044 5.35303 1.29288
O 1.08095 3.146 0.569297
O 3.53217 7.79871 0.751812
O 2.16876 5.9678 2.41
O 4.89158 1.98934 2.50153
O 1.56643 7.91981 4.13807
O 4.20117 4.01067 4.19027
Si 5.08467 4.21574 0.213759
Si 7.63195 17.1733 0.300616
Si 6.20496 6.48301 3.77708
Si 8.89978 2.17653 3.6373
Si 6.46557 2.0631 2.01279
Si 8.49659 5.97257 1.9076
O 5.99446 5.68444 5.19384
O 8.97118 1.24567 4.90416
O 7.40151 2.53346 3.23312
O 9.45441 6.56561 3.0773
O 6.82108 0.521955 1.58636
O 9.22929 4.77524 1.14732
O 6.26623 3.16455 0.763776
O 8.16671 6.97271 0.671521
O 7.08378 5.52508 2.7723
O 9.94317 1.84073 2.44352
O 6.87193 8.12181 4.09837
O 9.2061 3.83677 4.10798
Si 10.2433 4.30363 16.3904
Si 12.9157 17.2583 0.298933
Si 11.0211 6.64537 3.6368
Si 14.0507 2.13145 3.66473
Si 11.5811 2.20857 1.95641
Si 13.6049 6.22036 1.78624
O 10.9367 5.69494 4.95895
O 13.6378 0.664026 4.40514
O 12.5743 2.89087 3.18044
O 14.4887 6.6154 3.06106
O 12.3182 0.845312 1.49684
O 14.0491 4.67819 1.25776
O 11.3223 3.14156 0.565731
O 13.7527 7.24885 0.638049
O 12.1444 6.3239 2.43771
O 14.814 1.6694 2.25681
O 11.7457 8.25077 4.0131
O 14.7052 3.06791 4.68449
Si 14.6183 12.9485 0.174688
Si 2.44876 9.0644 16.428
Si 1.22307 15.0281 3.60847
Si 3.67927 11.2272 3.44917
Si 0.950613 11.088 1.78811
Si 3.95311 15.0696 1.96021
O 0.70837 13.9536 4.81799
O 3.57061 9.95148 4.5394
O 2.29644 11.545 2.63278
O 4.92633 15.6798 3.1103
O 1.38582 9.40065 1.3302
O 4.54614 13.8353 1.13185
O 1.06927 11.993 0.549945
O 3.78654 16.095 0.774367
O 2.33746 14.6633 2.44206
O 4.56812 10.469 2.34978
O 1.49923 16.5135 4.54677
O 4.3794 12.6276 4.22371
Si 5.67541 13.1267 0.157927
Si 7.42549 8.32956 0.243608
Si 6.30965 15.3467 3.72821
Si 8.60702 11.1307 3.7391
Si 6.27876 10.6826 1.90365
Si 8.72418 14.8454 2.00442
O 5.98569 14.5764 5.06857
O 8.70463 10.0696 5.04644
O 6.9679 11.3173 3.28596
O 9.79263 15.4128 2.97534
O 6.65464 9.18052 1.47458
O 9.30621 13.3323 1.43005
O 6.60935 12.0749 0.904303
O 8.44193 15.9349 0.759534
O 7.20591 14.4987 2.61904
O 9.44204 10.4757 2.55016
O 7.02047 16.7375 4.25309
O 8.99807 12.8961 4.19992
Si 10.1553 12.8372 0.229174
Si 12.5235 8.47045 0.437858
Si 11.2277 15.3538 3.74854
Si 13.6461 10.9217 4.02092
Si 11.2364 10.7274 2.08967
Si 13.7415 15.045 1.82922
O 11.1832 14.0092 4.74563
O 13.8013 9.70494 4.8855
O 12.0369 11.4339 3.38875
O 14.7176 15.4341 3.02166
O 11.911 9.29544 1.85593
O 13.7883 13.5054 1.49029
O 11.0812 11.6233 0.805737
O 13.834 16.0225 0.583646
O 12.16 15.2629 2.48424
O 14.694 10.7531 2.8265
O 11.4027 16.7007 4.56379
O 13.8542 12.4136 4.50766
Si 0.440375 4.19233 5.71444
Si 2.31815 0.305324 5.52305
Si 1.07804 6.85064 9.0721
Si 4.2269 2.22045 9.50871
Si 1.73415 2.45268 7.69671
Si 3.79704 6.71425 7.15687
O 0.809639 5.74394 10.3727
O 4.06976 1.14348 10.6996
O 3.23814 2.28402 8.17376
O 4.93498 6.82045 8.31404
O 1.44681 1.16214 6.69195
O 4.00799 5.105 6.46709
O 1.59647 3.65141 6.75911
O 3.48908 7.60063 5.95427
O 2.39183 6.46577 8.15363
O 5.57731 1.99818 8.71468
O 1.3192 8.40309 9.49455
O 4.12575 3.69111 10.0951
Si 4.92235 4.35236 5.55823
Si 7.92122 17.2722 5.49076
Si 6.29844 6.70971 9.102
Si 8.88843 2.65172 8.9614
Si 6.44481 2.08612 7.24508
Si 8.89044 6.55215 7.45862
O 5.93641 6.01109 10.6392
O 8.9621 1.16746 9.8101
O 7.79673 2.87196 7.74569
O 10.1919 7.07313 8.21716
O 6.94237 0.447621 6.76472
O 9.27377 5.11402 6.76621
O 5.78204 3.03604 6.26696
O 8.84456 7.53571 6.04852
O 7.46438 6.00343 8.2019
O 10.3657 2.47417 8.28163
O 6.8277 8.01593 9.75481
O 9.11105 3.93967 10.0587
Si 10.2812 4.39457 5.39089
Si 12.6009 17.2052 5.47191
Si 11.5008 6.78741 9.0539
Si 13.9919 2.54141 9.33918
Si 11.5886 2.26542 7.26034
Si 13.8413 6.33984 7.1081
O 11.0755 5.7562 10.4618
O 13.6083 1.29175 10.2134
O 12.8126 2.64245 8.25032
O 14.7352 6.88491 8.2289
O 11.823 0.666512 6.63441
O 14.0743 4.71711 6.77414
O 11.4228 3.32357 6.03371
O 13.5608 7.24343 5.74215
O 12.4688 5.94189 7.96795
O 0.520599 2.36392 8.68645
O 12.2996 8.20402 9.5608
O 13.6479 3.95958 10.2892
Si 14.8129 12.8585 5.7903
Si 2.59551 8.76162 5.07609
Si 1.38077 15.4322 9.39991
Si 3.88777 11.1044 9.21395
Si 1.33325 10.5127 7.41507
Si 3.56488 15.3529 7.34311
O 1.12777 14.3317 10.405
O 3.408 10.0013 10.3451
O 2.36744 11.4169 8.41254
O 4.86341 15.6703 8.25705
O 1.67312 9.19661 6.31255
O 3.88083 13.8744 6.66236
O 0.474821 11.4748 6.30551
O 3.47341 16.5746 6.30049
O 2.28803 14.8198 8.15594
O 5.01511 10.3726 8.20058
O 1.96916 16.8393 10.0034
O 4.85218 12.3176 9.59409
Si 4.96119 13.3174 5.53005
Si 7.67894 8.74036 5.30537
Si 6.23003 15.4227 9.15013
Si 8.7632 11.1453 8.99867
Si 6.2194 10.8839 7.23116
Si 8.72922 14.866 7.46672
O 5.93001 14.5632 10.5054
O 8.2635 10.1784 10.4308
O 7.25564 11.3929 8.21851
O 9.90615 15.0259 8.70818
O 6.67572 9.41229 6.51979
O 8.86934 13.6579 6.5541
O 5.78826 12.0423 6.04043
O 8.72142 16.1063 6.36143
O 7.19729 14.7102 8.24312
O 9.88088 10.4414 8.08927
O 6.62478 16.8718 9.70496
O 9.16236 12.5913 9.76908
Si 9.97383 12.8211 5.40229
Si 12.6915 8.42082 5.34699
Si 11.4214 15.0555 9.29451
Si 13.8575 10.9611 9.39053
Si 11.3693 10.5771 7.27875
Si 13.7435 15.213 7.49356
O 11.3215 13.783 10.4562
O 13.7345 10.2644 10.8182
O 12.6594 10.9669 8.21924
O 14.7502 15.9428 8.61984
O 11.8835 9.29976 6.33263
O 14.432 13.6686 7.07245
O 10.8687 11.9484 6.28348
O 13.5861 16.2697 6.31528
O 12.4151 14.6254 8.10367
O 0.173542 10.166 8.56557
O 11.7262 16.5211 9.70064
O 14.0577 12.4659 9.79866
Si 14.8579 4.73582 11.2249
Si 3.05691 17.3176 11.4563
Si 1.24135 6.72414 14.4973
Si 3.71261 2.06325 14.4898
Si 1.24482 2.41757 12.8091
Si 3.44204 6.57857 12.7587
O 1.29198 5.58707 15.6694
O 3.6369 0.435566 15.0111
O 2.28898 2.5264 14.1335
O 4.60805 7.13086 13.8965
O 1.92832 1.24576 11.9315
O 3.95197 5.07305 12.176
O 1.06574 3.72196 11.8944
O 3.17083 7.53791 11.6094
O 1.90865 6.17739 13.2245
O 4.73928 1.98085 13.1834
O 1.82507 8.1792 15.184
O 4.20078 3.13237 15.6459
Si 5.09405 4.63727 11.1845
Si 7.85088 0.282249 10.5614
Si 6.11048 6.39951 14.6356
Si 8.73624 2.08432 14.6876
Si 6.30815 2.35908 12.5838
Si 8.61219 6.48898 13.0827
O 5.84669 4.94782 15.4464
O 8.6095 1.2144 16.1047
O 7.42475 2.4074 13.797
O 9.60917 7.09253 14.2253
O 6.88077 1.27493 11.4693
O 9.1901 5.10908 12.4066
O 6.07663 3.73479 11.9641
O 8.26784 7.6929 11.939
O 7.07827 6.14641 13.3877
O 9.75772 1.31726 13.4006
O 6.19725 7.79481 15.6236
O 9.46964 3.56201 15.2729
Si 10.0166 4.66882 11.1191
Si 12.6598 0.176483 10.8693
Si 11.0404 6.86891 14.8333
Si 13.8487 2.20671 14.5613
Si 11.2012 2.05395 12.7235
Si 13.6951 6.68217 12.9596
O 11.1472 5.55586 15.9319
O 13.9017 1.01148 15.8869
O 12.2143 1.95264 13.978
O 14.568 7.11629 14.2713
O 11.5647 0.856049 11.7135
O 13.8358 5.34787 12.4086
O 10.9076 3.43267 11.7979
O 13.7524 7.77703 11.7863
O 12.0808 6.97778 13.6262
O 14.7972 1.80588 13.4182
O 11.27 8.07477 16.0082
O 14.0359 3.7055 15.2535
Si 14.8164 13.1743 10.9754
Si 2.30409 8.8084 10.8489
Si 1.07581 15.1782 14.5768
Si 3.77648 11.0653 14.5641
Si 1.06966 10.7769 12.9521
Si 3.65976 14.7082 12.9743
O 0.243327 13.9299 15.4346
O 3.37899 10.3126 15.8418
O 2.45133 11.3573 13.7088
O 4.81053 15.406 13.9199
O 1.29439 9.42581 12.0995
O 3.83749 13.3006 12.1111
O 0.75208 11.8672 11.8176
O 2.9417 15.8903 12.2154
O 2.33045 14.3884 13.9947
O 4.77215 10.5128 13.5753
O 1.5962 16.4099 15.5001
O 4.62024 12.4012 15.2955
Si 5.29101 13.0278 11.1134
Si 7.48794 8.74492 11.1035
Si 6.47021 15.4042 14.6188
Si 8.8137 10.5418 14.7951
Si 6.31537 10.5871 12.8656
Si 8.93964 15.4383 12.71
O 6.53437 14.1625 15.6326
O 8.80097 9.34136 15.9902
O 7.37659 10.6465 13.9871
O 9.88898 15.5949 14.1057
O 6.09493 9.37221 11.8901
O 9.41645 13.8645 12.2255
O 6.45137 11.9581 11.9218
O 8.80662 16.4472 11.2871
O 7.37299 15.2549 13.3313
O 9.89421 10.2495 13.6014
O 6.46898 16.6636 15.6236
O 9.18478 12.0439 15.4547
Si 10.0614 13.0702 11.0239
Si 12.788 8.84785 11.079
Si 11.2121 15.351 14.9649
Si 13.4825 10.5995 14.7814
Si 11.1455 10.603 12.6277
Si 13.6221 15.386 12.8854
O 11.095 14.0535 15.9905
O 13.4022 9.4062 15.8434
O 12.4334 10.8051 13.6619
O 0.181016 15.9142 13.498
O 11.442 9.10955 11.8135
O 13.6995 13.9427 12.0769
O 10.8611 11.6435 11.4537
O 13.5344 16.4738 11.7718
O 12.3743 15.2688 13.9008
O 14.9658 10.313 14.1697
O 11.6988 16.7181 15.7176
O 13.6716 11.7627 15.9553
324
 Atoms. Timestep: 9000
Si 0.133266 4.54388 16.1559
Si 2.42229 17.1957 16.2811
Si 1.2317 6.69059 3.84647
Si 3.67547 2.27294 3.69432
Si 1.24934 2.09431 1.50207
Si 3.51896 6.39928 1.89649
O 1.51363 5.62782 4.95684
O 3.55653 1.18249 4.85813
O 2.64952 2.29248 2.47553
O 4.53206 6.90945 3.0243
O 1.49838 0.476547 1.28925
O 4.00747 5.07853 1.29559
O 1.19092 3.29917 0.320127
O 3.66256 7.38374 0.621725
O 2.01096 6.45309 2.46408
O 5.08784 1.74252 2.98223
O 1.38865 8.15774 4.62894
O 4.08623 3.66634 4.45435
Si 5.11068 4.61141 0.242936
Si 7.74318 0.109009 0.229132
Si 6.18558 6.57616 3.66786
Si 8.78565 2.4986 4.01018
Si 6.33549 2.22061 2.10686
Si 8.71263 6.44236 1.76454
O 5.91133 5.51571 4.82423
O 8.47289 1.43835 5.19215
O 7.40103 2.34282 3.19569
O 9.57536 6.4889 3.08681
O 6.90922 1.13952 1.06859
O 8.8728 5.03067 1.06795
O 6.08586 3.52236 0.993101
O 8.6978 7.61803 0.590492
O 7.12531 6.14197 2.40664
O 9.89348 1.97029 2.94021
O 6.6659 8.10552 4.28052
O 9.45841 3.85416 4.64886
Si 10.0409 4.39763 0.178237
Si 12.7064 17.3164 0.330652
Si 11.1664 6.62695 3.63591
Si 13.9172 2.27187 3.6608
Si 11.1998 2.14961 2.09473
Si 13.8173 6.45486 1.80156
O 11.6327 5.5887 4.91004
O 13.8801 0.755704 4.48148
O 12.285 2.54715 3.32395
O 14.7001 6.82016 3.21263
O 11.4109 0.734487 1.31187
O 14.2582 5.06217 1.10885
O 10.9562 3.41045 1.01212
O 13.7526 7.75632 0.767755
O 12.2203 6.17427 2.36319
O 14.6846 2.27357 2.12965
O 11.4444 8.22405 4.01156
O 14.4276 3.60101 4.36238
Si 14.704 12.9746 -0.118743
Si 2.78305 8.72759 16.2656
Si 1.28217 14.8787 3.58989
Si 3.60882 10.9383 3.95455
Si 0.957305 10.6145 1.74768
Si 3.96883 15.0175 1.86717
O 1.5471 13.9642 4.81413
O 3.66069 9.98475 5.13613
O 2.35069 11.1129 2.96237
O 4.89348 15.6183 3.12833
O 1.89919 9.30788 1.30334
O 4.50009 13.5569 1.37775
O 0.830259 11.7773 0.531087
O 3.67137 16.1835 0.660582
O 2.54107 14.5923 2.44611
O 4.83389 10.5753 2.90274
O 1.69867 16.332 4.32242
O 3.86169 12.475 4.62238
Si 5.53671 12.8319 16.5926
Si 7.49564 8.7483 0.272176
Si 6.24938 15.1912 3.79546
Si 8.74154 10.6427 3.92799
Si 6.2465 10.6199 2.33269
Si 8.59914 14.995 2.01212
O 6.11582 13.9773 4.78963
O 8.66827 9.42599 5.09495
O 7.26891 11.1969 3.41328
O 9.43236 15.102 3.44326
O 6.75622 9.28984 1.57915
O 8.74612 13.4401 1.35766
O 6.31071 11.7988 0.96538
O 8.66619 16.384 1.03149
O 7.02962 14.8349 2.41946
O 9.73039 10.4914 2.70133
O 6.95809 16.4897 4.56946
O 9.13511 11.9738 4.82341
Si 9.67068 13.0667 16.4407
Si 12.5174 8.87461 0.325215
Si 11.002 14.9121 3.90531
Si 13.5524 11.0945 3.6295
Si 11.1022 11.1838 2.03241
Si 13.4432 14.5602 1.99712
O 11.3229 13.6603 5.03399
O 13.2189 10.0094 4.77647
O 12.2139 11.6767 3.13741
O 14.8074 14.8478 2.8405
O 11.5789 9.87354 1.33526
O 13.6388 13.2555 1.06293
O 10.8829 12.1724 0.933369
O 13.5372 16.15 1.33106
O 12.2037 14.8197 2.85945
O 14.3231 10.4342 2.39513
O 11.3688 16.5623 4.2649
O 14.5198 12.1583 4.36195
Si 0.489178 4.37412 5.46074
Si 2.54028 17.1304 5.44668
Si 1.1672 6.85609 9.207
Si 4.0998 1.90188 9.18671
Si 1.62179 1.97989 7.28613
Si 3.84783 6.35635 7.46297
O 1.0208 5.44299 10.2885
O 3.85669 0.547135 10.2444
O 3.13323 2.03221 7.89594
O 4.99477 7.07133 8.21079
O 1.76815 0.544771 6.70938
O 4.19706 4.81823 6.92001
O 1.46436 3.16629 6.20088
O 3.2296 7.25188 6.10037
O 2.38551 6.16292 8.32382
O 5.6018 1.80341 8.6661
O 1.73298 8.19387 9.98186
O 4.01551 3.35979 10.0252
Si 4.98442 4.34794 5.6577
Si 7.65129 0.220257 5.74621
Si 6.31145 6.5141 9.23238
Si 9.20441 2.43676 9.16866
Si 6.53309 2.36614 7.45454
Si 8.75251 6.08858 7.32431
O 5.71648 5.49183 10.3145
O 8.73365 1.36212 10.3118
O 7.9871 2.71824 8.18506
O 9.83581 6.46169 8.48864
O 6.73693 0.759995 6.84856
O 9.73783 5.04421 6.67333
O 6.32389 3.39366 6.33203
O 8.30832 7.11691 6.31722
O 7.4625 5.68598 8.13677
O 10.5394 2.05439 8.31018
O 6.68747 7.96966 9.9027
O 9.82064 3.76921 9.93159
Si 10.5505 4.43598 5.60124
Si 12.6903 17.0296 5.20076
Si 11.3747 6.48634 9.04388
Si 14.0309 2.51738 9.39001
Si 11.6905 2.07964 7.1847
Si 13.7179 6.45957 7.23735
O 11.4589 5.61953 10.3598
O 13.9758 1.19049 10.4011
O 12.8854 2.54788 8.21024
O 14.7867 6.8626 8.41754
O 12.0819 0.784562 6.44323
O 14.4071 5.27449 6.2971
O 11.665 3.24734 6.14407
O 13.5739 7.71044 6.09917
O 12.4401 5.81941 8.02457
O 0.580377 2.57588 8.45486
O 11.9136 7.91084 9.55918
O 13.8393 3.98299 10.1266
Si 0.595823 12.8606 5.48006
Si 2.40982 8.80751 5.58239
Si 1.07044 15.3731 9.16273
Si 3.78808 11.0799 9.41227
Si 1.19905 10.8078 7.518
Si 3.60476 15.0366 7.54188
O 1.07414 14.2327 10.4557
O 4.01296 9.71167 10.2397
O 2.07618 11.1139 8.93588
O 4.90543 15.7372 8.4473
O 1.65326 9.24304 6.88979
O 4.22583 13.516 6.95868
O 1.60082 11.6966 6.09071
O 3.63289 16.077 6.23591
O 2.21065 14.6179 8.17799
O 4.96392 10.6115 8.45213
O 1.58517 16.6887 9.82065
O 4.09106 12.7463 9.60058
Si 5.05121 12.9757 5.60992
Si 7.42272 8.3973 5.55729
Si 6.40544 15.3958 9.03234
Si 8.83917 11.086 9.14122
Si 6.34012 10.6696 7.5453
Si 8.91442 15.2241 7.44663
O 6.34806 14.1297 10.1696
O 8.59442 10.0827 10.5224
O 7.32372 11.4103 8.44855
O 9.71797 15.7153 8.92055
O 6.78218 9.28194 6.73078
O 9.64765 13.8518 6.87068
O 6.06257 11.9059 6.21355
O 8.81862 16.5025 6.53801
O 7.40144 14.8805 7.94147
O 9.97171 10.3346 8.25651
O 6.70603 16.769 9.91187
O 9.54406 12.4937 9.65007
Si 10.1014 12.6886 5.69087
Si 12.4869 8.70404 5.43688
Si 11.1704 15.3269 9.29971
Si 13.6023 11.1226 9.03406
Si 11.3332 10.6601 7.28929
Si 13.6191 14.8399 7.3497
O 11.2381 14.2732 10.6411
O 12.9051 10.1304 10.0176
O 12.232 11.6789 8.21584
O 14.5264 15.6078 8.59978
O 11.6673 9.08326 6.71859
O 14.6774 13.6589 6.75569
O 10.905 11.4802 6.09533
O 13.4066 15.7589 6.06773
O 12.004 14.5397 7.87744
O 14.4914 10.4176 7.76699
O 11.8565 16.6401 9.58946
O 14.3874 12.5088 9.545
Si 14.8508 4.83626 11.1911
Si 2.71967 17.2636 11.1799
Si 1.23828 6.90899 14.2532
Si 3.84027 2.54699 14.5821
Si 1.17061 2.39605 12.7185
Si 3.83839 6.58234 12.59
O 1.1062 5.6727 15.1943
O 3.41857 1.14332 15.6359
O 2.52787 2.75217 13.7812
O 4.58963 7.11951 13.9035
O 1.70699 1.186 11.7402
O 4.13626 4.99841 12.0785
O 0.83392 3.5915 11.7162
O 3.70312 7.78583 11.6831
O 2.20264 6.49989 13.0291
O 4.83815 1.83845 13.5214
O 1.99612 8.07768 15.0308
O 4.52349 3.91011 15.1679
Si 5.0857 4.14152 11.0901
Si 7.64851 0.317974 11.0228
Si 6.1553 6.90352 14.6742
Si 8.84403 2.09169 14.5722
Si 6.33279 2.34644 13.0128
Si 8.43584 6.66708 12.7019
O 6.10294 5.63051 15.9379
O 8.83572 1.07309 15.782
O 7.39473 2.76781 14.0321
O 9.47388 7.04963 14.0285
O 6.80704 0.86614 12.3389
O 8.96769 5.28272 11.9579
O 6.15509 3.03981 11.3969
O 8.84669 7.87944 11.6299
O 7.00767 6.72848 13.2549
O 9.81231 1.97826 13.1225
O 6.63109 8.09404 15.4449
O 9.15473 3.44381 15.5223
Si 10.2854 4.73223 11.0379
Si 12.5452 0.227687 10.8088
Si 10.8992 6.90507 14.8219
Si 13.6944 2.33947 14.4882
Si 11.1693 2.49051 12.5845
Si 13.4604 6.86914 12.9456
O 10.9033 5.75324 16.1206
O 13.4718 1.14207 15.8447
O 12.1303 2.26784 13.9478
O 14.6222 7.26156 13.9507
O 11.7827 1.23348 11.6779
O 13.8053 5.62842 12.1666
O 11.0788 3.98109 12.2005
O 13.3427 8.03983 11.7725
O 11.8132 6.41513 13.6154
O 14.8413 1.95952 13.5168
O 11.4305 8.32823 15.6594
O 14.0933 3.86684 14.9556
Si 15.089 13.0035 10.9091
Si 2.86296 8.93971 11.0375
Si 1.2533 15.1775 14.5337
Si 3.86473 10.9692 14.6923
Si 1.3492 10.9621 12.9225
Si 3.92048 15.0893 13.0938
O 0.941351 14.0608 15.8852
O 4.01025 9.66313 15.7013
O 2.35503 11.4586 14.1017
O 5.02145 15.5092 14.1688
O 1.97154 9.42276 12.3037
O 3.82728 13.899 11.8892
O 1.18486 11.8164 11.6192
O 3.57478 16.4056 12.2325
O 2.63799 14.643 13.9473
O 4.86919 10.3423 13.6836
O 1.35884 16.6808 15.0618
O 4.35738 12.4362 15.2522
Si 5.06661 13.2955 10.8954
Si 7.70249 8.81131 10.9319
Si 6.56567 15.2477 14.8215
Si 8.60974 10.7918 14.6279
Si 6.1318 10.7553 12.7975
Si 8.66134 15.1056 12.7213
O 6.68568 13.95 15.888
O 8.28318 9.96708 15.9895
O 7.19636 11.1722 13.9017
O 9.80483 15.5788 13.8604
O 6.62563 9.40539 12.1432
O 8.99021 13.6361 11.9496
O 5.97409 11.949 11.6374
O 8.80143 16.3774 11.4971
O 7.28375 14.7795 13.4958
O 9.63266 10.0226 13.6502
O 6.84975 16.675 15.3643
O 9.091 12.2201 15.0495
Si 10.1377 13.0691 10.9594
Si 12.2352 8.77069 10.8137
Si 11.2156 15.3703 14.5501
Si 13.5354 10.9257 14.6105
Si 10.89 10.409 12.7323
Si 13.6712 14.8943 12.5481
O 10.6165 14.3428 15.8763
O 13.3443 10.04 16.0027
O 12.4038 10.3787 13.5616
O 14.9231 15.3631 13.5921
O 10.868 9.13955 11.6831
O 13.6445 13.5873 11.6824
O 10.8992 11.7915 12.1771
O 13.3077 16.2087 11.606
O 12.4696 14.6504 13.6615
O -0.0282286 10.6002 13.7874
O 11.8161 16.5628 15.4839
O 13.7498 12.4815 15.0109
324
 Atoms. Timestep: 9500
Si 0.316218 4.60746 0.451868
Si 2.69329 0.141957 16.4552
Si 1.04367 6.59146 3.6364
Si 3.78168 2.25635 3.64447
Si 1.16039 2.27139 2.01471
Si 3.6671 6.67857 1.98545
O 0.888872 5.15792 4.48908
O 3.78359 0.981474 4.66692
O 2.36316 2.2292 3.10815
O 4.70553 7.10978 3.19258
O 1.53502 0.942416 1.25611
O 4.27173 5.47062 1.19286
O 1.3681 3.87116 1.44125
O 3.65435 7.98447 1.07368
O 2.03357 6.34551 2.26017
O 4.59305 1.82475 2.20797
O 1.75069 7.50139 4.96825
O 4.37913 3.81858 4.18654
Si 5.18671 4.62663 16.4221
Si 7.8777 0.345747 0.213864
Si 6.26229 6.71836 3.84114
Si 8.54667 2.10487 3.61557
Si 6.01385 2.40851 1.84483
Si 8.80398 6.82503 1.97947
O 6.29507 5.33155 4.70698
O 8.53043 0.666424 4.32538
O 6.96946 2.48577 3.22505
O 9.71581 7.17405 3.38762
O 6.96047 1.17912 1.26407
O 9.25327 5.54509 1.10949
O 6.10102 3.43132 0.600704
O 8.68217 7.84246 0.740143
O 7.41093 6.7732 2.79604
O 9.57364 2.07862 2.35901
O 6.73574 7.92391 4.84553
O 8.91127 3.29581 4.66582
Si 10.0104 4.62354 16.3685
Si 12.5441 0.203206 16.3661
Si 11.1014 6.71345 3.87565
Si 13.395 2.37591 3.9738
Si 11.0799 2.27769 1.85422
Si 13.5378 6.72659 2.21443
O 10.9463 5.34142 4.9522
O 13.409 1.33305 5.27623
O 12.171 2.35843 2.96987
O 14.693 7.44621 3.08594
O 11.1437 0.792307 0.948572
O 14.1738 5.2215 1.61105
O 11.0319 3.4471 0.812909
O 13.367 7.61467 0.785421
O 12.124 6.01104 2.55944
O 14.6536 2.09994 3.05453
O 12.022 7.63204 4.61506
O 13.5028 3.78641 4.78665
Si 0.318528 13.0274 16.2976
Si 2.56473 8.92381 0.124178
Si 0.99307 15.2213 3.77544
Si 3.58358 10.7127 3.75741
Si 1.1346 10.7557 2.05768
Si 3.50133 15.0837 2.01091
O 1.20851 14.138 5.02176
O 3.23316 9.86373 4.94603
O 2.39982 11.4482 2.75268
O 4.62633 15.5546 3.124
O 1.59956 9.30846 1.39158
O 4.02275 13.8008 1.13864
O 0.713006 12.0483 1.1292
O 3.52404 16.5254 1.21653
O 2.09115 14.6583 2.71353
O 4.36401 10.1617 2.55446
O 1.51132 16.6862 4.39496
O 4.3104 12.0739 4.15023
Si 4.9147 12.9572 16.3961
Si 7.55137 8.96072 16.1912
Si 6.09422 15.5217 3.68872
Si 8.51271 10.9969 3.82091
Si 5.83816 10.5687 1.88558
Si 8.71684 15.0794 1.77079
O 5.98425 14.2075 4.69138
O 8.2181 10.1952 5.28638
O 6.98499 10.7433 3.15672
O 9.76231 15.6684 2.99934
O 6.46489 9.40563 0.889759
O 9.24573 13.7139 1.09803
O 5.8475 11.9709 1.018
O 8.77246 16.5379 0.950933
O 7.22976 15.296 2.58811
O 9.84766 10.3739 2.78182
O 6.37589 16.8601 4.53788
O 9.08424 12.4673 4.09996
Si 10.2128 13.3002 16.258
Si 12.5687 8.7221 16.3163
Si 11.1591 15.0969 3.74171
Si 13.6416 10.6616 3.78502
Si 11.1384 10.7986 1.8003
Si 13.4353 14.8721 1.74629
O 10.7504 14.1294 4.94277
O 13.6461 9.95841 5.25819
O 12.2485 10.7245 2.98501
O 14.4526 15.5537 3.06622
O 11.4594 9.45525 0.932738
O 14.0501 13.6868 0.925095
O 11.0325 12.0007 0.757808
O 13.3591 16.4139 1.14097
O 12.1149 14.3055 2.50833
O 14.6781 10.0179 2.77708
O 12.2359 16.3572 4.0999
O 14.3798 12.2274 4.04572
Si 14.9147 4.29996 5.67971
Si 2.7452 17.1647 5.2442
Si 1.41445 6.77652 9.13037
Si 3.8117 2.55199 9.04184
Si 1.48263 1.84746 7.22778
Si 3.98082 6.21302 7.45279
O 1.21438 5.70937 10.4927
O 3.21704 1.24068 10.0879
O 2.76719 2.72437 7.77492
O 4.88405 6.82613 8.4768
O 2.0319 0.619088 6.47903
O 4.39269 4.72735 6.87516
O 0.915444 2.92928 5.97489
O 3.86747 7.52939 6.27437
O 2.45562 6.09215 7.98069
O 5.36548 2.24369 8.47719
O 2.13724 8.04502 9.72401
O 3.95147 3.96296 10.1034
Si 5.30977 4.23083 5.43409
Si 7.4933 17.2006 5.61337
Si 6.29435 6.40719 9.28113
Si 9.21513 2.12048 9.16946
Si 6.60447 2.28399 7.48597
Si 8.7896 6.50099 7.25801
O 6.06031 5.41274 10.5019
O 8.36966 1.3156 10.2973
O 7.94697 2.76226 8.24802
O 9.53205 7.21677 8.61872
O 7.11234 0.679774 7.02859
O 9.37466 5.02262 6.71202
O 6.29848 2.9236 6.02503
O 8.8245 7.64356 6.06268
O 7.33786 6.04997 8.03608
O 10.4292 1.36917 8.61415
O 7.064 7.59434 9.97242
O 9.73243 3.519 9.85928
Si 10.0416 3.9916 5.73324
Si 12.8282 17.0957 5.36931
Si 11.1429 6.9523 9.20901
Si 14.2495 2.18378 9.20906
Si 11.4795 1.85242 7.40495
Si 13.803 6.51613 7.63882
O 11.0648 5.78012 10.2364
O 13.9184 1.18548 10.4418
O 12.8698 2.41278 8.30502
O 14.7985 7.25133 8.74705
O 11.5797 0.431369 6.55042
O 14.4888 5.25412 6.86132
O 10.8923 2.92714 6.46562
O 13.7933 7.65753 6.4494
O 12.277 6.38589 8.15687
O 0.400032 1.38178 8.24199
O 11.6316 8.56583 9.86686
O 14.9434 3.5004 9.66069
Si 0.198672 12.7784 5.31742
Si 2.5642 8.49882 5.71697
Si 1.49581 14.8867 9.10227
Si 3.8005 11.0174 9.22495
Si 1.3108 10.6987 7.27481
Si 3.83004 14.8795 7.25129
O 1.35404 13.9295 10.2861
O 3.94942 9.97471 10.4513
O 2.36968 11.2529 8.41989
O 4.7485 15.7074 8.29396
O 1.69552 8.92223 6.99926
O 4.45912 13.4977 6.61906
O 1.11426 11.4805 5.73577
O 3.71872 15.9823 5.96274
O 2.49547 14.148 7.99069
O 4.92431 10.5301 8.21237
O 1.68736 16.3198 9.70358
O 4.09438 12.4451 10.0845
Si 5.21989 12.8343 5.3245
Si 7.57952 8.80928 5.83635
Si 6.12939 15.3529 8.97977
Si 8.63534 10.8994 9.25716
Si 6.24969 10.682 7.40636
Si 8.61312 15.0976 7.06341
O 6.36788 14.0148 9.88916
O 8.32552 9.79873 10.4203
O 7.1879 11.5219 8.56717
O 9.94173 15.7639 8.12683
O 6.76302 9.10655 7.18091
O 9.1672 13.5749 6.75491
O 6.06169 11.7081 6.0537
O 8.31911 15.8393 5.67042
O 7.09811 14.7346 7.75963
O 9.65306 10.4732 8.05558
O 6.55702 16.5474 9.93752
O 9.41993 12.0936 9.89546
Si 9.91588 12.8953 5.68301
Si 12.6381 8.65467 5.73383
Si 11.2778 15.3439 8.92581
Si 13.6362 10.9162 9.13005
Si 11.1405 10.7048 7.37964
Si 13.8209 14.8593 7.22566
O 10.719 14.4131 10.1461
O 13.9554 9.78006 10.252
O 12.1962 11.0223 8.62099
O 14.9121 15.1086 8.38228
O 11.5449 9.3094 6.6939
O 13.7421 13.4632 6.25442
O 10.99 11.7946 6.24579
O 14.0791 16.1886 6.36075
O 12.4173 14.8027 7.87653
O 14.6806 10.7647 7.92739
O 11.9473 16.5531 9.7757
O 14.2899 12.2412 9.914
Si 0.37462 4.53476 10.8749
Si 2.5211 17.2187 11.032
Si 1.15095 6.78304 14.6258
Si 3.8666 2.48536 14.8775
Si 1.2881 2.40409 13.0437
Si 3.7209 6.42293 13.0105
O 1.09794 5.70874 15.7936
O 3.90751 1.20112 16.009
O 2.24802 2.70387 14.4027
O 4.71413 7.13329 14.1203
O 1.79665 0.972938 12.176
O 4.30738 4.82665 12.6862
O 1.07152 3.63134 12.1666
O 3.94721 7.69968 11.8325
O 2.30927 6.1899 13.5677
O 4.63794 1.87537 13.6462
O 1.76991 8.25311 15.3038
O 4.57236 3.97328 15.0948
Si 5.04198 4.29226 11.2503
Si 7.45842 0.188756 11.0416
Si 6.12807 6.6912 14.7556
Si 8.71603 2.46249 14.606
Si 6.02498 1.97624 12.9079
Si 8.76732 6.40335 12.9013
O 6.15715 5.7265 15.9772
O 8.97876 1.27466 15.6829
O 7.17463 2.2383 14.0821
O 9.71166 6.59433 14.1679
O 6.46366 0.734978 12.1723
O 9.31735 5.08898 12.1299
O 5.97874 3.09265 11.7209
O 8.56451 7.69247 12.0275
O 7.20677 6.09071 13.5021
O 9.7386 2.06391 13.3038
O 6.79867 8.13758 14.9447
O 8.9429 3.99427 15.2925
Si 10.3217 4.44176 10.9666
Si 12.7145 17.2213 11.0817
Si 11.3491 6.49216 14.6375
Si 13.7009 2.39102 14.8351
Si 11.2703 2.30235 12.8209
Si 13.5405 6.40825 12.7399
O 11.336 5.47495 15.869
O 13.6952 1.18439 16.0173
O 12.1997 2.57765 14.2739
O 14.5095 7.02914 13.8863
O 11.887 0.773113 12.2813
O 13.8652 5.10062 11.7907
O 11.5308 3.66951 11.8699
O 13.6277 7.75407 11.5999
O 12.0346 6.00625 13.4039
O 14.7379 1.7455 13.6397
O 11.6384 8.06639 15.1244
O 14.3824 3.84037 15.4203
Si 0.420675 12.8743 10.944
Si 2.94174 8.75346 11.0265
Si 1.52169 15.088 14.5619
Si 3.54754 11.184 14.4747
Si 1.18822 10.4996 12.7866
Si 3.89241 15.2422 12.7837
O 1.47451 14.0712 15.7909
O 3.4209 10.0377 15.774
O 2.01968 11.3442 14.262
O 4.74876 15.5688 14.1306
O 2.02508 9.03828 12.5484
O 4.60873 13.9398 12.1945
O 1.31975 11.5967 11.6196
O 3.87465 16.3166 11.4778
O 2.3922 14.6582 13.1661
O 4.66976 10.63 13.5562
O 2.27729 16.4014 15.2171
O 4.0068 12.5514 15.064
Si 5.38406 13.101 10.9628
Si 7.53375 8.5785 11.0468
Si 6.29005 15.3087 14.7883
Si 8.61585 11.3716 14.3362
Si 6.00889 10.7254 12.7361
Si 8.73026 15.0474 12.7293
O 6.3332 13.7707 15.8627
O 8.27602 10.2455 15.5665
O 6.89446 11.3401 13.9156
O 9.88042 15.3818 13.8036
O 6.40818 9.34759 12.1861
O 8.9453 13.6768 11.8868
O 6.23788 11.7481 11.5069
O 8.45625 16.2151 11.6912
O 7.15327 14.9225 13.4099
O 9.65908 10.8413 13.1763
O 6.95652 16.786 15.1864
O 9.25992 12.4776 15.2067
Si 10.1296 13.1275 10.9085
Si 12.7121 8.98455 11.0139
Si 11.2548 15.3616 14.4775
Si 13.7963 10.9166 14.3214
Si 11.2727 11.3681 12.7047
Si 13.8527 14.8726 13.1
O 11.2197 14.431 15.8733
O 13.4781 9.52199 15.355
O 12.516 11.621 13.8242
O 14.9601 15.4692 14.0816
O 11.9001 10.1223 11.968
O 14.4886 13.7773 12.1809
O 11.3891 12.7767 11.9572
O 13.2309 15.9744 12.0885
O 12.5949 14.5191 14.0176
O 14.5871 10.2431 13.0399
O 11.8839 16.7102 15.1119
O 14.542 12.2006 14.9672
324
 Atoms. Timestep: 10000
Si 0.49178 4.49912 16.3838
Si 2.65627 0.26632 0.555479
Si 1.05347 6.49104 3.82033
Si 3.77133 2.47921 3.64122
Si 1.13265 2.32962 2.23742
Si 3.6623 6.22467 1.96291
O 0.747786 5.30822 4.92032
O 3.89847 1.02581 4.47742
O 2.28183 2.85769 3.22698
O 4.65347 7.083 3.07436
O 1.56925 0.720718 1.79102
O 4.50152 4.85682 1.53575
O 1.26793 3.44354 1.06282
O 3.50911 7.37356 0.77229
O 2.0226 5.85787 2.78401
O 4.62514 2.09216 2.28794
O 1.83042 7.81582 4.70299
O 4.4053 3.86645 4.37909
Si 5.29735 4.40194 16.4085
Si 7.50768 0.482232 16.405
Si 6.17254 6.74536 3.56421
Si 8.32195 2.4772 3.87306
Si 6.16402 2.3112 2.02175
Si 8.68693 6.46663 1.92134
O 6.31818 5.44493 4.64577
O 8.61467 1.08208 4.61115
O 6.7931 3.05653 3.46604
O 9.45847 7.17333 3.2641
O 6.58757 0.865502 1.4702
O 9.39091 5.11274 1.47871
O 6.24115 3.23454 0.632182
O 8.87199 7.67494 0.741372
O 7.20859 6.23488 2.42667
O 9.0905 2.1758 2.39374
O 6.6881 7.99128 4.52114
O 8.8579 3.73366 4.66779
Si 10.2744 4.59498 0.171654
Si 12.4588 0.365729 0.206203
Si 10.8853 6.86285 3.83638
Si 13.2198 2.0866 3.72194
Si 10.7242 2.32633 1.96964
Si 13.4186 6.31781 1.95278
O 10.6159 5.58726 5.05279
O 13.4775 0.823525 4.74874
O 11.7275 2.17176 3.35272
O 14.6525 6.96806 2.91122
O 11.123 0.889732 1.15644
O 14.0565 5.00601 1.05159
O 11.346 3.47184 0.88158
O 13.5068 7.43714 0.746397
O 12.0024 6.4054 2.65674
O 14.2012 2.29178 2.49049
O 11.8924 7.64393 4.86861
O 13.5922 3.44014 4.73824
Si 0.531305 13.3058 0.370969
Si 2.61206 8.62423 16.2831
Si 1.12906 15.3029 3.72666
Si 4.06969 10.5905 3.56963
Si 1.35516 10.7403 1.99418
Si 3.65992 14.9707 1.95816
O 0.721781 14.3994 5.03752
O 4.01034 9.42595 4.64878
O 2.31605 10.8864 3.29981
O 4.53053 14.8786 3.27099
O 1.82756 9.37506 1.23402
O 3.91749 13.9421 0.812375
O 1.47329 12.1624 1.14222
O 3.79354 16.3487 1.18863
O 2.14538 14.8058 2.56978
O 4.85999 10.4637 2.10579
O 1.60411 16.7093 4.44214
O 4.42929 11.9376 4.40477
Si 4.88186 13.141 16.0636
Si 7.9599 8.63615 16.0528
Si 6.10938 14.9476 3.68164
Si 8.76584 11.0921 3.31401
Si 6.32977 11.0491 1.39639
Si 8.61327 15.2129 1.86432
O 6.46401 13.7038 4.80483
O 8.37276 9.96624 4.51236
O 7.21393 11.4391 2.7819
O 9.80863 15.4468 2.97103
O 7.43386 9.96901 0.673154
O 9.16731 13.8237 1.28438
O 6.04296 12.1042 0.396978
O 8.44943 16.4041 0.860152
O 7.03273 14.9164 2.2709
O 9.70959 9.84948 2.29339
O 6.39954 16.3994 4.55382
O 9.49551 12.2558 4.09389
Si 10.0157 13.1672 0.198863
Si 12.7426 8.642 16.2194
Si 11.3072 15.126 3.75719
Si 13.5394 11.1323 3.81725
Si 11.0424 10.3688 1.74423
Si 13.5815 15.2572 1.78872
O 11.0399 14.0053 4.81796
O 13.3677 9.79106 5.0278
O 12.1845 10.9332 2.75554
O 14.6679 15.8524 2.95771
O 11.4764 9.03503 1.01213
O 14.2161 13.8504 1.29012
O 10.793 11.9605 0.929755
O 13.5296 16.6446 0.937521
O 12.4078 14.7061 2.70727
O 14.6338 10.9261 2.65075
O 11.4526 16.3922 4.70001
O 13.9621 12.3916 4.78667
Si 14.6067 4.28205 5.66753
Si 2.74821 0.160221 5.31044
Si 1.53471 6.27204 9.02281
Si 3.97535 2.51503 9.10366
Si 1.48345 2.30859 7.5678
Si 3.79025 6.64644 7.52473
O 1.76831 4.9875 10.1511
O 3.72544 1.32523 10.2408
O 2.51986 2.96349 8.48503
O 4.56619 6.90568 8.85744
O 2.12874 1.07296 6.41779
O 4.52008 5.4725 6.46353
O 0.812424 3.22761 6.34552
O 3.65161 8.01626 6.72118
O 2.29452 6.06905 7.55933
O 4.56616 1.76688 7.75901
O 2.03851 7.65524 9.5821
O 4.77677 3.88926 9.42414
Si 5.28181 4.45955 5.53485
Si 7.55058 17.0692 5.49703
Si 6.13329 6.63321 9.43459
Si 8.69207 2.6031 9.12375
Si 6.11312 2.00256 7.18492
Si 8.69262 6.56655 7.65301
O 6.5468 5.50967 10.4791
O 8.46109 1.81128 10.668
O 7.17382 2.7438 8.44194
O 9.53286 6.8786 8.93716
O 6.75779 0.556139 6.73444
O 9.00016 5.01891 7.16924
O 6.21079 3.43567 6.32988
O 8.73143 7.464 6.07441
O 7.23866 6.85052 8.24627
O 9.78257 1.79598 8.39112
O 6.26567 8.07417 10.1763
O 9.03664 4.12321 9.79544
Si 9.82313 4.43336 5.80451
Si 12.538 17.1192 5.64595
Si 11.1203 6.70328 9.5535
Si 14.0356 2.01403 9.25285
Si 11.2632 2.28287 7.49984
Si 13.7225 6.4689 7.63732
O 11.2601 5.37011 10.4447
O 13.8689 0.827337 10.3224
O 12.4994 2.62115 8.69245
O 14.786 6.512 8.86425
O 11.6635 0.913148 6.82827
O 13.6602 5.0609 6.7831
O 10.8144 3.44558 6.55511
O 13.8107 7.51006 6.4024
O 12.4439 6.59942 8.50494
O 0.333099 1.45156 8.34908
O 11.506 8.07221 10.2749
O 14.403 3.69063 9.74032
Si 0.176552 13.065 5.81374
Si 2.80972 8.74283 5.5319
Si 1.24495 15.3353 9.10898
Si 3.81531 10.8065 9.16284
Si 1.31226 10.9285 7.49056
Si 3.85205 15.0121 7.19802
O 1.29773 14.1088 10.0275
O 3.19456 9.93884 10.3267
O 2.42136 11.1884 8.51609
O 4.86242 15.4376 8.41115
O 1.95249 9.84695 6.52989
O 4.08302 13.4923 6.5363
O 1.13379 12.1119 6.35446
O 3.88725 16.2408 6.11196
O 2.14433 15.0599 7.74289
O 4.74728 10.3637 7.88089
O 1.62454 16.7631 9.68642
O 4.33459 12.3376 9.62362
Si 5.25683 12.6837 5.56546
Si 7.78663 8.63673 5.53871
Si 6.3749 15.1469 9.09607
Si 8.4874 10.8566 9.39622
Si 6.37158 10.4868 7.4028
Si 8.83008 14.992 7.12654
O 6.15792 14.2429 10.44
O 8.64843 9.36986 10.214
O 6.9392 10.9509 8.85451
O 9.92786 15.8909 8.06534
O 7.0819 9.35412 6.69126
O 9.46913 13.5123 6.68916
O 6.38617 11.7607 6.40502
O 8.7187 15.9233 5.78794
O 7.50265 14.5906 8.00808
O 9.57816 10.497 8.08016
O 6.80758 16.6225 9.83082
O 9.03628 12.4151 10.0563
Si 10.2309 12.8379 5.46248
Si 12.641 8.63819 5.90841
Si 11.0406 15.4261 9.16297
Si 13.4828 11.1441 9.13491
Si 11.1126 10.6953 7.62682
Si 13.5929 14.9911 7.71526
O 10.6996 14.0939 9.95954
O 13.4117 9.97345 10.5411
O 12.0476 11.6474 8.56359
O 14.4233 15.7052 8.77728
O 11.9678 9.25855 7.31274
O 13.8443 13.5317 6.995
O 11.0832 11.4413 6.15289
O 13.6586 15.981 6.43018
O 12.087 14.6016 8.30866
O 14.5977 10.602 8.03977
O 11.462 16.6141 9.99881
O 14.0355 12.4593 9.84371
Si 0.696736 4.14093 10.8573
Si 2.69757 17.2554 10.7923
Si 1.47426 6.46612 14.5538
Si 3.73998 2.30563 14.8766
Si 1.37973 1.92353 12.7902
Si 3.79731 6.31647 12.8061
O 1.51846 5.59406 15.874
O 3.46864 1.53883 16.2858
O 2.30195 2.45489 13.9915
O 4.92045 7.04455 13.8163
O 1.88546 0.529693 12.1983
O 4.53344 5.11421 11.9752
O 1.46892 3.02868 11.6491
O 3.48504 7.77748 11.9459
O 2.54174 5.67688 13.6039
O 4.96321 2.0186 13.7565
O 1.68775 8.15101 15.1649
O 4.37105 3.90828 15.2627
Si 5.51929 4.33794 10.846
Si 7.69418 0.443131 11.1513
Si 6.24702 6.65042 14.473
Si 8.74172 2.57147 14.5797
Si 6.30883 2.25695 12.8382
Si 8.73345 6.20668 12.8287
O 6.09955 5.76889 15.8146
O 8.48882 1.45699 15.6786
O 7.37655 3.09246 13.8951
O 9.89204 6.72968 13.8619
O 6.72646 0.738601 12.4935
O 9.34385 4.85334 12.3444
O 6.25609 3.05602 11.5613
O 8.59127 7.18311 11.502
O 7.21245 5.8252 13.3582
O 9.77095 1.74848 13.6338
O 7.25701 7.64821 15.0963
O 9.2558 3.86491 15.3198
Si 10.1294 4.33895 11.0095
Si 12.631 17.1792 11.0277
Si 11.4926 6.50928 14.5042
Si 13.6471 2.46462 14.4337
Si 11.246 2.09455 12.8478
Si 13.925 6.29576 12.8551
O 11.3382 5.688 15.8044
O 13.247 1.5609 15.7165
O 12.1241 2.82977 13.8947
O 14.5751 6.59279 14.2169
O 11.9383 0.800926 12.2622
O 14.6979 5.03764 12.0812
O 10.8729 2.96083 11.4466
O 13.848 7.61743 11.8787
O 12.2948 6.02323 13.2409
O 14.6746 1.81675 13.4565
O 12.1745 7.97573 14.8034
O 14.5798 3.57656 15.1395
Si 0.270263 12.9903 10.8195
Si 2.47953 8.55272 10.9477
Si 1.37 15.4478 14.6602
Si 3.94343 10.9338 14.3476
Si 1.07778 10.324 12.7477
Si 3.79855 15.1877 12.6601
O 1.21876 14.4195 15.8703
O 3.72622 9.69143 15.4261
O 2.63093 10.7139 13.271
O 4.92765 15.7379 13.7004
O 1.12148 8.9967 11.8421
O 4.18933 13.6443 12.042
O 0.899776 11.6508 11.666
O 3.57311 16.0203 11.1838
O 2.36575 15.2019 13.3449
O 5.26667 10.6885 13.6623
O 1.87798 16.8972 15.4386
O 3.91129 12.2988 15.0797
Si 5.13269 13.088 10.9538
Si 7.53265 8.42478 11.06
Si 6.26273 15.5624 14.5017
Si 8.83074 11.147 14.6239
Si 6.53809 10.9965 12.679
Si 8.88564 15.0686 12.8527
O 5.75619 14.1639 15.4876
O 9.1858 9.7952 15.3668
O 7.34743 11.5537 13.995
O 9.7762 15.5712 14.0059
O 6.88983 9.39979 12.2758
O 9.5936 13.7536 12.2461
O 6.05714 11.7628 11.2671
O 8.68465 16.2388 11.695
O 7.46598 14.7828 13.5753
O 9.64413 11.3349 13.2556
O 6.66509 16.8526 15.2152
O 8.89378 12.5928 15.4795
Si 10.2313 13.0193 11.0235
Si 12.6673 8.79676 11.2396
Si 11.2342 15.137 14.5738
Si 13.7653 11.1921 14.6519
Si 11.3667 11.0818 12.8676
Si 13.7548 14.9751 12.9618
O 11.2898 14.0344 15.8727
O 13.7301 9.9159 15.8658
O 12.3105 11.5766 14.1088
O 14.6128 15.7452 14.1255
O 11.6558 9.62928 12.2178
O 14.6746 13.8542 12.1695
O 11.4779 12.1201 11.4953
O 13.5755 16.0261 11.6686
O 12.2096 14.348 13.4569
O 14.5445 10.1136 13.509
O 11.8361 16.6651 15.1144
O 14.6456 12.4589 15.2149
324
 Atoms. Timestep: 10500
Si 0.107515 4.45033 16.2316
Si 2.78374 17.0288 16.252
Si 1.26589 6.76072 3.86126
Si 3.45972 2.64884 3.89198
Si 1.1082 2.26305 1.79267
Si 3.6747 6.40132 2.20277
O 1.23957 5.78612 5.17993
O 3.28985 1.6737 5.06862
O 2.13211 2.60357 2.89122
O 4.90852 6.68014 3.13607
O 1.97476 0.782577 1.26035
O 4.04546 5.08744 1.07815
O 0.921886 3.05121 0.308537
O 3.67035 7.84885 1.41268
O 2.37071 5.8135 2.93156
O 4.78965 2.17274 3.01654
O 1.74615 8.17278 4.25596
O 3.98064 4.03509 4.46333
Si 5.15064 4.47825 0.183459
Si 7.47479 17.2689 0.3074
Si 6.42607 6.6315 3.62438
Si 8.64917 2.42558 3.69525
Si 5.98727 2.07049 2.00241
Si 8.83873 6.70187 1.64354
O 6.13826 5.26545 4.53891
O 8.60543 1.39188 4.81845
O 7.23412 2.57238 2.88421
O 10.0155 6.97982 2.75203
O 6.1407 0.654704 1.1726
O 9.0788 5.14885 1.10278
O 5.8922 3.09963 0.531271
O 8.9462 7.78315 0.465476
O 7.41186 6.44742 2.37707
O 9.72401 1.91528 2.5375
O 6.53675 7.94274 4.65918
O 9.24927 3.92289 4.16095
Si 10.3278 4.48601 16.3742
Si 12.4528 0.276012 16.3633
Si 11.3544 6.63911 3.4914
Si 13.7518 2.39615 3.65696
Si 11.1827 2.26485 1.98726
Si 13.7813 6.29742 1.94972
O 11.1844 5.63426 4.74353
O 13.4474 1.49535 5.15275
O 12.2654 2.93028 3.39361
O 14.942 6.83095 2.84669
O 12.0392 1.0244 1.35104
O 14.146 4.95852 1.23916
O 11.2296 3.4655 0.880498
O 13.4151 7.52402 0.913302
O 12.4337 5.70234 2.55821
O 14.4685 1.7794 2.44619
O 11.9889 8.0331 4.11508
O 14.6086 3.70346 4.08647
Si 0.270262 13.2901 0.307204
Si 2.89488 8.69873 0.191183
Si 1.29282 15.3131 3.74483
Si 3.9521 10.9407 3.81063
Si 1.35058 10.8464 1.86853
Si 3.83916 14.8825 1.82983
O 0.894576 14.1384 4.85175
O 3.99968 9.57055 4.86439
O 2.51419 11.1132 2.93368
O 4.86207 15.4285 2.95979
O 1.75686 9.4946 0.926061
O 4.21872 13.3426 1.4649
O 0.936056 11.9908 0.85282
O 3.63525 15.672 0.434813
O 2.25584 14.9362 2.4812
O 5.04559 10.18 2.85277
O 2.20033 16.4565 4.52373
O 4.37321 12.3011 4.5366
Si 5.10604 12.8907 16.3802
Si 7.59061 8.66245 16.3331
Si 6.41642 15.0888 3.64914
Si 8.79185 11.1553 3.76336
Si 6.38229 10.7409 2.0304
Si 8.6896 14.7603 1.95891
O 6.32446 14.0741 5.00793
O 8.53815 9.9181 4.79751
O 7.46717 11.2415 2.90438
O 9.41691 15.4825 3.19937
O 6.76028 9.09044 1.36983
O 9.58963 13.4257 1.60427
O 6.25414 11.6403 0.657219
O 8.53465 15.8969 0.763301
O 7.08059 14.5034 2.4069
O 10.0435 10.6562 2.9403
O 6.77407 16.7028 4.19603
O 8.91425 12.4782 4.83504
Si 10.5658 12.9827 0.292311
Si 12.8179 8.91314 0.193524
Si 11.09 15.443 3.84771
Si 13.8873 10.9081 3.86345
Si 11.3014 10.6841 2.17872
Si 13.6348 15.4893 1.90011
O 11.1457 14.3924 5.06804
O 13.7856 9.39634 4.67939
O 12.5541 10.9149 3.16958
O 14.7018 16.0057 3.14481
O 11.5552 9.24302 1.46624
O 14.2307 13.8317 1.63873
O 11.5042 12.0487 1.1499
O 13.6397 16.3146 0.435286
O 12.2279 15.2147 2.67619
O 14.802 10.4616 2.7792
O 11.5678 16.8882 4.50096
O 13.7726 12.2335 4.78607
Si 0.344428 4.37687 5.53575
Si 2.69959 0.309383 5.75814
Si 1.13466 6.55741 9.15943
Si 3.60853 2.317 9.15695
Si 1.02981 1.99661 7.71053
Si 3.65851 6.28831 7.48416
O 1.20079 5.58627 10.5171
O 3.9253 1.26721 10.343
O 1.94399 2.27067 9.06697
O 4.63307 7.16236 8.54776
O 1.5145 0.61887 6.69347
O 4.61024 5.10241 6.92293
O 1.16247 3.19851 6.31355
O 3.42587 7.1201 6.05033
O 2.20979 5.80384 7.93868
O 4.3535 1.8615 7.83166
O 1.90756 8.0204 9.45454
O 4.14676 3.67613 9.70756
Si 5.12516 4.44488 5.55807
Si 7.74844 17.3262 5.4415
Si 6.05033 6.6213 9.14697
Si 8.66752 2.30621 9.03454
Si 6.06782 2.08621 7.20538
Si 8.48958 6.62978 7.26749
O 6.09796 5.40139 10.1778
O 8.73494 1.11541 10.2249
O 7.14302 2.51167 8.45092
O 9.36027 6.83112 8.81652
O 6.6188 0.710794 6.59891
O 9.34668 5.45651 6.5286
O 5.99208 3.24329 6.02978
O 8.40399 8.01542 6.36208
O 6.8914 6.30984 7.80712
O 9.46756 1.81155 7.80664
O 6.83259 7.8626 9.89747
O 9.03516 3.42475 10.0519
Si 10.2139 4.59762 5.33298
Si 12.5724 0.354311 5.81603
Si 10.8959 6.64752 9.26043
Si 13.1402 2.61907 9.20622
Si 11.0006 2.33989 7.37297
Si 13.3722 6.38706 7.41591
O 10.8799 5.26548 10.0322
O 13.0572 1.41876 10.3587
O 11.7093 2.98822 8.66167
O 14.4498 6.50545 8.63152
O 11.6449 0.911456 6.97784
O 13.9333 4.97131 6.44631
O 10.932 3.4179 6.27287
O 13.4191 7.54251 6.34837
O 11.9713 6.13324 8.12146
O 14.2501 2.30793 8.05606
O 11.588 7.98911 9.7208
O 14.0429 4.07479 9.72373
Si 14.8135 12.9568 5.62654
Si 2.87346 8.54027 5.45714
Si 1.22817 15.3815 9.27073
Si 3.66305 11.0034 9.23975
Si 1.35597 10.7509 7.13252
Si 3.71904 15.038 7.49453
O 0.845629 14.4419 10.4191
O 3.66569 9.91897 10.3922
O 2.4621 11.2054 8.31072
O 4.74962 15.2289 8.76923
O 2.1673 9.54577 6.65433
O 4.30388 13.6731 6.78376
O 1.18715 11.9705 6.01567
O 3.83481 16.3684 6.58735
O 2.2544 14.8489 8.21749
O 4.79207 10.56 8.13336
O 1.92547 16.8079 9.67277
O 4.02512 12.477 9.77716
Si 5.27124 12.9869 5.77869
Si 7.51535 8.92092 5.50018
Si 6.13345 15.0218 9.46898
Si 8.8422 10.9299 9.20299
Si 6.27049 10.688 7.48562
Si 8.44187 14.9471 7.54839
O 6.16631 13.9206 10.6558
O 8.78082 9.52754 10.2666
O 7.37419 10.6423 8.72574
O 9.42941 15.5057 8.86236
O 6.38701 9.58943 6.45023
O 9.42706 13.6762 6.97231
O 6.47488 11.9994 6.59436
O 8.67877 16.1836 6.30215
O 6.94955 14.7228 8.02511
O 9.86293 10.4819 7.93897
O 6.80531 16.293 10.0654
O 9.42763 12.2512 10.0668
Si 10.0881 13.2191 5.53487
Si 12.696 8.56329 5.50156
Si 10.9089 15.2677 9.40894
Si 13.8272 11.0695 9.00296
Si 11.3085 10.9546 7.20605
Si 13.6182 15.0157 7.36911
O 10.9079 14.093 10.5332
O 13.6988 9.502 9.8086
O 12.3812 11.5501 8.29409
O 14.6153 15.7009 8.27084
O 11.7027 9.50359 6.43192
O 13.901 13.6127 6.70414
O 11.0996 12.1844 6.2842
O 13.2556 16.0908 6.10759
O 12.1244 14.8269 8.37022
O 14.7442 10.685 7.58866
O 11.2737 16.5741 10.1037
O 14.2714 12.2959 10.0596
Si 0.114056 4.29961 10.966
Si 2.96724 17.1513 10.9941
Si 1.31781 6.85065 14.442
Si 3.88506 2.4476 14.5825
Si 1.47718 2.04901 12.8309
Si 3.67178 6.43917 12.5534
O 0.936723 5.78143 15.7046
O 3.65368 1.37225 15.8216
O 2.44259 2.64478 13.9085
O 5.07212 6.75697 13.4875
O 1.984 0.638447 12.2166
O 4.06189 5.09352 11.7629
O 1.11215 3.0727 11.4711
O 3.5286 7.61892 11.432
O 2.352 5.92828 13.4396
O 4.76524 1.9303 13.308
O 2.12594 8.16011 15.0881
O 4.51137 3.86697 15.1034
Si 5.20456 4.25671 10.8735
Si 7.88737 17.0686 11.0042
Si 6.33746 6.72457 14.7251
Si 8.7983 2.19022 14.8939
Si 6.38043 2.24045 12.7675
Si 8.93749 6.44561 12.8832
O 6.01629 5.79935 15.9526
O 8.6235 1.06752 16.1132
O 7.43759 2.53542 14.0008
O 10.2407 7.31045 13.5696
O 7.0698 0.944348 11.9751
O 9.21801 4.81413 12.3789
O 6.34934 3.39189 11.6243
O 8.73064 7.25818 11.3266
O 7.67743 6.29492 14.0367
O 10.0791 1.80864 13.9369
O 6.33259 8.19395 15.3058
O 8.96384 3.69758 15.6243
Si 10.0478 4.20002 11.0327
Si 12.5354 17.1544 10.9433
Si 11.4747 6.89307 14.6892
Si 13.7162 2.43658 14.5005
Si 11.3716 2.02765 12.765
Si 13.8088 6.40538 12.7163
O 11.2363 5.68562 15.7392
O 13.1814 1.5385 15.721
O 12.6422 2.74758 13.3503
O 14.6367 7.14279 13.8303
O 11.3505 0.63171 11.9963
O 14.2222 4.93186 12.2714
O 10.951 3.15243 11.6185
O 13.5085 7.13229 11.3143
O 12.3611 6.23311 13.5333
O 14.7842 1.84506 13.6312
O 11.7659 8.31906 15.4391
O 13.8444 3.95727 15.1907
Si 0.382109 13.0454 11.1551
Si 2.61166 8.69349 10.7565
Si 1.28972 15.3211 14.4498
Si 4.01396 10.7663 14.6226
Si 1.53437 10.7488 12.7027
Si 3.87915 14.9224 12.9309
O 1.13421 14.4461 15.9021
O 3.93375 9.80687 15.8084
O 2.53084 10.8305 13.8126
O 4.57716 16.0203 14.0483
O 1.59512 9.53659 11.7096
O 4.44819 13.423 12.5393
O 1.54941 12.1011 11.8072
O 3.81106 15.9226 11.5538
O 2.39393 14.6823 13.4598
O 5.00698 9.97694 13.4909
O 1.76061 16.7385 15.061
O 4.5949 12.1688 15.0195
Si 5.13922 12.7611 11.1467
Si 7.82763 8.49669 11.018
Si 5.9196 15.4365 14.4847
Si 8.8607 10.8426 14.7325
Si 6.4201 10.6064 12.9448
Si 8.66621 14.7994 12.8729
O 5.31169 14.3645 15.5726
O 8.7042 9.91624 16.0928
O 7.30926 11.357 14.2976
O 9.69176 15.1386 14.0114
O 7.14402 9.19216 12.2003
O 9.16743 13.3296 12.4884
O 5.82658 11.5921 11.626
O 8.77954 15.8445 11.6185
O 7.07157 15.0154 13.3174
O 9.76034 10.4381 13.6132
O 6.68925 16.506 15.3316
O 9.64811 12.4123 15.281
Si 10.1441 12.9421 11.3198
Si 12.7635 8.54917 10.8008
Si 11.1875 15.2726 14.5363
Si 13.7671 11.4167 14.5912
Si 11.4819 10.704 12.8836
Si 13.6649 15.0636 12.656
O 11.2027 14.4014 15.9459
O 13.8653 9.91492 15.6867
O 12.0924 11.288 14.3086
O 14.7558 15.4976 13.6552
O 12.1681 9.51072 12.0087
O 14.1137 13.5223 12.2424
O 11.2975 11.9644 11.7988
O 13.7586 16.2659 11.4555
O 12.089 14.8415 13.2667
O 14.8695 11.0654 13.2867
O 11.4389 16.765 15.107
O 14.0284 12.7659 15.4076
324
 Atoms. Timestep: 11000
Si 0.517623 4.4892 0.11795
Si 2.79466 17.2655 16.1777
Si 1.22694 6.84189 3.94246
Si 3.9735 2.03504 3.80526
Si 1.59911 2.15147 1.68234
Si 3.65239 6.38638 1.96741
O 1.22923 5.86083 5.27381
O 3.5711 1.43873 5.13425
O 2.66867 1.90296 2.81439
O 5.2164 6.43847 2.7934
O 1.43019 0.810696 0.619777
O 3.98306 4.87817 1.02379
O 1.82236 3.61001 0.865382
O 3.64778 7.64888 0.946754
O 2.29091 6.10627 2.79734
O 5.22428 1.16924 3.1068
O 1.74512 8.21907 4.3004
O 4.51764 3.57014 4.19988
Si 5.20953 4.45642 0.147551
Si 7.66665 17.3115 0.0527189
Si 6.26731 6.65778 3.99295
Si 8.82127 2.45045 3.91249
Si 6.31214 2.094 2.17766
Si 8.73358 6.33422 2.20514
O 5.80243 5.70947 5.23087
O 8.64648 1.38914 5.12072
O 7.49197 2.5547 3.14492
O 9.73405 7.28092 3.04403
O 6.62167 0.877272 1.04561
O 9.29344 5.03098 1.46471
O 6.00695 3.38072 0.97563
O 8.21903 7.42248 1.14781
O 7.68588 5.84235 3.41617
O 10.0793 1.96853 2.89128
O 6.6712 8.22503 4.40725
O 9.38876 3.89884 4.17148
Si 10.0437 4.47257 16.4552
Si 12.7353 17.1665 16.2887
Si 11.162 7.12119 3.57145
Si 13.9377 2.58931 3.63334
Si 11.4204 2.0862 2.02655
Si 13.9164 6.53832 1.96729
O 11.0057 5.88983 4.77353
O 13.8884 1.486 4.89375
O 12.6673 2.92884 2.76444
O 14.6318 6.9801 3.249
O 11.9637 0.685848 1.39469
O 14.477 5.06109 1.4361
O 10.9275 3.15227 0.647506
O 13.9757 7.70382 0.797298
O 12.2134 6.45732 2.26666
O 0.378013 2.06722 2.83817
O 11.6849 8.56069 4.03984
O 14.2351 3.96137 4.33377
Si 0.10888 12.9528 0.253701
Si 2.78919 8.78782 0.307426
Si 1.41719 15.3017 3.59521
Si 3.68932 11.2531 3.76993
Si 1.34777 10.937 2.1435
Si 3.91025 15.1761 1.87126
O 1.67258 14.4191 5.07322
O 3.61246 9.87878 4.687
O 2.04564 11.6164 3.33182
O 5.04237 15.7042 2.81592
O 2.10337 9.43686 1.75171
O 4.18328 13.7643 1.14712
O 1.39304 12.084 0.91621
O 3.58583 16.4358 0.957107
O 2.50421 14.8418 2.51223
O 4.8713 10.5479 2.93089
O 2.03344 16.8585 4.17119
O 4.44051 12.6252 4.40445
Si 5.40484 12.9999 0.292225
Si 7.51269 8.60054 0.303957
Si 6.30268 15.5033 3.83155
Si 8.77031 11.1832 3.68039
Si 6.25352 10.7068 2.26281
Si 8.73456 15.0901 1.80448
O 5.6422 14.9408 5.20862
O 8.74414 10.0599 5.0999
O 7.15569 11.3581 3.46104
O 9.62594 15.8304 2.89289
O 6.88909 9.38502 1.58632
O 9.42617 13.6262 1.37818
O 6.16582 11.7384 1.06452
O 8.70977 16.1715 0.604152
O 7.37754 14.7898 2.77145
O 9.75328 10.6879 2.4017
O 6.91898 16.9177 4.34738
O 9.74574 12.4895 4.2183
Si 10.2021 12.7749 16.3867
Si 12.6431 8.49354 0.313958
Si 11.0136 15.5473 3.69757
Si 13.8068 11.0117 3.75589
Si 11.3766 10.7717 1.95251
Si 13.5307 14.8731 1.98868
O 11.064 14.6593 5.1132
O 13.8846 9.8517 4.97163
O 12.254 11.3325 3.28315
O 14.7445 15.4174 2.94717
O 11.8617 9.27811 1.46715
O 13.8734 13.4099 1.39272
O 11.3794 11.9437 0.741486
O 13.4183 15.8471 0.670348
O 12.2663 14.6578 3.04132
O 14.601 10.6204 2.444
O 11.8548 17.0805 4.07074
O 14.5011 12.5995 4.32112
Si 0.222835 4.43329 5.67596
Si 2.38441 0.273706 5.60203
Si 1.08753 6.8169 9.06964
Si 3.55615 2.16695 9.21788
Si 1.12647 2.27276 7.52687
Si 3.86013 6.47291 7.27916
O 0.783013 5.52856 9.91324
O 3.58126 0.846985 10.1048
O 2.04954 2.51198 8.66885
O 5.07808 7.03674 8.29386
O 1.36131 0.904444 6.5487
O 3.87702 4.88554 6.86877
O 1.23967 3.36758 6.06011
O 3.79335 7.58745 6.03272
O 2.6241 6.75151 8.34935
O 4.48875 1.72374 8.02416
O 1.26841 7.99803 10.1203
O 4.22087 3.60516 9.95213
Si 4.96721 4.36491 5.6194
Si 7.80952 17.2307 5.56492
Si 6.34006 6.58055 9.06244
Si 8.53 2.38433 9.33893
Si 6.14295 1.8771 7.321
Si 8.40379 6.2575 7.18041
O 5.88947 5.77939 10.4958
O 8.82877 0.911602 10.0372
O 7.12047 2.12081 8.57367
O 9.93995 6.47431 7.99269
O 6.51813 0.496163 6.57179
O 8.98049 5.07758 6.33336
O 6.03675 3.23359 6.44365
O 8.40621 7.72682 6.33942
O 7.26524 5.60353 8.23024
O 9.56091 2.45197 8.05083
O 7.09308 8.01734 9.58205
O 8.51419 3.83483 10.0441
Si 10.134 4.67438 5.243
Si 12.6841 0.471906 5.46906
Si 11.0979 6.31401 9.16407
Si 13.3704 2.54072 9.23711
Si 11.0312 2.52907 7.16649
Si 13.5833 6.35716 7.33161
O 10.9361 5.15828 10.1087
O 13.503 1.33751 10.4804
O 11.9468 2.5229 8.58507
O 14.6821 7.46819 8.03642
O 11.6274 1.00444 6.4921
O 14.0817 4.93896 6.66414
O 11.3141 3.61731 5.99542
O 13.2508 7.32632 6.09971
O 12.6134 6.0393 8.52724
O 14.4864 2.42551 8.09658
O 11.4413 7.97697 9.59857
O 13.7417 3.97221 9.9752
Si 0.671834 13.0873 5.56184
Si 2.77215 8.84824 5.56593
Si 0.995426 15.1609 9.3132
Si 3.69021 11.0421 9.35892
Si 1.37563 10.7287 7.38795
Si 3.38598 15.2 7.37882
O 1.1318 13.6893 10.1321
O 3.80033 9.44905 9.88269
O 2.13359 11.2826 8.70941
O 4.47939 15.2941 8.66418
O 2.0714 9.24572 6.93219
O 3.79072 13.5868 6.85109
O 1.57188 12.0974 6.51181
O 3.4944 16.3046 6.31076
O 1.87458 15.0975 7.98454
O 4.99225 11.196 8.37857
O 1.64138 16.3763 10.0886
O 3.78452 12.1834 10.5177
Si 5.01105 13.4233 5.78564
Si 7.72929 9.00066 5.66345
Si 5.9788 15.152 9.23598
Si 8.88323 10.8899 8.84295
Si 6.16755 11.2388 7.31538
Si 8.51365 14.8368 7.42218
O 6.18828 13.7699 9.98381
O 8.57779 9.90548 10.1626
O 7.72765 11.4893 7.95915
O 9.63943 14.9681 8.6043
O 6.41487 9.65431 6.67867
O 8.85294 13.6053 6.46195
O 6.15091 12.3901 6.3041
O 8.6831 16.3217 6.53677
O 7.04606 15.1371 7.96405
O 9.86067 10.1963 7.89358
O 6.34589 16.3515 10.2558
O 9.49637 12.3089 9.39212
Si 10.2119 13.2387 5.60173
Si 12.7442 8.78044 5.36178
Si 11.2034 15.0736 9.11047
Si 13.7 10.6354 9.16171
Si 11.1915 10.7053 7.19364
Si 13.7648 15.0337 7.17308
O 11.2624 14.0325 10.2436
O 13.6567 9.40628 10.2792
O 12.4523 11.085 8.24944
O 14.3837 15.3702 8.58169
O 11.7128 9.35583 6.54773
O 14.3578 13.6249 6.62087
O 10.9546 12.1102 6.48422
O 13.5743 16.2838 5.86721
O 12.1982 14.8158 7.81753
O 14.8228 10.279 8.17797
O 11.6201 16.5901 9.64724
O 13.9805 11.8562 10.1589
Si 14.8498 4.5383 11.0039
Si 2.71508 16.9568 11.1367
Si 1.42416 6.99009 14.5848
Si 3.97412 2.52349 14.3353
Si 1.38766 2.3452 12.6841
Si 3.82476 6.66914 12.8023
O 1.44739 5.72763 15.7077
O 3.68621 1.21856 15.4187
O 2.56862 2.91797 13.5284
O 4.56982 7.23732 14.0832
O 1.70804 0.922227 11.9821
O 4.31379 5.26948 12.2046
O 1.10606 3.51397 11.6039
O 3.44541 7.34411 11.3787
O 2.39849 6.28454 13.5467
O 4.7146 1.72018 13.2342
O 1.87592 8.26717 15.4104
O 4.74429 3.56105 15.1049
Si 5.09075 4.51422 10.9934
Si 7.51075 17.0972 10.8716
Si 6.08059 6.55295 14.6682
Si 8.47084 2.54361 14.5024
Si 6.14458 2.24625 12.6581
Si 8.63391 6.30816 12.5915
O 6.10248 5.6059 15.8759
O 8.3595 1.37379 15.74
O 7.08948 2.7984 13.7801
O 9.57226 6.9242 13.8602
O 6.66776 0.98098 11.8552
O 9.10305 4.74906 12.3234
O 6.15561 3.38629 11.5069
O 8.6697 7.51224 11.3057
O 6.95817 6.1564 13.3534
O 9.61885 2.13572 13.3563
O 6.48495 8.01608 15.4377
O 8.96735 3.82889 15.4372
Si 9.87186 4.1899 10.9382
Si 12.4269 17.2942 10.9089
Si 11.0026 6.7582 14.6045
Si 13.7984 2.40328 14.4026
Si 11.125 2.02906 12.7571
Si 13.6015 6.58917 13.0691
O 10.9885 5.73183 15.9435
O 13.6334 1.20112 15.7
O 12.1553 2.53028 14.0067
O 14.7115 7.08405 14.1469
O 11.3698 0.706962 12.0481
O 14.2722 5.27108 12.323
O 10.8433 3.02143 11.3918
O 13.3633 7.4911 11.7727
O 12.1524 6.22353 13.5963
O 14.5236 1.91628 13.127
O 11.6131 8.04373 15.6161
O 14.326 3.76577 15.498
Si 15.035 12.7583 11.0859
Si 2.64209 8.59694 10.8508
Si 1.17338 15.118 14.2828
Si 4.13369 10.9572 14.8034
Si 1.60845 10.7395 13.0437
Si 3.8028 14.5949 13.0654
O 0.797481 14.141 15.654
O 4.0163 9.82092 15.9824
O 2.51209 11.4891 14.438
O 4.64405 14.9503 14.4812
O 2.34457 9.54239 12.3165
O 4.84896 13.5636 12.4245
O 1.09798 12.1522 12.239
O 3.50737 15.9058 12.0254
O 2.27493 14.2649 13.5749
O 4.98106 10.4503 13.4767
O 1.89317 16.2145 15.1508
O 5.04062 12.3182 15.1703
Si 5.31405 12.6542 11.0227
Si 7.79244 8.79255 10.8426
Si 6.38323 14.9167 14.735
Si 8.81885 10.7074 14.6025
Si 6.31813 10.5281 12.6836
Si 8.69974 14.9655 12.7619
O 6.70003 14.0433 16.0516
O 8.62256 9.52948 15.7373
O 7.53192 10.9468 13.6408
O 9.5464 15.4249 14.1433
O 6.84947 9.13937 11.9306
O 9.23551 13.5626 11.9397
O 6.39938 11.665 11.3112
O 8.66467 16.2942 11.6763
O 7.36271 14.4049 13.4839
O 9.83621 9.92304 13.7899
O 6.64744 16.409 15.2025
O 9.59277 12.0987 15.1602
Si 10.2816 12.8766 10.7348
Si 12.4763 8.48404 10.869
Si 11.1167 15.2757 14.7527
Si 13.7965 10.7525 14.748
Si 11.1859 10.4931 12.7686
Si 13.4503 14.9242 12.6028
O 11.0497 14.2262 15.9385
O 13.7039 9.67375 15.9315
O 12.3867 10.9612 13.7951
O 14.5309 15.3337 13.8197
O 11.3555 9.0651 11.9224
O 13.8434 13.4063 12.1687
O 10.5627 11.7353 11.8869
O 13.4122 16.1767 11.5481
O 11.9665 14.7909 13.3483
O 0.145401 10.3519 13.8153
O 11.6357 16.7054 15.2268
O 14.2761 12.1108 15.3795
324
 Atoms. Timestep: 11500
Si 0.0729593 4.34011 0.135006
Si 2.7308 0.282637 16.3282
Si 1.34627 6.96507 3.56553
Si 3.84267 2.52006 3.66831
Si 1.24065 2.21241 1.86446
Si 3.83087 6.52882 1.95764
O 1.2595 5.88497 4.83008
O 3.45506 1.16802 4.4689
O 2.46844 2.72483 2.83904
O 4.74192 7.20564 3.00423
O 1.78153 0.782845 1.37519
O 4.58216 5.09983 1.64037
O 1.15261 3.17701 0.505796
O 3.63722 7.3037 0.461264
O 2.28566 6.53892 2.3684
O 5.32505 2.30559 3.0353
O 1.89202 8.21225 4.26423
O 4.29088 3.81957 4.29707
Si 5.11904 4.49936 0.291497
Si 7.96544 0.233892 16.3266
Si 6.14734 6.85216 3.76185
Si 9.26154 2.28418 3.50017
Si 6.60063 2.36532 1.86851
Si 8.57727 6.22546 1.99733
O 5.94837 5.85822 5.0923
O 8.56059 1.50889 4.81287
O 8.20768 3.0307 2.41487
O 9.67619 6.48767 3.18241
O 6.96365 0.875233 1.21095
O 9.18568 4.94868 1.2608
O 5.88402 3.10764 0.600691
O 8.22067 7.42837 1.0352
O 7.16235 5.94063 2.84963
O 10.2345 1.18013 2.82163
O 6.87389 8.1391 4.32013
O 10.0252 3.49168 4.298
Si 10.0068 4.14053 0.26013
Si 12.9792 16.9735 16.2523
Si 11.1757 6.71285 3.7912
Si 13.5892 2.43723 3.72703
Si 11.4717 1.69602 1.83078
Si 13.6213 6.27422 2.05601
O 11.1572 5.81097 5.28896
O 13.3643 1.30595 4.74359
O 12.4827 2.56286 2.62066
O 14.6651 7.14285 2.94742
O 11.8706 0.338469 1.17953
O 13.9867 4.68353 1.57438
O 10.8695 2.79005 0.670482
O 13.5047 7.3165 0.798965
O 12.2962 6.24699 2.8073
O 14.8529 1.93144 2.62356
O 11.5325 8.14116 4.60302
O 14.1071 3.80865 4.46605
Si 0.519999 12.8206 16.2965
Si 2.74442 8.56491 16.3371
Si 1.24993 15.3137 3.78683
Si 3.66292 11.2125 3.62879
Si 1.28931 10.4601 1.91285
Si 3.78503 15.196 2.02554
O 1.29795 14.1817 4.93877
O 3.50434 10.1468 4.91062
O 1.92637 11.0462 3.1223
O 4.8886 15.9208 2.85004
O 2.04453 9.10676 1.40394
O 4.57056 13.818 1.51037
O 1.45596 11.633 0.770857
O 3.6708 16.1812 0.703506
O 2.3572 14.9306 2.64668
O 4.81159 11.0238 2.56362
O 1.43772 16.7719 4.55105
O 4.23484 12.7081 4.35287
Si 5.3753 13.2678 16.3845
Si 7.47113 8.58858 0.112572
Si 6.25848 15.4737 3.50127
Si 8.70159 10.3895 3.85066
Si 6.33924 10.8483 1.8731
Si 8.91987 15.1929 1.87723
O 6.29641 14.3377 4.76744
O 8.98309 9.32109 5.22922
O 7.30374 10.6485 3.25974
O 9.69001 15.5896 3.38198
O 6.41679 9.54427 0.971015
O 9.70112 13.9487 1.21416
O 6.37681 12.0245 0.776458
O 8.71263 16.1106 0.630744
O 7.41524 14.7502 2.32615
O 9.75324 10.0033 2.65411
O 7.03426 16.8706 4.22619
O 9.06546 11.9207 4.48928
Si 9.93694 12.9293 16.2956
Si 12.5854 8.45563 0.120884
Si 11.3121 15.0207 3.63886
Si 13.6981 11.1909 3.58993
Si 11.1423 10.7109 2.08511
Si 13.7501 14.8126 1.7569
O 11.1081 13.5298 4.40144
O 13.6751 10.0582 4.95033
O 12.2224 11.1738 3.12488
O 14.516 15.2279 2.9946
O 11.9111 9.54282 1.18572
O 14.1355 13.5393 0.877801
O 10.5583 11.6314 0.818646
O 13.8062 15.8361 0.675538
O 12.1977 14.4071 2.4393
O 14.5617 10.4728 2.33827
O 12.1328 16.2386 4.63789
O 14.1659 12.6572 4.11063
Si 0.413955 4.56136 5.58533
Si 2.53848 0.189221 5.52766
Si 1.31908 6.82706 9.33695
Si 3.56089 2.35543 9.05866
Si 1.25707 2.15992 7.4562
Si 3.80688 6.68106 7.32495
O 0.971979 5.6828 10.3322
O 3.5337 1.24097 10.251
O 1.95772 2.86834 8.62263
O 5.40775 6.86134 7.79726
O 1.96023 0.724472 6.87648
O 3.96904 5.26258 6.63248
O 1.36666 3.2833 6.00124
O 3.77068 7.83746 6.24567
O 2.68107 6.68484 8.3804
O 4.90983 1.96305 8.25405
O 1.74752 8.00596 10.338
O 3.98847 3.59937 10.0146
Si 4.95239 4.66036 5.54943
Si 7.63466 0.392002 5.63324
Si 6.3201 6.42512 9.02539
Si 8.63971 2.29483 9.285
Si 6.24549 2.4518 7.33467
Si 8.70997 6.36852 7.41038
O 5.47281 5.69531 10.1699
O 8.5713 0.842088 9.77666
O 7.30239 2.92935 8.38801
O 9.92709 7.25676 7.96325
O 6.56773 1.06919 6.58055
O 8.91698 5.0238 6.4964
O 5.80774 3.58673 6.45018
O 7.84172 7.35203 6.59972
O 7.70737 5.9116 8.67793
O 9.64854 2.13502 7.97222
O 6.68952 7.84121 10.0227
O 9.32464 3.4546 10.3223
Si 10.3119 4.53985 5.64783
Si 12.7373 0.201623 5.60557
Si 11.1476 6.65017 8.93463
Si 13.5641 2.24202 9.23877
Si 11.1006 2.2305 7.40224
Si 13.9416 6.90864 7.36876
O 10.9321 5.18194 9.8321
O 13.6734 0.982542 10.231
O 12.1405 2.31451 8.70989
O 14.9387 7.46484 8.53742
O 11.4801 1.13527 6.28351
O 14.6624 5.24554 6.82183
O 11.1254 3.53979 6.57661
O 13.7211 7.87488 6.1028
O 12.5878 6.42629 8.12954
O 14.5092 1.67334 7.83041
O 11.4216 7.69883 10.1747
O 14.2131 3.63972 9.79918
Si 0.0999646 13.241 5.48454
Si 2.65794 8.95283 5.68407
Si 1.25483 15.293 9.36105
Si 3.74523 10.8744 9.00481
Si 0.9242 10.8892 7.32922
Si 3.64945 15.0521 7.24152
O 1.15032 14.071 10.6062
O 3.83845 9.42387 9.75422
O 2.11788 11.4118 8.64565
O 4.79915 15.7481 8.27935
O 1.69964 9.36456 6.84531
O 4.5288 13.6381 6.78
O 0.895025 11.942 6.11877
O 3.48238 16.0611 5.94322
O 2.43608 14.7346 8.2794
O 4.54034 10.6192 7.68646
O 1.63366 16.8695 9.91939
O 4.62987 11.8556 10.13
Si 5.33918 13.1817 5.49639
Si 7.62278 8.65294 5.72906
Si 6.20608 15.2662 9.00632
Si 8.41535 11.0257 9.21207
Si 6.1356 10.9614 7.28146
Si 8.58282 15.1834 7.32923
O 5.96788 14.2328 10.1828
O 8.56718 9.7512 10.6057
O 7.05837 11.5443 8.68205
O 9.45738 15.324 8.73769
O 6.82977 9.64246 6.82105
O 9.20947 13.8976 6.3939
O 6.40222 12.1537 6.1703
O 8.59975 16.4688 6.40723
O 6.99847 14.7817 7.63193
O 9.53322 10.477 8.09408
O 6.31076 16.7199 9.96095
O 8.90846 12.4796 10.0497
Si 10.0706 12.8031 5.48442
Si 12.6444 8.91093 5.5287
Si 11.1222 15.3338 9.04067
Si 13.303 10.749 9.19543
Si 11.0842 10.685 7.46808
Si 13.5773 15.3365 7.49496
O 10.9626 14.1752 10.1661
O 13.2962 9.5367 10.1871
O 12.0326 11.4097 8.52156
O 14.622 15.3459 8.8381
O 11.7761 9.42336 6.86405
O 14.134 13.9819 6.67102
O 11.0203 11.7898 6.22583
O 13.7198 16.8157 6.74045
O 12.1094 14.9635 7.79627
O 14.3153 10.3817 7.92708
O 11.4454 16.787 9.76277
O 13.9038 12.0567 9.87542
Si 0.357376 4.32814 10.9494
Si 2.58388 0.214206 11.1024
Si 0.998498 6.7094 14.7702
Si 3.6395 2.61485 14.6425
Si 1.17635 2.23363 12.882
Si 3.70193 6.32089 13.0694
O 0.874697 5.59961 15.9002
O 3.73828 1.23292 15.5824
O 2.14232 3.0498 13.9103
O 4.48991 6.7569 14.2913
O 1.73122 0.704835 12.5916
O 3.93738 4.97294 12.2786
O 1.21683 3.24833 11.6363
O 4.01816 7.34792 11.6698
O 2.0866 5.96328 13.7675
O 4.78843 2.12775 13.5225
O 1.6225 8.15617 15.1826
O 3.91845 4.00934 15.5105
Si 4.89479 4.47139 10.9901
Si 7.62445 17.125 10.7605
Si 6.04415 6.6306 14.6093
Si 8.74647 2.35404 14.7226
Si 6.26287 2.30427 12.6758
Si 8.72033 6.39022 12.929
O 5.98074 5.46437 15.6671
O 9.04254 1.22636 15.9576
O 7.17595 2.31417 14.2388
O 9.58556 6.82249 14.1754
O 6.91692 0.968063 11.8564
O 9.3089 5.0698 12.2192
O 6.09107 3.62008 11.8233
O 8.83602 7.78335 11.9449
O 7.1142 6.29065 13.4715
O 9.74663 2.13262 13.5845
O 6.56399 7.98534 15.2122
O 9.13753 3.80077 15.2157
Si 10.2726 4.48133 11.0996
Si 12.6557 17.2016 10.9688
Si 11.0753 6.43707 14.6988
Si 13.6313 2.34809 14.5533
Si 11.1292 2.2245 12.9088
Si 13.5876 6.37386 12.922
O 11.0478 5.29067 15.9868
O 13.8623 1.10895 15.6802
O 11.9414 2.43718 14.3246
O 14.3994 7.04544 14.2788
O 11.7306 0.921756 12.1935
O 14.41 5.05183 12.47
O 11.371 3.69716 11.9594
O 13.703 7.7287 11.8722
O 12.1363 5.9143 13.5488
O 14.3239 1.85654 13.1053
O 11.4372 7.96251 15.4037
O 13.9321 3.85874 15.4555
Si 0.204324 12.6396 10.9073
Si 3.2751 8.58806 11.0382
Si 1.28864 15.3859 14.5037
Si 3.79315 10.9458 14.8448
Si 1.54718 10.4647 12.8372
Si 3.87348 15.0803 12.8542
O 1.31014 14.0812 15.7699
O 3.77225 9.68765 15.7463
O 2.20321 11.3356 13.9669
O 4.98717 15.7472 13.7898
O 2.8105 9.64692 12.2319
O 4.424 13.7215 12.1357
O 1.05135 11.4836 11.4927
O 3.50621 16.2959 11.6642
O 2.46412 14.7683 13.665
O 4.69359 10.7033 13.6033
O 1.56507 16.8471 15.1591
O 4.385 12.4785 15.3742
Si 5.29009 13.0335 11.0126
Si 7.56119 8.54551 11.0814
Si 6.47654 15.5809 14.398
Si 8.68644 10.9482 14.8482
Si 6.14482 10.7563 12.8742
Si 8.68115 15.0516 12.738
O 6.43731 14.3413 15.5876
O 8.73033 9.67331 15.942
O 7.37237 10.4195 13.9823
O 9.64249 15.4473 14.122
O 6.46194 9.11577 12.0811
O 9.47946 13.714 12.3327
O 6.51226 12.1036 12.005
O 8.77255 16.1294 11.4726
O 7.19268 14.9623 13.0733
O 10.0841 11.1467 13.9613
O 7.14475 16.8518 14.9853
O 8.60862 12.4643 15.5769
Si 10.1871 12.8568 11.1034
Si 12.379 8.61541 11.1443
Si 11.1884 14.8724 14.5376
Si 13.9362 10.5932 14.529
Si 11.3219 10.8183 13.0043
Si 13.6514 14.8521 12.7533
O 10.8626 13.4869 15.1767
O 13.5414 9.53732 15.6593
O 12.633 11.0968 13.7488
O 14.6465 15.5451 13.938
O 11.5646 9.24255 12.4834
O 14.1771 13.4612 12.2587
O 11.2147 11.755 11.6409
O 13.6734 15.9647 11.4867
O 12.2549 14.7429 13.3464
O 0.199894 9.97012 13.3688
O 11.9105 15.9631 15.4473
O 14.4684 11.9917 15.0843
324
 Atoms. Timestep: 12000
Si 0.213737 4.19523 0.190708
Si 2.87733 17.1829 0.230434
Si 1.37005 6.61337 3.46138
Si 3.80384 2.50437 3.61717
Si 1.26415 2.06025 2.13194
Si 3.76444 6.55683 1.66549
O 0.919259 5.58188 4.69683
O 3.5172 1.15391 4.42617
O 2.59616 3.01234 2.68693
O 4.57118 7.18921 3.0166
O 1.86311 0.746679 1.5071
O 4.44139 5.0612 1.31087
O 0.947114 3.01534 0.73608
O 3.61717 7.89974 0.659886
O 2.11677 6.21097 2.06641
O 4.91612 1.98996 2.4336
O 2.11417 7.57809 4.43002
O 3.99751 3.78157 4.65156
Si 5.41942 4.45304 0.127049
Si 7.72172 17.2446 0.180857
Si 6.17966 6.64414 3.46628
Si 8.70819 2.54326 3.9303
Si 6.41933 2.18554 2.07855
Si 8.93145 6.67409 1.9833
O 5.97029 5.25241 4.50525
O 8.63239 1.38601 4.94419
O 7.21373 2.69076 3.3788
O 9.69914 6.89969 3.38201
O 6.97177 0.755029 1.54902
O 9.39761 5.2935 1.25886
O 6.28072 3.19494 0.826563
O 9.00062 7.82383 0.700996
O 7.30431 6.46953 2.44292
O 9.59808 2.17622 2.67448
O 6.54894 7.8157 4.54151
O 9.17727 4.11714 4.44306
Si 10.231 4.58113 16.3295
Si 12.8935 0.196088 0.174115
Si 11.2303 6.4571 3.83927
Si 13.5765 2.44469 3.96186
Si 11.0348 2.29032 1.92855
Si 13.6522 6.26223 1.88755
O 11.0927 5.54302 5.27948
O 13.3155 1.08614 4.72093
O 12.442 2.723 2.75936
O 14.6905 7.04184 3.09642
O 11.7446 0.990389 1.21453
O 14.2907 4.8842 1.38045
O 10.9792 3.38315 0.767297
O 13.6659 7.49476 0.704159
O 12.0046 6.10461 2.43083
O 0.148767 1.97829 3.31037
O 11.7031 8.0217 4.45847
O 13.8423 3.67496 4.81943
Si 0.409919 13.0224 16.3547
Si 2.46079 8.86205 0.160204
Si 1.31129 15.085 3.71824
Si 3.8578 10.7066 3.7213
Si 1.37418 10.8447 2.0836
Si 3.74226 15.0503 2.00825
O 1.28612 13.7553 4.78548
O 3.56593 9.62129 4.72944
O 2.29169 11.235 3.22818
O 4.9129 15.7342 3.00179
O 1.67224 9.35661 1.4602
O 4.33269 13.5033 1.85752
O 1.24413 11.6953 0.771802
O 3.70519 15.8852 0.618847
O 2.18842 14.621 2.28007
O 4.59767 10.101 2.36485
O 1.95345 16.4735 4.51302
O 4.42509 12.2572 4.33264
Si 4.8815 12.7754 0.402983
Si 7.77771 8.61219 16.3195
Si 6.22703 15.4665 3.80189
Si 8.67258 10.7672 3.70899
Si 6.21444 10.5076 1.82109
Si 8.86105 15.1052 2.10836
O 6.16301 14.3051 4.94771
O 8.44981 9.65612 4.88493
O 7.29955 10.954 3.05722
O 9.92916 15.6822 3.24655
O 6.56733 9.05025 1.21187
O 9.24299 13.6198 1.53904
O 5.98614 11.5339 0.716739
O 8.81146 16.1644 0.680285
O 7.39385 15.0756 2.65701
O 9.88862 10.6212 2.69653
O 6.63786 16.925 4.49562
O 9.04898 12.3002 4.41281
Si 10.2138 12.9598 0.256885
Si 12.6264 8.67658 16.239
Si 11.3177 15.0218 3.62534
Si 13.6761 10.9353 3.6908
Si 11.2451 10.5952 1.89118
Si 13.7928 14.9536 1.87664
O 11.1324 13.6409 4.45377
O 13.1719 9.94916 5.01972
O 12.4597 10.9467 2.85652
O 14.6014 15.2862 3.09341
O 11.8146 9.09479 1.29565
O 14.2912 13.6011 1.28004
O 11.0235 11.6304 0.65614
O 13.7917 16.3584 0.936169
O 12.2729 14.7137 2.45915
O 14.9071 10.3108 2.87168
O 11.9958 16.0485 4.63887
O 14.1251 12.2857 4.3549
Si 0.263847 4.39949 5.60048
Si 2.91692 0.16554 5.48846
Si 1.22249 6.96079 9.50219
Si 3.6457 2.70624 9.23856
Si 1.45767 2.23994 7.19736
Si 3.76516 6.73247 7.66615
O 0.991799 5.57786 10.4164
O 3.54307 1.33462 10.1378
O 2.20254 2.99013 8.28086
O 5.26623 6.84037 8.36846
O 1.91455 0.696388 6.67303
O 3.98552 5.24381 6.76766
O 1.26894 3.21741 5.8961
O 3.20345 7.87308 6.55857
O 2.73965 6.55991 8.89748
O 4.6423 2.04402 8.0172
O 1.38598 8.27979 10.4028
O 4.3875 3.99142 9.8141
Si 4.97793 4.51565 5.61386
Si 7.57573 0.280974 5.67971
Si 6.54549 6.62968 9.43867
Si 8.68502 2.37168 9.32514
Si 6.14283 2.39125 7.45109
Si 8.75096 6.25276 7.43153
O 6.36726 5.7615 10.7924
O 8.43279 1.2327 10.5515
O 7.08896 2.82063 8.73694
O 9.77779 6.83368 8.50792
O 6.74239 0.903338 6.90932
O 9.44673 4.90381 6.91817
O 6.15148 3.56871 6.39201
O 8.48604 7.35294 6.31802
O 7.34082 5.84579 8.13343
O 9.57496 1.84379 7.86485
O 7.18613 8.00098 9.91904
O 9.20869 4.01388 9.66885
Si 10.2662 4.29399 5.73042
Si 12.7907 17.0487 5.70416
Si 11.333 6.76179 9.06781
Si 13.6848 2.18007 9.00763
Si 11.0696 1.96834 7.42869
Si 13.8313 6.50239 7.37922
O 11.3503 5.6178 10.2916
O 13.8895 0.787738 9.91438
O 12.1427 2.36449 8.60497
O 0.349182 6.77606 8.1741
O 11.5359 0.399473 6.72976
O 14.1169 4.97685 6.65372
O 11.1995 2.93508 6.09118
O 13.5969 7.80404 6.32059
O 12.564 6.30061 8.26954
O 14.6758 1.81243 7.70041
O 11.5454 8.2727 9.71576
O 14.2551 3.61761 9.65519
Si 14.8938 12.8754 5.56587
Si 2.40517 8.75949 5.54519
Si 1.4496 15.3055 8.71529
Si 3.53289 10.8831 9.15254
Si 1.0167 10.6659 7.43041
Si 3.99502 15.08 7.16108
O 1.55902 14.1067 10.0523
O 3.78329 9.82208 10.4203
O 2.19365 10.3857 8.43866
O 4.85531 15.8537 8.33246
O 1.32247 9.7841 5.98591
O 4.50529 13.6721 6.45112
O 0.89596 12.2272 6.76829
O 4.02484 16.3918 6.18935
O 2.49254 15.012 7.56669
O 4.75042 10.6038 8.04167
O 1.90549 16.771 9.46744
O 3.52639 12.1659 9.97314
Si 5.40888 12.9581 5.35624
Si 7.48247 8.46412 5.6888
Si 6.19754 15.1823 8.86011
Si 8.56061 10.9692 9.325
Si 6.21213 10.5966 7.32586
Si 8.9483 15.2115 7.2398
O 5.61613 13.9835 9.83846
O 8.53323 10.0301 10.7037
O 7.24461 10.9176 8.68786
O 9.91007 15.7991 8.30769
O 6.47262 9.21228 6.67603
O 9.53687 13.9132 6.53726
O 6.32619 11.8087 6.15628
O 8.48844 16.1777 6.05142
O 7.40016 14.6711 7.88449
O 9.67688 10.5497 8.20641
O 6.80973 16.3942 9.91656
O 9.10768 12.3866 9.91411
Si 10.1425 12.9816 5.49295
Si 12.4554 8.71593 5.69472
Si 11.1499 15.2343 9.12475
Si 13.5983 11.051 9.33327
Si 11.1075 10.8178 7.45531
Si 13.4795 14.7833 7.4919
O 10.7449 14.2479 10.2672
O 13.424 10.1214 10.6657
O 12.1731 11.299 8.6347
O 14.7832 14.7656 8.43469
O 11.3827 9.35744 6.91876
O 13.5653 13.5707 6.29243
O 11.0177 11.8932 6.18752
O 13.8781 16.2427 6.66134
O 12.0298 14.435 7.86808
O 14.6667 10.3956 8.2854
O 12.1238 16.4691 9.80049
O 14.1793 12.4204 9.79046
Si 0.177525 4.16145 10.9718
Si 2.52153 0.13398 10.8827
Si 1.06895 6.43606 14.5071
Si 3.83886 2.26177 14.7212
Si 1.22101 2.03171 12.9374
Si 3.96785 6.27273 12.8432
O 1.02026 5.20837 15.4672
O 3.87351 1.19109 15.9464
O 2.18704 2.53076 14.1579
O 5.16382 7.02385 13.8162
O 1.63565 0.698355 12.148
O 4.38396 4.871 12.327
O 1.24821 3.13505 11.5995
O 3.69162 7.33463 11.3513
O 2.41973 6.37009 13.5663
O 4.77049 1.73075 13.5902
O 1.43603 8.01641 15.2036
O 4.41796 3.706 15.2757
Si 5.35044 4.40413 11.0649
Si 7.50468 17.1171 11.198
Si 6.54763 6.48607 14.5315
Si 8.66405 2.51832 14.353
Si 6.17759 1.99506 12.7584
Si 8.7006 6.57519 12.83
O 6.45772 5.66245 15.9325
O 8.53992 1.08245 15.4978
O 7.31627 3.05972 13.5735
O 9.76339 7.06594 14.0642
O 6.60456 0.611686 12.3767
O 9.12564 5.83409 11.5171
O 6.12184 2.95926 11.4641
O 8.1761 7.93693 12.3474
O 7.66397 5.66134 13.6181
O 9.82388 1.83103 13.5888
O 7.06356 7.94547 15.0012
O 9.58055 3.93965 14.9434
Si 10.1731 4.70098 10.8837
Si 13.0433 17.1804 11.0353
Si 11.2555 6.67346 14.5089
Si 13.5601 2.3719 14.6943
Si 11.1556 2.23708 12.8409
Si 13.5586 6.32315 12.3861
O 11.2653 5.70425 15.8347
O 13.956 1.24047 15.9466
O 12.1971 2.73206 13.9915
O 14.6336 6.84225 13.6682
O 12.1676 1.15061 12.1087
O 13.9429 4.93211 11.9944
O 10.8635 3.76887 11.981
O 13.6951 7.55609 11.1984
O 12.0965 6.18559 13.1594
O 14.4899 1.92951 13.3142
O 11.816 8.13788 14.9364
O 13.737 3.60877 15.7967
Si 0.526101 13.0432 10.7181
Si 2.71112 8.88219 11.0935
Si 1.45803 15.4278 14.7032
Si 3.5137 11.2978 14.7064
Si 1.45707 11.0949 12.7811
Si 3.76251 15.1903 12.7917
O 1.56094 14.093 15.8723
O 3.19774 10.0257 15.518
O 2.25089 11.7818 13.7402
O 4.85065 15.5946 13.8257
O 2.27735 9.72696 12.4613
O 4.1327 13.7882 12.1426
O 1.42897 11.8436 11.2602
O 3.70508 16.3345 11.4696
O 2.23373 14.951 13.3311
O 4.87152 11.0136 13.8875
O 1.83597 16.836 15.3276
O 3.45725 12.5824 15.8608
Si 4.67965 13.0999 10.9146
Si 7.61028 8.91219 11.2904
Si 6.02161 15.1155 14.8649
Si 8.61699 11.1653 14.5603
Si 6.10081 11.0583 12.745
Si 8.77401 15.0381 13.0129
O 5.7954 13.6998 15.6646
O 8.3789 10.0734 15.9415
O 7.22217 11.4637 13.726
O 10.0071 15.4644 13.954
O 6.47412 9.53343 12.2197
O 8.81486 13.915 11.9645
O 5.29145 11.7703 11.5133
O 8.3585 16.3431 12.264
O 7.23326 15.0183 13.7122
O 9.83543 10.4515 13.6398
O 6.37338 16.2772 15.8877
O 9.07176 12.5293 15.3238
Si 9.90597 13.0448 11.0646
Si 12.5531 8.74954 10.9779
Si 11.4014 15.0988 14.649
Si 13.5952 10.9606 14.4237
Si 11.1643 10.7025 12.6247
Si 13.9699 14.9261 13.0255
O 10.8987 14.156 15.8344
O 13.4424 9.89597 15.6644
O 12.3382 11.3708 13.4843
O 14.784 15.5081 14.3784
O 11.4497 9.11187 12.1457
O 14.4069 13.9885 11.8065
O 11.0215 11.9476 11.5379
O 13.8167 16.2292 11.9899
O 12.6353 14.3612 13.8715
O 0.127396 10.5816 13.4328
O 11.8375 16.634 15.2897
O 14.0462 12.3998 15.2355
324
 Atoms. Timestep: 12500
Si 0.129991 4.46452 16.4065
Si 2.87958 17.1296 0.339372
Si 1.37005 6.68496 3.55619
Si 3.61209 2.5853 3.77155
Si 1.1036 2.1293 1.8327
Si 3.72818 6.20483 1.86779
O 1.02204 5.59605 4.93602
O 3.63171 1.21045 4.6589
O 2.04459 3.01741 3.08924
O 4.86095 6.5963 2.94165
O 1.46185 0.691253 1.29266
O 3.99128 4.71639 1.20018
O 0.977375 3.25239 0.622425
O 3.6947 7.5535 0.860944
O 2.07938 5.68075 2.3521
O 4.6 1.98234 2.49442
O 2.38294 7.97552 4.2451
O 4.21002 3.94075 4.53821
Si 5.12984 4.25804 16.4261
Si 7.3087 0.170763 0.298511
Si 6.33935 6.64605 3.44836
Si 8.56772 2.58606 3.79067
Si 6.08192 2.17179 2.08386
Si 8.95988 6.55613 1.78124
O 6.25938 5.58786 4.69555
O 8.79415 1.10712 4.45691
O 6.92165 2.80974 3.26618
O 9.79561 7.02664 3.08691
O 6.37119 0.627298 1.55869
O 9.05742 5.07942 1.14754
O 6.27805 3.26889 0.770709
O 9.08156 7.63394 0.636531
O 7.35049 6.44472 2.24758
O 9.29867 2.46254 2.36352
O 6.71835 8.00173 4.20393
O 9.13985 3.9743 4.51122
Si 10.335 4.33188 16.3433
Si 12.3373 0.349128 0.136428
Si 11.1764 6.56274 3.5312
Si 13.4573 2.31936 3.5915
Si 10.822 2.24419 1.85068
Si 13.8069 6.79109 1.81119
O 11.4721 5.45959 4.69618
O 13.5552 0.962069 4.61736
O 11.934 2.06556 3.0284
O 14.8748 7.16139 2.94187
O 10.7905 0.923112 0.650052
O 14.4316 5.71354 0.843549
O 11.3947 3.61971 1.07791
O 13.3832 8.09372 0.998501
O 12.1479 6.21487 2.2625
O 14.4563 1.83664 2.33719
O 11.667 7.96698 4.19189
O 14.2428 3.55098 4.34223
Si 14.9151 13.2796 0.24911
Si 2.58837 8.4211 16.4342
Si 1.25373 15.0831 4.03275
Si 3.77562 10.6442 3.85975
Si 1.24354 10.7738 1.98194
Si 3.85653 15.0413 2.20797
O 1.52693 14.0669 5.24461
O 3.59868 9.98664 5.38135
O 2.3189 11.1636 3.23766
O 4.92999 15.3782 3.62871
O 2.07154 9.6162 1.17336
O 4.30273 13.6073 1.47648
O 0.682563 12.0727 1.25733
O 3.87135 16.2303 1.16633
O 2.40396 14.691 2.90668
O 4.93908 10.0253 2.83466
O 1.5021 16.83 4.63483
O 4.40696 12.1966 4.41205
Si 4.9975 12.8331 0.200079
Si 7.90628 8.73275 0.16506
Si 6.49062 15.0345 3.86973
Si 8.47761 11.1405 3.66446
Si 6.28752 10.5045 1.9079
Si 8.63653 15.099 1.83335
O 6.53033 13.9623 5.1027
O 8.43997 9.8367 4.64543
O 6.98288 11.3654 3.25444
O 9.61852 15.1152 3.12287
O 7.0538 9.13709 1.59431
O 8.55989 13.6166 0.899792
O 5.76283 11.5552 0.961385
O 8.5797 16.4463 0.963272
O 7.027 14.8054 2.34529
O 9.66785 10.769 2.38474
O 7.01648 16.3475 4.56362
O 8.86639 12.562 4.3905
Si 10.0214 13.038 0.126942
Si 12.5227 8.8489 16.316
Si 10.9303 15.1015 3.86704
Si 13.8178 10.6131 3.62799
Si 11.2422 10.7687 1.91812
Si 13.6155 15.1794 2.19244
O 10.7705 14.0777 5.14558
O 13.3238 9.677 4.82025
O 12.3736 11.1758 3.1024
O 14.6833 15.2128 3.36864
O 11.4465 9.49067 0.936631
O 14.0715 14.1798 1.06948
O 11.0973 12.3324 1.22931
O 13.268 16.8978 1.46811
O 12.2691 14.721 3.04997
O 15.016 10.0464 2.6834
O 11.3295 16.5073 4.4887
O 14.4183 12.0217 4.3239
Si 0.331314 4.26011 5.33533
Si 2.76796 17.3496 5.5485
Si 1.24191 6.50101 9.04189
Si 3.75508 2.22866 9.31253
Si 1.26081 1.99119 7.1219
Si 3.84743 6.41515 7.56691
O 1.20556 5.55363 10.4252
O 3.92895 1.15481 10.4797
O 2.23603 2.4698 8.5234
O 4.89069 7.1458 8.75127
O 1.94576 0.579822 6.98971
O 4.79505 5.35517 6.87139
O 1.27836 2.96742 5.86138
O 3.65437 7.55207 6.29459
O 2.2031 5.96918 7.86629
O 4.94501 1.75475 8.18364
O 2.23514 7.79775 9.65812
O 4.09188 3.84057 9.84013
Si 5.51061 4.53027 5.55589
Si 7.93207 17.1979 5.62541
Si 6.36942 6.95427 9.17675
Si 8.82469 2.3079 9.31675
Si 6.37718 2.27336 7.57481
Si 9.03405 6.89841 7.3231
O 6.41269 5.47803 10.063
O 8.67863 1.30785 10.5924
O 7.40927 2.45518 8.61543
O 9.82218 7.07982 8.72452
O 6.85901 0.866054 6.59153
O 9.82905 5.51837 6.69703
O 6.20967 3.32871 6.36008
O 9.01316 8.02857 6.04606
O 7.41491 6.7794 7.68855
O 9.93899 1.75431 8.25269
O 6.72943 8.21104 10.0431
O 9.19859 3.90473 9.76866
Si 10.2593 4.54689 5.44541
Si 12.4625 17.2849 5.36131
Si 11.4035 6.82021 9.14629
Si 13.8045 2.34904 9.09763
Si 11.2347 1.96012 7.34612
Si 13.8178 6.20294 7.14495
O 11.2912 5.76232 10.3412
O 13.6211 1.36694 10.4787
O 12.2477 2.63488 8.53059
O 14.7282 6.77636 8.36997
O 11.4916 0.77233 6.473
O 14.4713 4.88575 6.63133
O 10.9696 3.17121 6.32935
O 13.7926 7.31986 5.91953
O 12.4279 6.08052 7.90294
O 14.7113 1.7411 8.02557
O 11.8309 8.22656 9.86521
O 14.16 3.98835 9.75895
Si 0.364223 12.8437 5.47147
Si 2.51754 8.61656 5.72944
Si 1.34409 15.4013 9.23942
Si 3.81603 10.8721 9.15428
Si 1.03877 10.4404 7.3376
Si 3.81448 15.0413 7.46824
O 1.41908 13.998 10.3101
O 3.37712 10.0897 10.625
O 2.26182 10.4695 8.34325
O 4.96248 15.6377 8.52117
O 1.1695 8.88075 6.46998
O 4.29043 13.5462 6.60692
O 1.06808 11.5832 6.21049
O 3.59491 16.1535 6.28842
O 2.39001 14.6337 8.19999
O 4.7166 10.1103 8.01948
O 2.09844 16.5062 10.0049
O 4.22217 12.3411 9.4669
Si 5.30086 12.9294 5.42515
Si 7.6573 8.6658 5.33252
Si 6.44981 15.2546 9.16559
Si 8.61835 11.1019 9.22627
Si 6.17258 10.6295 7.40788
Si 9.12277 14.8595 7.40111
O 6.41773 13.9576 10.4306
O 8.28354 10.403 10.7346
O 7.07229 11.2283 8.60084
O 10.0324 15.4654 8.58698
O 6.96208 9.37933 6.61444
O 9.30119 13.3425 7.19367
O 6.30073 11.8641 6.31035
O 8.951 16.0643 6.35107
O 7.53926 14.5806 8.01439
O 9.71159 10.1912 8.21809
O 7.12283 16.6675 9.84281
O 9.39414 12.6168 9.79071
Si 9.97805 12.7991 5.61836
Si 12.6482 8.51011 5.36334
Si 11.329 15.1988 9.45248
Si 13.5589 11.1558 9.05316
Si 11.281 10.4202 7.41045
Si 13.7879 15.0604 7.38601
O 11.4607 14.0922 10.6114
O 13.7172 10.2271 10.5327
O 11.9425 11.2634 8.57062
O 14.8964 15.7284 8.54658
O 11.9036 9.00186 6.90102
O 14.2746 13.6582 6.49696
O 10.6035 11.3172 6.19434
O 13.3451 16.2313 6.34418
O 12.5576 14.6615 8.31682
O 14.6093 10.3813 8.08126
O 11.7234 16.8562 9.65128
O 14.3102 12.4637 9.58919
Si 0.143825 4.49727 11.0244
Si 2.72413 0.239257 11.1672
Si 1.38969 6.42677 14.5615
Si 3.90049 2.20441 14.5205
Si 1.22781 2.2565 12.8651
Si 3.91804 6.77448 12.5788
O 1.47599 5.20932 15.5881
O 3.812 1.04989 15.7666
O 2.42339 2.28516 13.8975
O 5.1067 7.16788 13.8381
O 1.3999 1.1227 11.6811
O 4.33584 5.26914 11.9496
O 1.18571 3.52644 11.7054
O 3.74938 8.01147 11.6589
O 2.7311 6.17828 13.4675
O 5.00121 1.39571 13.4839
O 1.42514 7.71654 15.6129
O 4.35835 3.74532 15.0502
Si 5.09797 4.56026 10.8153
Si 7.84685 17.2461 11.191
Si 6.36481 6.74328 14.6996
Si 8.61887 2.08698 14.4785
Si 6.30476 2.15717 12.5891
Si 8.69857 6.58469 12.6825
O 6.14632 5.64032 15.9448
O 8.27835 1.06177 15.7548
O 7.46531 2.87619 13.5669
O 9.88182 6.7816 13.9177
O 6.83485 0.730278 12.2021
O 8.90261 5.51984 11.55
O 6.06828 3.18359 11.2984
O 8.71853 7.93226 11.7838
O 7.15023 6.33593 13.3762
O 9.57544 1.35125 13.4034
O 6.85405 8.30897 15.32
O 9.51207 3.43588 15.1384
Si 10.1404 4.59156 10.8254
Si 12.3962 0.29442 10.9775
Si 11.3872 6.60603 14.64
Si 13.5635 2.55767 14.4579
Si 10.8982 2.21446 12.728
Si 13.6993 6.39892 12.7088
O 11.2162 5.4743 15.8076
O 13.2094 1.78323 15.9908
O 12.3819 2.29311 13.4543
O 0.163437 6.45867 13.4635
O 11.1352 0.91873 11.7489
O 13.6607 5.08498 11.7906
O 10.7865 3.66802 12.0115
O 13.7184 7.68083 11.7601
O 12.559 6.02135 13.8504
O 14.8029 2.10893 13.5718
O 11.8997 8.06609 15.1434
O 14.0673 3.93481 15.1004
Si 0.280676 13.1329 10.9465
Si 2.49722 8.80614 11.0187
Si 1.39687 15.1105 14.7926
Si 3.35701 10.9613 14.5542
Si 1.01174 10.654 12.9738
Si 3.70511 14.9614 12.684
O 1.31186 13.8539 15.9397
O 3.37595 9.29224 15.3011
O 1.97255 11.2126 14.0331
O 4.9952 15.1149 13.6499
O 1.33555 9.21184 12.2095
O 3.86713 13.9168 11.5184
O 0.856792 11.9158 11.798
O 3.6227 16.5639 12.2158
O 2.23659 14.6887 13.2771
O 4.55484 10.7209 13.2881
O 1.98403 16.46 15.5485
O 3.89522 12.04 15.7564
Si 5.11079 13.0015 10.8464
Si 7.58114 9.05754 11.281
Si 6.15721 15.2081 14.8322
Si 8.72214 11.0978 14.4615
Si 6.25039 10.956 12.8966
Si 8.73761 15.1065 12.9204
O 6.16577 13.7111 15.5079
O 8.37268 10.2 15.9878
O 7.15915 11.4633 14.0889
O 9.89895 15.7237 14.1152
O 6.46597 9.4754 12.2975
O 8.94704 13.6252 12.1591
O 6.02922 11.9235 11.497
O 9.00872 16.252 11.7623
O 7.36115 15.3782 13.655
O 9.72047 10.4065 13.4033
O 6.22679 16.4031 15.8894
O 9.3417 12.3701 15.0839
Si 10.2634 12.9502 11.1126
Si 12.8244 8.84157 11.1037
Si 11.3613 15.1648 14.6113
Si 13.4496 11.2595 14.7711
Si 11.209 10.7444 12.9687
Si 13.7438 15.2438 12.8783
O 11.1659 13.9655 15.8117
O 13.6947 10.0085 15.9528
O 11.959 11.4645 14.1948
O 14.744 15.4361 14.2327
O 11.8312 9.54693 12.1802
O 14.0114 14.1374 11.7306
O 11.2195 11.7522 11.7265
O 13.2473 16.6611 12.0872
O 12.3606 14.5815 13.5828
O 14.4568 10.687 13.6064
O 12.1291 16.5425 15.2794
O 14.1025 12.6364 15.2638
324
 Atoms. Timestep: 13000
Si 0.275112 4.40066 16.4933
Si 2.7263 0.148507 16.2225
Si 1.38063 6.37959 3.91388
Si 3.49839 2.47886 3.67889
Si 1.02882 2.01545 1.98316
Si 3.77149 6.6353 2.14921
O 1.13298 5.11283 5.0487
O 3.38942 1.26357 4.84057
O 1.87236 2.54919 3.31359
O 4.67784 7.11222 3.31571
O 1.57735 0.661211 1.15705
O 4.32259 5.56445 1.16741
O 1.14411 3.52913 1.13048
O 3.60693 7.98717 1.27725
O 2.47274 5.81616 2.77686
O 4.62529 1.66646 2.57551
O 1.707 7.76756 4.84562
O 4.13778 3.78565 4.28214
Si 5.17409 4.58843 0.0673431
Si 7.33757 17.2326 0.149755
Si 6.12237 6.80665 3.948
Si 8.65803 2.15002 3.92984
Si 6.00621 2.20744 1.99827
Si 8.4836 6.17873 2.00866
O 6.09421 5.36284 4.9413
O 8.52124 0.968032 4.92894
O 7.24809 2.42475 2.97324
O 9.86916 6.8618 2.72173
O 6.16386 0.759843 0.997965
O 8.86065 4.95165 1.17925
O 5.91608 3.53222 1.01659
O 8.23627 7.64843 1.26107
O 7.14206 5.83824 2.88705
O 9.73525 1.87578 2.83792
O 6.78565 8.12851 4.54331
O 9.00038 3.77912 4.37039
Si 10.0848 4.32667 0.228819
Si 12.3021 0.209954 0.29184
Si 11.08 6.6434 3.76222
Si 13.5894 1.98118 3.92527
Si 11.1793 2.28575 2.22379
Si 13.5633 6.40283 2.06494
O 10.8253 5.81242 5.15441
O 13.8308 0.90632 5.09497
O 12.1286 2.50939 3.50478
O 14.8004 6.6332 3.09263
O 11.595 0.909435 1.50298
O 14.3388 5.49627 0.954123
O 10.9886 3.62284 1.35632
O 13.4366 7.63016 1.21319
O 12.2386 5.73616 2.84712
O 14.3939 1.70531 2.44083
O 11.838 8.05115 3.90692
O 14.1659 3.3682 4.52184
Si 14.9347 13.1689 16.4203
Si 2.69564 8.67848 0.152944
Si 1.16797 15.2497 3.68707
Si 3.69529 11.1072 3.87346
Si 1.21236 10.791 2.03021
Si 3.579 15.0845 1.67563
O 1.14248 13.9915 4.81107
O 3.59405 9.89326 4.81727
O 2.30188 11.3778 3.05554
O 4.61193 15.1305 3.09864
O 1.54169 9.36254 1.18548
O 3.91502 13.7067 0.759814
O 0.997436 12.0444 0.943608
O 3.44612 16.2201 0.61214
O 1.90351 15.0148 2.2467
O 5.00049 10.902 3.00343
O 2.12851 16.4197 4.39063
O 4.05288 12.5816 4.67251
Si 4.81011 12.7766 16.1817
Si 7.49853 8.91979 0.241297
Si 6.11461 15.0749 3.68567
Si 8.69771 11.1388 3.96042
Si 6.18221 10.9862 2.01687
Si 8.5549 14.9166 1.95494
O 6.11036 13.9341 4.9304
O 8.19911 10.15 5.14487
O 7.38711 11.4204 3.02602
O 9.74968 15.338 3.16517
O 6.69253 9.60059 1.51677
O 9.15791 13.6323 1.18381
O 5.49863 11.7113 0.640911
O 8.31915 16.299 1.07422
O 7.05757 14.3998 2.51158
O 9.6367 10.8615 2.51415
O 6.54046 16.436 4.28056
O 9.2919 12.5361 4.38789
Si 10.1664 13.2189 16.3932
Si 12.5687 8.61673 0.360023
Si 11.2217 15.2559 3.89707
Si 13.5073 10.9956 3.84969
Si 11.119 10.9571 2.06604
Si 13.5792 14.9433 2.06681
O 11.2544 14.0533 5.01491
O 13.1664 9.95713 5.05072
O 12.0325 11.4202 3.34995
O 14.6332 15.7961 3.30904
O 11.7811 9.58678 1.52869
O 13.8801 13.6665 1.16082
O 11.1359 12.0692 0.797173
O 13.1823 16.0181 0.739896
O 12.151 14.7316 2.68394
O 14.7054 10.4422 2.72188
O 11.7699 16.7673 4.54659
O 13.9031 12.3821 4.50491
Si 14.9559 4.16523 5.59792
Si 2.83203 17.1504 5.5646
Si 1.40307 6.60523 9.08061
Si 3.93345 2.43054 9.14824
Si 1.15395 1.88132 7.51959
Si 3.96414 6.43658 7.23627
O 1.62478 5.72564 10.4678
O 3.85877 1.36261 10.4054
O 2.31392 2.56824 8.63842
O 4.99644 7.06249 8.34987
O 1.83192 0.666563 6.82516
O 4.67986 5.00552 6.97938
O 0.76377 3.15664 6.72716
O 3.65905 7.51096 6.04476
O 2.49862 6.29268 7.90032
O 4.73961 1.7416 7.85236
O 1.86176 8.29333 9.38938
O 4.70604 3.55582 9.90546
Si 5.2673 4.1594 5.48394
Si 7.5429 16.8825 5.53269
Si 6.4414 6.60169 9.05033
Si 8.69266 2.29198 8.74168
Si 6.29304 1.86368 7.20858
Si 8.8303 6.64841 7.27842
O 6.70357 5.47937 10.0066
O 8.80754 1.06626 9.75527
O 7.27662 2.73691 8.08479
O 9.75444 6.9725 8.49487
O 6.6561 0.306876 6.74654
O 9.07217 4.83686 6.98903
O 6.12613 2.75069 5.70499
O 8.92802 7.63479 5.91077
O 7.35145 6.31265 7.71325
O 9.84069 1.87073 7.62351
O 6.6598 7.83671 10.0127
O 9.15782 3.59855 9.54778
Si 9.92907 4.33553 5.55594
Si 12.687 17.1446 5.86213
Si 11.0357 6.64198 9.33303
Si 13.8755 2.51117 9.29026
Si 11.4547 2.43482 7.38055
Si 13.6064 6.60508 7.49901
O 10.8783 5.42432 10.5278
O 13.7281 1.47052 10.5473
O 12.4524 2.76139 8.56893
O 14.7908 6.95677 8.57306
O 11.9525 0.902656 6.90621
O 13.7439 5.10303 6.66661
O 11.2965 3.44513 6.10546
O 13.7772 7.74742 6.25528
O 12.2205 6.10192 8.25704
O 14.6068 1.50261 8.182
O 11.8388 7.68099 10.2893
O 14.6018 3.98915 9.68801
Si 0.30364 12.8388 5.31596
Si 2.72805 8.64321 5.53801
Si 1.36109 15.2053 8.99494
Si 4.08193 11.0749 9.06067
Si 1.61841 10.8489 7.28813
Si 3.84338 15.1298 7.45224
O 0.924512 14.2108 10.1857
O 3.72746 10.1041 10.3469
O 2.82148 11.6061 8.2502
O 4.75481 15.8882 8.60484
O 2.40421 9.47859 6.8933
O 4.6488 13.8893 7.05152
O 1.14556 11.4167 5.65075
O 3.89447 16.2528 6.24666
O 2.45664 14.7122 8.02275
O 4.92774 10.1782 8.06008
O 1.70761 16.59 9.65567
O 4.78996 12.4247 9.58253
Si 5.15863 12.9767 5.74736
Si 7.7505 8.80096 5.78229
Si 6.26321 15.4735 9.21556
Si 8.77945 11.1716 9.02897
Si 6.29925 10.6276 7.40954
Si 8.76682 15.0827 7.48594
O 6.30089 14.3413 10.3942
O 8.46651 9.88007 10.0813
O 7.34279 11.5101 8.43795
O 9.94714 15.6899 8.44943
O 7.10047 9.12409 7.25824
O 9.17769 13.4912 6.85438
O 5.97833 11.5298 6.17367
O 8.79308 15.8867 6.0924
O 7.41126 15.0874 8.08386
O 9.97751 10.6205 7.94818
O 6.68619 16.9842 9.92524
O 9.01606 12.6077 9.94881
Si 10.2727 12.9892 5.69079
Si 12.5626 8.5996 5.44399
Si 11.3055 15.2702 9.2465
Si 13.9487 10.6702 9.13969
Si 11.4736 10.7614 7.25511
Si 13.7309 14.7959 7.42874
O 11.3821 14.1213 10.5664
O 13.4259 9.75591 10.3987
O 12.6087 10.8394 8.23575
O 14.7841 15.6052 8.41714
O 11.588 9.15346 6.73193
O 14.4837 13.4567 6.80759
O 11.4342 11.9774 6.18317
O 13.5826 15.9473 6.30944
O 12.2027 14.4393 8.12532
O 0.322509 10.1537 8.07449
O 12.2495 16.5135 9.74283
O 14.4642 12.2053 9.70518
Si 0.487573 4.69357 10.875
Si 2.82478 0.147378 10.7718
Si 1.48665 6.58026 14.4702
Si 3.72879 2.60464 14.5189
Si 1.15176 2.18244 12.7648
Si 3.90614 6.67936 12.5492
O 1.45724 5.47261 15.6575
O 3.57751 1.30587 15.5764
O 2.32111 2.65888 13.8274
O 4.98702 7.38064 13.626
O 1.72707 1.03711 11.7299
O 4.63823 5.27804 11.9591
O 1.11105 3.50977 11.7757
O 3.45349 7.86535 11.4575
O 2.47263 6.07446 13.1175
O 5.02489 1.90515 13.2472
O 2.19983 7.7486 15.3469
O 4.23216 3.81783 15.5041
Si 5.50109 4.63795 10.8323
Si 7.80568 0.304451 10.867
Si 6.14353 6.90538 14.5512
Si 8.4849 2.257 14.7477
Si 6.39244 2.33666 12.6243
Si 8.77468 6.5743 12.7247
O 6.23404 5.43845 15.5873
O 8.25295 1.25003 15.9777
O 7.00426 2.68953 14.1655
O 9.7508 7.14274 13.8828
O 7.38506 1.14558 12.1302
O 9.11381 4.87632 12.3039
O 6.27258 3.41262 11.5206
O 8.65634 7.65083 11.4794
O 7.35243 6.85836 13.5004
O 9.65153 1.84953 13.579
O 6.36132 8.27222 15.5652
O 9.05605 3.52427 15.4356
Si 10.0435 4.17431 10.9831
Si 12.5667 0.299108 10.996
Si 11.1131 6.6115 14.6072
Si 13.8359 2.18947 14.777
Si 11.233 2.09488 12.9124
Si 13.8615 6.67402 12.8992
O 11.0055 5.27993 15.7117
O 13.5267 1.41637 16.2299
O 12.2488 2.20761 14.2045
O 14.8769 6.93719 14.0148
O 11.5959 0.861031 12.0354
O 14.2387 5.53448 11.82
O 11.0001 3.20846 11.8955
O 13.8817 8.10385 12.1657
O 12.359 6.27423 13.5802
O 14.7877 1.68682 13.5258
O 11.7162 8.04051 15.2574
O 14.4262 3.60445 15.2603
Si 15.1006 13.0772 10.9895
Si 2.56727 8.92627 10.6467
Si 1.28398 15.2836 14.5087
Si 3.70917 10.7714 14.4716
Si 0.973495 10.7945 12.6276
Si 3.92338 14.8878 12.6532
O 1.21153 14.0861 15.7521
O 3.72584 9.77732 15.847
O 2.21711 10.5892 13.8426
O 4.9321 15.2174 13.8802
O 1.33138 9.6499 11.4616
O 4.32989 13.5637 12.0219
O 1.14364 12.4457 12.1447
O 3.64725 16.071 11.6395
O 2.56169 14.7542 13.4019
O 4.74292 10.3809 13.2709
O 1.98662 16.4437 15.2461
O 3.92637 12.3882 14.8569
Si 5.58994 13.0512 10.9438
Si 7.71438 8.78018 10.8861
Si 6.40942 14.9202 14.6109
Si 8.63823 11.1404 14.7029
Si 6.20094 10.6932 12.7457
Si 8.62575 15.0045 12.6295
O 6.22006 13.7472 15.6186
O 8.61804 9.87943 16.0184
O 6.97667 11.0411 14.2601
O 9.74232 15.7095 13.8041
O 6.52299 9.58923 11.707
O 9.51678 13.4873 12.3764
O 6.48356 12.1651 11.9579
O 8.46585 16.0761 11.4036
O 7.51203 14.3822 13.5757
O 9.47103 10.7501 13.3403
O 6.74413 16.3899 15.173
O 9.386 12.3833 15.2395
Si 10.3136 12.9959 10.992
Si 12.7563 8.70634 11.2957
Si 11.1114 15.7018 14.4929
Si 13.5068 10.7649 14.6782
Si 10.917 10.6659 12.6894
Si 13.5168 15.1256 12.7315
O 10.7712 14.4119 15.5525
O 13.6042 9.57748 15.6917
O 11.991 11.003 13.9613
O 14.8681 15.3158 13.673
O 11.5299 9.17131 12.1826
O 13.7873 13.7525 12.1405
O 11.0961 11.7402 11.5976
O 13.4522 16.3857 11.8
O 12.3054 15.4146 13.6409
O 14.5205 10.3543 13.3343
O 11.5489 16.9676 15.2494
O 14.2546 12.2854 15.2179
324
 Atoms. Timestep: 13500
Si 0.226727 4.3597 0.18903
Si 2.59277 17.2748 16.285
Si 1.31535 6.68021 3.8892
Si 3.84122 1.91172 3.67455
Si 1.34829 2.00124 1.85217
Si 3.77495 6.89782 2.04196
O 1.58766 5.32131 4.92518
O 3.66939 0.962295 4.96071
O 2.32214 2.23885 3.23509
O 4.70517 6.78089 3.33979
O 1.82878 0.705672 1.16795
O 4.00512 5.46978 1.13799
O 1.44754 3.40121 0.844093
O 3.96096 8.07547 0.938231
O 2.2325 6.92038 2.5923
O 5.12975 1.74704 2.57309
O 1.45767 8.0107 4.85295
O 4.4835 3.20068 4.25659
Si 5.06227 4.68985 0.118078
Si 7.8609 0.131602 16.2119
Si 6.33339 6.51047 3.99926
Si 8.71775 2.20496 3.73622
Si 6.40258 2.25567 1.79502
Si 8.8105 6.50494 1.91864
O 5.95851 5.28259 4.93645
O 8.30713 1.20963 4.90898
O 7.62323 2.86824 2.76013
O 9.92828 7.16195 2.86026
O 7.01835 0.986913 0.87547
O 9.45619 5.03696 1.48513
O 5.91464 3.44717 0.705982
O 8.39874 7.82037 0.985187
O 7.54524 6.1135 2.88846
O 9.94986 1.49923 2.79407
O 6.7335 7.60968 5.06812
O 9.12345 3.50833 4.47286
Si 10.2588 4.30596 0.410749
Si 12.7867 17.1647 16.3004
Si 11.2344 6.49758 3.68211
Si 13.7642 2.49875 3.76945
Si 11.414 2.03616 2.12916
Si 13.5672 6.20598 2.02852
O 11.2159 5.20981 4.75435
O 13.5528 1.48316 5.02558
O 12.2531 3.05321 3.13743
O 14.5813 6.53528 3.35452
O 12.3428 0.896567 1.44662
O 14.1797 4.72242 1.4693
O 11.0448 2.96523 0.881
O 13.756 7.42884 0.954271
O 12.1737 6.00707 2.57449
O 14.7473 2.06163 2.47492
O 11.9781 7.77412 4.38065
O 14.5277 3.78421 4.25998
Si 14.8734 13.0631 16.4157
Si 2.85197 8.81369 0.131308
Si 1.21595 15.2695 3.85487
Si 3.59957 10.655 3.6268
Si 1.1906 10.817 1.74766
Si 3.65606 14.8894 1.81336
O 1.09832 14.2039 4.98615
O 3.6949 9.21611 4.3383
O 2.06909 10.9674 3.08817
O 4.68446 15.7212 2.70178
O 1.4155 9.243 1.20168
O 4.1625 13.5955 0.98652
O 1.25838 12.0313 0.619165
O 3.3589 15.9296 0.626435
O 2.18474 14.6473 2.69383
O 4.64177 11.1067 2.50701
O 1.87681 16.7407 4.0805
O 3.73952 11.8588 4.69699
Si 5.34548 13.2446 16.1761
Si 7.40864 8.79035 0.14042
Si 5.9655 15.1402 3.5916
Si 8.83906 10.8399 3.53166
Si 6.18904 10.9917 1.87858
Si 8.69368 15.1253 1.94704
O 5.27017 14.0089 4.58824
O 9.16082 9.31672 4.34411
O 7.11334 10.9003 3.19178
O 9.61889 15.839 3.142
O 6.04248 9.75288 0.769795
O 9.46722 13.7315 1.57263
O 6.44448 12.4227 0.788617
O 8.65345 16.1859 0.758527
O 7.3418 14.7808 2.79031
O 9.71724 11.0216 2.19579
O 6.43446 16.4985 4.25442
O 9.19536 11.9442 4.58049
Si 9.95363 13.0402 0.143985
Si 12.7238 8.56005 0.278582
Si 11.2072 15.6599 3.65421
Si 13.5912 11.2246 3.72771
Si 11.2625 10.8628 1.70163
Si 13.61 15.0946 2.01041
O 11.1036 14.3535 4.61977
O 13.6192 9.98482 4.77452
O 12.0979 11.501 3.09411
O 14.4913 15.7111 3.21317
O 11.6971 9.2793 1.37212
O 13.8928 13.5763 1.1296
O 11.107 11.8743 0.469148
O 13.8012 16.018 0.71748
O 12.0841 14.9708 2.3636
O 14.5272 10.8349 2.33561
O 12.0673 16.9325 4.3589
O 14.1636 12.4514 4.5411
Si 0.410413 4.37476 5.55596
Si 2.48458 17.1815 5.62022
Si 1.01403 6.62717 9.28159
Si 3.75268 2.37339 9.25407
Si 1.25721 2.1469 7.48888
Si 3.39479 6.093 7.23047
O 1.17075 5.46396 10.3767
O 3.78275 1.33812 10.6463
O 2.38297 2.55471 8.65285
O 4.67036 6.58434 8.4593
O 1.5425 0.677663 6.87468
O 3.84131 4.49455 6.81207
O 1.17619 3.39374 6.5015
O 3.68757 7.35876 6.17373
O 1.96976 5.98097 7.90294
O 4.50296 1.60745 7.97115
O 1.81953 7.93618 10.1057
O 4.64398 3.60618 9.75968
Si 5.07924 4.07661 5.60625
Si 7.21455 17.2563 5.4689
Si 6.21117 6.64313 9.09318
Si 8.69222 2.21707 9.19156
Si 6.04824 1.97185 7.3843
Si 8.78609 6.37924 7.43956
O 6.49226 5.54415 10.4563
O 8.69232 1.19264 10.3859
O 7.12108 2.38667 8.56628
O 9.52723 6.63813 8.75217
O 6.33537 0.480606 6.74442
O 9.24499 4.9035 6.75494
O 6.21999 3.18318 6.30198
O 9.07514 7.47118 6.20613
O 7.0693 6.22194 7.74736
O 9.90217 1.95339 8.24647
O 6.61611 7.91871 10.085
O 8.93363 3.75733 9.78693
Si 10.2064 4.12758 5.42551
Si 12.7641 17.2972 5.60312
Si 11.1645 6.42713 9.15834
Si 13.5794 2.45989 9.36472
Si 11.3998 1.97131 7.3563
Si 13.666 6.50629 7.50309
O 11.1211 5.32142 10.3641
O 12.9721 1.60851 10.5694
O 12.451 2.85967 8.31071
O 14.479 7.19699 8.88012
O 11.8036 0.445806 7.02491
O 14.3474 5.37777 6.62626
O 11.0464 2.77664 5.91627
O 13.3189 7.63747 6.45274
O 12.1996 6.03178 8.01839
O 14.6524 1.89138 8.2254
O 11.7181 7.79243 9.82037
O 14.143 3.91619 9.98696
Si 0.281354 12.9395 5.59528
Si 2.79433 8.62727 5.51299
Si 1.21368 15.3737 9.3017
Si 3.92557 11.1742 9.15976
Si 1.49139 10.672 7.42898
Si 3.61884 14.8018 7.28103
O 1.10694 14.1381 10.3394
O 3.77854 9.91888 10.1211
O 2.64116 11.6687 8.43578
O 4.67373 15.4766 8.55565
O 2.71004 9.55178 6.8186
O 3.99115 13.3174 6.81611
O 0.830702 11.4513 6.06612
O 3.46902 15.8589 6.00323
O 2.26986 14.643 8.20293
O 5.28525 10.6219 8.13246
O 1.59612 16.7546 9.96754
O 4.3253 12.6504 9.79276
Si 4.87385 12.744 5.52043
Si 8.07597 8.54948 5.47489
Si 6.03652 15.2354 9.40575
Si 9.04897 11.0468 9.09033
Si 6.52346 10.9577 7.28553
Si 8.50451 15.1609 7.35805
O 6.26607 14.3153 10.7219
O 8.94092 9.87994 10.3017
O 7.59887 11.2705 8.46713
O 9.74621 15.9683 8.16089
O 7.56925 9.73573 6.63993
O 8.93842 13.6774 6.59389
O 6.19341 11.9966 6.11073
O 8.05971 16.0336 6.08376
O 7.15835 14.7661 8.35237
O 10.0466 10.8852 7.89752
O 6.4031 16.9346 9.94023
O 9.21596 12.5989 9.94268
Si 10.0025 13.2188 5.41107
Si 12.6745 8.77201 5.51316
Si 11.1011 15.4999 8.98504
Si 13.7925 10.9303 9.19388
Si 11.4113 11.0166 7.07399
Si 13.7087 15.0427 7.21992
O 10.6783 14.4669 10.2756
O 13.4532 9.86998 10.4301
O 12.7773 11.0656 7.98102
O 14.6306 15.6311 8.45108
O 11.4467 9.58367 6.29011
O 14.3662 13.6742 6.854
O 11.4486 12.5252 6.27273
O 13.8336 16.2039 6.01701
O 12.0787 15.1036 7.73847
O 0.267939 10.241 8.51324
O 11.7035 16.901 9.75598
O 14.1218 12.5254 9.66983
Si 0.298799 4.26606 11.1772
Si 2.69572 0.162481 10.9881
Si 1.3278 6.71468 14.8298
Si 3.77576 2.51814 14.7637
Si 1.41554 2.06435 12.8032
Si 3.56473 6.37602 12.9186
O 0.849683 5.80556 15.9761
O 3.65467 1.25546 15.8436
O 2.34599 2.78083 13.9271
O 4.60969 6.65248 14.0467
O 2.27752 0.805794 12.4948
O 4.1523 5.1038 11.9635
O 1.31839 3.06054 11.3434
O 3.84812 7.85333 11.9484
O 2.14144 6.06519 13.5499
O 5.00926 1.71746 13.9569
O 2.35068 7.77942 15.2523
O 4.12438 4.14493 15.3317
Si 5.27631 4.43279 10.9716
Si 7.53666 17.2721 11.0665
Si 6.11029 6.62718 14.5992
Si 8.92575 2.50366 14.8128
Si 6.34349 2.26457 13.0235
Si 8.85819 6.50346 12.8879
O 6.26364 5.77588 16.0492
O 9.07583 1.26972 15.9895
O 7.46189 3.09127 13.9237
O 9.82473 6.68516 14.188
O 6.72825 1.02233 12.113
O 9.25736 5.0199 12.2599
O 5.97802 3.43295 11.9963
O 8.96354 7.46861 11.5934
O 7.43559 6.28517 13.6359
O 9.81861 1.7261 13.5928
O 6.36663 8.05779 15.422
O 9.38422 3.81604 15.4229
Si 10.0396 4.35463 10.9859
Si 12.3286 0.200844 11.1438
Si 11.2683 6.51484 14.8121
Si 13.6913 2.42281 14.3206
Si 11.1676 2.29828 12.8403
Si 13.5728 6.18003 12.8126
O 11.3032 5.33487 16.1625
O 13.292 1.2812 15.2834
O 12.2714 3.06023 13.641
O 14.8617 7.0525 13.8452
O 11.6158 0.579696 12.4617
O 14.4414 4.95951 12.4786
O 10.6058 2.92608 11.4069
O 13.4609 7.32965 11.5254
O 12.2784 5.70821 13.8264
O 14.7585 1.8198 12.9644
O 11.681 7.99715 15.1926
O 14.2373 3.62402 15.2103
Si 0.166698 13.0182 10.9774
Si 2.74694 8.70156 11.0834
Si 1.24071 15.3519 14.5651
Si 3.88175 11.0309 14.5783
Si 1.24703 10.7635 12.6737
Si 3.78364 14.9857 12.8165
O 1.02967 14.046 15.6472
O 3.83382 10.0516 15.9888
O 2.64937 11.1783 13.5057
O 4.77718 15.9345 13.6476
O 1.83359 9.38268 12.093
O 4.43824 13.6092 12.4339
O 1.01785 11.8969 11.5529
O 3.42228 15.906 11.3804
O 2.40832 14.5661 13.7452
O 4.90894 10.2282 13.641
O 1.84189 16.7723 15.0643
O 4.7521 12.6037 14.8813
Si 5.1653 12.8847 11.1474
Si 7.97201 8.71804 10.9378
Si 6.12188 15.7923 14.4133
Si 8.66414 11.1891 14.758
Si 6.33104 10.7001 12.7623
Si 8.55115 15.1555 12.9389
O 5.91507 14.8099 15.599
O 8.38344 9.71852 15.6601
O 7.27195 11.4062 13.8814
O 9.58239 15.2087 14.2328
O 6.89651 9.40575 11.9602
O 9.1369 13.6971 12.3904
O 6.19258 11.7759 11.5818
O 8.70868 16.3186 11.8134
O 7.06085 14.9573 13.3179
O 9.78988 10.6622 13.6785
O 7.13245 17.0017 14.8056
O 8.73415 12.6883 15.4395
Si 10.0814 13.3324 11.1391
Si 12.553 8.65095 10.949
Si 11.1432 15.0751 14.6499
Si 13.6098 10.8511 14.6267
Si 11.071 10.9259 12.9141
Si 13.5083 14.9883 12.761
O 10.9214 13.9627 15.6695
O 13.5785 9.55983 15.5654
O 12.1274 11.1823 13.9793
O 14.6211 15.7771 13.8061
O 11.5385 9.46191 12.0947
O 14.4206 13.5804 12.427
O 11.0571 12.3119 12.1381
O 13.5622 16.1355 11.6097
O 12.066 14.5629 13.4025
O 14.6995 10.531 13.4342
O 11.998 16.3615 15.0574
O 14.0697 12.2088 15.3238
324
 Atoms. Timestep: 14000
Si 0.445493 4.56596 16.2917
Si 2.29851 0.182688 0.140008
Si 1.19167 6.82649 3.47409
Si 3.99058 2.36311 4.02203
Si 1.53568 2.30358 2.02633
Si 3.7332 6.50645 1.77455
O 1.26095 5.67562 4.686
O 3.56844 1.15952 4.98201
O 2.76689 2.68526 2.98191
O 4.52446 6.94915 3.15773
O 1.57712 0.721562 1.39159
O 4.67966 5.29481 1.37616
O 1.22606 3.25184 0.550401
O 3.47854 7.39395 0.421575
O 2.10814 6.39522 2.30293
O 5.20269 1.71325 3.07786
O 1.8987 8.27772 4.00209
O 4.42133 3.70723 4.68381
Si 5.25442 4.30285 0.266311
Si 7.66071 17.215 16.3246
Si 6.14798 6.6576 3.71775
Si 8.52079 2.4179 3.59909
Si 6.12107 1.86996 1.92128
Si 8.68031 6.40549 1.9309
O 6.13385 5.83774 5.10722
O 8.48956 1.23293 4.84927
O 7.18253 2.81554 2.72444
O 9.38694 6.88656 3.44325
O 6.87976 0.486624 1.41931
O 9.52497 5.10632 1.16383
O 5.81253 2.65468 0.506153
O 8.81705 7.67263 0.879878
O 7.10015 6.17738 2.51243
O 9.62635 1.89612 2.58704
O 6.57722 8.15569 4.24117
O 9.29937 3.63374 4.40115
Si 10.3071 4.59138 16.1168
Si 12.6531 0.22383 16.3334
Si 11.1414 6.70952 3.66569
Si 13.7267 2.32857 3.69102
Si 11.0175 2.23026 1.87041
Si 13.6495 6.50462 1.90095
O 10.9731 5.60599 4.9106
O 13.5131 1.09008 4.70998
O 12.5667 2.3829 2.56517
O 14.4833 7.09889 3.11236
O 11.4524 0.644243 1.10433
O 14.4744 5.17823 1.39525
O 11.0167 3.44078 0.705786
O 13.5267 7.36159 0.500205
O 12.0753 6.30745 2.45286
O 0.434644 2.32951 3.19024
O 11.7852 8.05856 4.36056
O 13.6969 3.9301 4.33373
Si 0.548525 13.2294 0.273556
Si 2.70863 8.83271 16.348
Si 1.11815 15.3877 4.01495
Si 3.84611 10.8622 3.75664
Si 1.3528 10.7566 1.93081
Si 3.67832 15.0652 1.91931
O 1.14974 13.9126 4.73291
O 3.83514 9.58426 4.8722
O 2.29935 10.805 3.25813
O 4.84352 15.5612 2.84138
O 1.70893 9.28251 1.38713
O 4.099 13.4206 1.48137
O 1.60121 11.98 0.704434
O 3.37383 16.028 0.606887
O 2.18127 15.0093 2.80376
O 4.74876 10.3409 2.40975
O 1.39164 16.7346 4.86546
O 4.36246 12.2735 4.51424
Si 5.21192 13.1549 0.415068
Si 7.85306 8.58464 16.0384
Si 6.29156 15.2375 3.59632
Si 8.88121 10.7327 3.64268
Si 6.35989 10.6774 1.99987
Si 8.85146 15.1642 1.634
O 5.93482 14.022 4.51686
O 8.74249 9.86734 5.32703
O 7.29869 10.953 3.1998
O 9.53926 15.9238 2.81031
O 6.95468 9.5898 0.834759
O 9.36708 13.6316 1.38683
O 6.26744 12.0316 1.03513
O 8.76665 15.9897 0.195492
O 7.31886 14.8613 2.35617
O 9.63286 9.90239 2.66872
O 6.70177 16.4882 4.62602
O 9.53844 12.1441 3.92502
Si 10.2576 12.8957 16.3699
Si 12.9429 8.84468 16.1941
Si 10.9865 15.4048 3.55365
Si 13.6612 10.8191 3.72986
Si 11.1504 10.3044 2.03162
Si 13.5783 15.1271 2.07755
O 11.193 14.074 4.51419
O 13.9934 9.65358 4.74355
O 12.2429 10.7758 3.10382
O 14.4019 15.6457 3.40315
O 11.9413 9.08315 1.29707
O 14.2047 13.7196 1.29338
O 11.0956 11.6336 0.903142
O 13.5679 16.283 0.98987
O 12.0097 14.9101 2.38388
O 14.5324 11.0082 2.39061
O 11.6771 16.7457 4.18741
O 14.178 12.2159 4.48806
Si 14.9181 4.5723 5.31726
Si 2.6851 0.187361 5.79298
Si 1.56492 6.61067 9.40884
Si 3.59358 2.30373 9.17902
Si 1.2561 2.43824 7.38392
Si 3.83504 6.53728 7.46288
O 1.35147 5.49105 10.4012
O 3.51058 1.23964 10.457
O 2.17387 2.837 8.73498
O 4.97553 7.27362 8.44384
O 1.94518 1.0712 7.04427
O 4.55018 5.15023 6.93941
O 1.17092 3.59376 6.07552
O 3.53602 7.82085 6.54496
O 2.51895 5.89601 8.06296
O 4.54129 1.74738 7.96329
O 1.90276 8.03044 10.1763
O 4.00326 3.84593 9.80913
Si 5.35697 4.54419 5.72852
Si 7.79664 17.2383 5.60874
Si 6.11242 6.53698 9.31953
Si 8.63371 2.35979 9.42979
Si 6.16347 2.25078 7.5684
Si 8.44871 6.37109 7.40454
O 5.97668 5.27853 10.4964
O 8.65676 1.37826 10.5876
O 6.98743 2.62107 8.89355
O 9.60096 6.87162 8.51052
O 6.8874 0.824788 6.81159
O 8.82352 5.24958 6.32135
O 6.173 3.29775 6.34359
O 7.84878 7.63845 6.56885
O 7.19026 5.79935 8.2416
O 9.50502 2.12001 8.07895
O 6.80169 7.88066 10.0846
O 9.4652 3.66678 9.78029
Si 10.0734 4.52315 5.54426
Si 12.2422 0.280478 5.41652
Si 11.1246 6.7394 8.97587
Si 13.728 2.24114 9.15926
Si 11.0203 2.24878 7.41939
Si 13.8753 6.57068 7.44915
O 11.4075 5.65348 10.2659
O 13.7494 0.836932 9.96644
O 12.0975 2.42306 8.63682
O 0.177767 7.03347 8.63014
O 11.5092 1.0945 6.5261
O 14.2812 5.46199 6.42009
O 11.0673 3.58523 6.41024
O 13.6514 7.69101 6.2671
O 12.2538 6.48916 7.90309
O 14.4697 2.33974 7.69795
O 11.4463 8.2644 9.66874
O 14.2802 3.64769 9.8548
Si 14.9201 12.9144 5.73267
Si 2.65069 8.76697 5.41345
Si 1.20619 15.188 9.17893
Si 3.78488 10.9853 9.37274
Si 1.10201 10.7047 7.31977
Si 3.83749 15.0459 7.56087
O 0.861868 14.2326 10.5112
O 3.8957 9.75918 10.2627
O 2.4465 10.9684 8.42118
O 4.68185 15.5295 8.88286
O 1.62152 9.50848 6.3662
O 4.21198 13.6908 6.67103
O 0.985532 12.274 6.77463
O 3.69194 16.1311 6.30692
O 2.43257 14.5848 8.1489
O 4.93825 10.6744 8.21223
O 1.89805 16.6142 9.75919
O 4.14233 12.3784 10.0449
Si 5.31983 13.0045 5.57472
Si 7.51106 8.72893 5.5429
Si 6.17635 15.2487 9.28357
Si 8.63453 10.8927 9.29117
Si 6.22862 10.831 7.43757
Si 8.69105 14.8771 7.18946
O 6.25396 14.0531 10.2241
O 8.66651 9.91112 10.7591
O 7.44766 11.2172 8.41319
O 9.58253 14.9271 8.45165
O 6.28137 9.44795 6.59645
O 9.14882 13.6136 6.30938
O 6.34562 12.1322 6.3865
O 8.62773 16.065 6.06591
O 7.06323 15.1584 7.72951
O 9.64525 10.3413 8.01202
O 6.83212 16.5058 9.87646
O 9.26833 12.3052 9.88161
Si 10.0421 12.9632 5.22109
Si 12.6487 8.718 5.47534
Si 10.9446 15.1025 9.23508
Si 13.5376 10.8511 9.1992
Si 11.0053 10.6143 7.221
Si 13.3545 15.015 7.33576
O 10.9008 13.9981 10.3988
O 13.7152 9.63138 10.1681
O 12.0418 11.089 8.5017
O 14.5512 15.5424 8.38765
O 11.5439 9.20624 6.59355
O 13.7222 13.8526 6.39813
O 10.9028 11.7926 6.16816
O 13.275 16.36 6.25275
O 12.0229 14.5539 8.26684
O 14.5977 10.4024 7.98233
O 11.315 16.6163 9.94332
O 14.3875 12.0262 9.92391
Si 0.303803 4.38522 11.0559
Si 2.7126 17.1874 11.1331
Si 1.30242 6.73119 14.6264
Si 3.5872 2.28559 14.9567
Si 1.06405 1.96327 12.8261
Si 3.90038 6.3227 12.8697
O 1.68979 5.50467 15.6234
O 3.44611 1.2557 16.1745
O 2.20786 2.39194 14.1556
O 4.69729 6.79296 14.0375
O 1.60812 0.60868 12.166
O 4.26175 4.82842 12.3194
O 0.979902 3.20934 11.7603
O 3.80807 7.28878 11.4897
O 2.22525 6.66949 13.2154
O 4.60558 1.94503 13.626
O 1.72188 8.39408 15.0637
O 4.21278 3.84032 15.3117
Si 5.12077 4.11118 11.1698
Si 7.58421 17.247 11.0996
Si 6.38143 6.28863 14.5591
Si 8.66061 2.32149 14.5689
Si 6.06841 1.99936 12.9971
Si 8.73604 6.24767 12.7849
O 6.21638 5.71487 16.0021
O 8.59444 1.45125 15.8677
O 7.05771 2.58239 13.9816
O 9.71007 6.78071 14.054
O 6.53642 0.806456 12.0627
O 9.35575 4.8662 12.0187
O 6.05491 3.11243 11.8053
O 8.71951 7.38376 11.6671
O 7.51043 5.63342 13.635
O 9.75858 1.97827 13.4659
O 7.07647 7.76633 14.9941
O 9.03909 3.74205 15.1878
Si 10.4748 4.4394 10.8011
Si 12.5851 17.0752 10.7404
Si 11.266 6.98298 14.5413
Si 13.5426 2.37776 14.592
Si 11.1982 2.16388 12.8882
Si 13.6393 6.49716 12.7393
O 11.2966 5.78193 15.6737
O 13.4695 1.64597 16.1185
O 12.2373 2.72988 13.7938
O 14.6471 7.02283 14.1034
O 11.8772 0.83346 11.9964
O 13.9443 5.04128 12.1203
O 11.5365 3.59101 11.6579
O 13.5288 7.48341 11.4581
O 12.2736 6.36177 13.5518
O 14.6122 1.50968 13.5398
O 11.8468 8.34191 14.981
O 14.1718 3.85651 15.2177
Si 14.8577 12.8854 11.2455
Si 3.03607 8.68136 11.0866
Si 1.07606 15.5415 14.5827
Si 3.87855 11.1007 14.6969
Si 1.83503 10.9584 12.9264
Si 3.64995 14.9275 12.9267
O 1.20829 14.4276 15.5649
O 3.688 9.95962 15.8473
O 2.6579 11.7597 14.0017
O 4.70785 15.4009 14.1939
O 2.17014 9.54639 12.2121
O 4.38524 13.6892 12.1884
O 1.17337 11.8825 11.6761
O 3.77336 16.2961 11.9585
O 2.0816 14.9447 13.4435
O 4.84442 10.7274 13.348
O 1.16596 17.0104 15.0731
O 4.64903 12.4897 15.3444
Si 5.21501 12.962 10.9605
Si 7.64578 8.61592 11.0969
Si 6.15689 15.3371 14.971
Si 8.94197 10.8832 14.5067
Si 6.45471 10.6931 12.6941
Si 8.9328 15.0912 13.0203
O 6.0546 14.5025 16.3215
O 9.12563 9.53407 15.3055
O 7.44311 10.8998 13.97
O 9.75978 15.796 14.2172
O 6.50981 9.21195 12.0858
O 9.36105 13.6208 12.5088
O 6.47545 11.8567 11.5348
O 8.59207 16.0302 11.6769
O 7.37172 14.9386 13.8448
O 10.1013 10.8903 13.4324
O 6.46862 16.8811 15.4151
O 9.29263 12.2944 15.18
Si 10.1626 12.8915 11.2092
Si 12.5496 8.64808 10.8346
Si 11.2819 15.1137 14.5506
Si 14.0821 11.2903 14.5315
Si 11.617 10.8013 12.7361
Si 13.5643 14.826 12.5595
O 11.3131 14.0362 15.743
O 13.7415 10.2217 16.0155
O 12.6291 11.2322 13.9212
O 14.3601 15.4791 13.8485
O 11.6555 9.11621 12.1035
O 13.8247 13.2448 12.456
O 11.5453 12.0612 11.5677
O 13.4194 15.7153 11.1782
O 12.0583 14.5985 13.116
O 0.504287 10.7328 13.735
O 11.9332 16.5425 15.1622
O 14.294 12.7293 15.1333
324
 Atoms. Timestep: 14500
Si 14.8833 4.43614 16.3233
Si 3.079 0.280473 0.166752
Si 1.28642 6.61727 3.67463
Si 3.67391 2.69125 3.7125
Si 1.22044 2.47198 1.97168
Si 3.80672 6.40146 1.90081
O 0.716148 5.68183 4.89664
O 3.44258 1.42926 4.83036
O 2.17317 3.13277 3.09301
O 4.85955 6.61607 3.05355
O 1.83322 1.09064 1.02359
O 4.06763 5.23709 0.675901
O 1.20748 3.34272 0.640501
O 3.467 7.5986 0.74931
O 2.3839 5.68694 2.68968
O 5.08121 1.95893 2.93291
O 1.73595 8.15558 4.34703
O 4.30841 4.04059 4.31488
Si 5.19647 4.35342 16.1798
Si 7.85956 17.1904 0.315716
Si 6.2686 6.74449 3.7049
Si 8.85382 2.64898 3.74849
Si 6.44855 2.45877 2.18412
Si 8.83322 6.23641 1.99164
O 6.5624 5.68042 4.89038
O 8.91137 1.69489 5.25361
O 7.38444 3.1827 3.30908
O 9.79939 6.37187 3.26183
O 6.86609 1.12666 1.21386
O 9.05266 4.83288 1.0024
O 6.11902 3.62169 1.15906
O 8.97199 7.58904 0.998809
O 7.22601 6.18406 2.44556
O 9.78868 1.97706 2.66634
O 6.33018 8.13701 4.45513
O 9.903 3.86517 4.27019
Si 10.147 4.33351 16.1196
Si 12.475 17.1437 0.180091
Si 11.2328 6.94037 3.62761
Si 13.5742 2.47229 3.89367
Si 11.1159 2.27349 2.0106
Si 13.6912 6.3959 1.75441
O 11.3223 6.00122 5.16855
O 13.6961 1.20541 4.80903
O 12.1541 2.82636 3.0851
O 0.17186 6.99276 2.59242
O 11.7173 0.864348 1.35781
O 14.0865 4.87537 1.47835
O 11.1803 3.50169 0.839888
O 13.4248 7.3047 0.457205
O 12.3883 6.49064 2.73998
O 14.7086 2.12593 2.76009
O 11.754 8.3209 4.39906
O 13.5568 3.88638 4.76734
Si 0.294259 12.8227 0.347996
Si 2.77954 8.82867 16.3338
Si 1.45317 15.2619 3.7143
Si 3.94206 11.1587 3.71919
Si 1.55989 10.675 2.1788
Si 3.92114 15.3165 2.17936
O 1.48114 14.2484 5.09456
O 3.27621 9.92692 4.8196
O 2.44111 11.5745 3.17888
O 4.57582 15.5499 3.56437
O 2.13632 9.2919 1.5852
O 4.47671 13.9281 1.56107
O 1.40716 11.6436 0.84383
O 4.12465 16.3869 0.98629
O 2.41157 14.8442 2.50176
O 4.77216 10.1841 2.70872
O 1.6498 16.758 4.52654
O 5.04761 12.2198 4.2809
Si 5.06205 13.0233 0.49748
Si 7.73106 8.54264 0.228785
Si 6.20153 15.5652 3.935
Si 8.72667 10.8069 3.84911
Si 6.31246 10.5817 2.0479
Si 8.59407 14.7836 2.13501
O 6.46378 14.5467 5.08563
O 8.49996 9.86196 5.13153
O 7.45383 11.0611 3.04225
O 9.44501 14.9708 3.5058
O 6.71158 9.18034 1.24319
O 8.6542 13.4493 1.13954
O 5.96341 11.7819 0.970342
O 8.8098 16.117 1.20928
O 6.97871 14.8891 2.60285
O 9.96738 10.5896 2.92773
O 6.84081 16.9465 4.41348
O 9.01356 12.2513 4.57905
Si 9.94317 12.972 0.229204
Si 12.6092 8.58258 16.2663
Si 11.0662 14.9327 3.8926
Si 13.8074 10.9273 3.89341
Si 11.2672 10.7386 1.95467
Si 13.6806 14.8944 2.24325
O 11.1352 13.9092 5.12639
O 13.4006 10.0249 5.11668
O 12.5894 11.073 2.80599
O 14.6866 15.68 3.22292
O 11.7964 9.28279 1.22727
O 14.2433 13.7177 1.31622
O 10.9261 11.8592 0.847701
O 13.6304 16.1604 0.99727
O 12.2667 14.525 3.00473
O 14.8795 10.367 2.85712
O 11.7012 16.3002 4.5092
O 14.463 12.453 4.23658
Si 0.162082 4.38862 5.70945
Si 2.65847 0.247991 5.63629
Si 1.12519 6.7575 9.323
Si 3.56832 2.7214 9.07174
Si 1.12523 2.2577 7.42111
Si 3.74483 6.543 7.51747
O 0.930257 5.71645 10.5283
O 3.28938 1.62599 10.1985
O 2.15645 3.09151 8.46598
O 4.81131 6.69258 8.77737
O 1.74978 0.715904 7.0006
O 4.19752 5.18714 6.51202
O 0.926301 2.96785 5.91526
O 3.81365 7.87829 6.47797
O 2.36702 6.32813 8.17377
O 4.61062 2.15613 7.94981
O 1.73518 8.0282 10.1121
O 4.22244 4.04841 9.63987
Si 5.27631 4.81637 5.40977
Si 7.88691 0.480568 5.5661
Si 6.28689 6.69222 9.26992
Si 8.49867 2.35494 9.52277
Si 6.08141 2.55319 7.34869
Si 8.70293 6.46707 7.55262
O 6.23173 5.31693 10.3049
O 8.67966 1.05372 10.3886
O 7.0737 2.71065 8.69049
O 9.81287 7.13501 8.59289
O 6.57871 1.32303 6.38898
O 9.12175 5.47955 6.47838
O 6.29455 3.82322 6.25133
O 8.44426 7.65012 6.44634
O 7.43723 6.01582 8.35649
O 9.38472 1.76502 8.1924
O 6.81065 8.3203 9.73317
O 9.0962 3.49214 10.3623
Si 10.3045 4.74269 5.67316
Si 12.6185 0.278814 5.5813
Si 11.1997 6.69954 9.36445
Si 13.3352 2.31051 9.1249
Si 10.8717 2.17696 7.38563
Si 13.6023 6.35559 7.54196
O 11.0817 5.35859 10.3427
O 13.8335 1.32477 10.3857
O 11.8349 2.31826 8.7281
O 14.5418 7.3074 8.56086
O 11.4675 1.0536 6.30367
O 14.7526 5.2612 6.98585
O 11.0819 3.70075 6.74669
O 13.5935 7.19549 6.14818
O 12.2307 6.06795 8.34936
O 14.3968 2.19467 7.92726
O 11.6575 8.21359 9.93591
O 13.5497 3.81588 9.82679
Si 0.247737 13.179 5.56233
Si 2.68029 8.76589 5.56708
Si 1.31889 15.0877 8.93767
Si 3.64613 11.0204 9.05099
Si 1.3022 10.5737 7.20301
Si 3.82289 15.1182 7.14994
O 1.57652 13.9983 9.99351
O 3.87972 9.70289 10.0505
O 2.03272 11.0711 8.60266
O 4.66392 15.2627 8.67436
O 1.60885 9.03944 6.8399
O 4.21158 13.8688 6.27379
O 1.16927 12.1936 6.44675
O 4.01928 16.5222 6.13347
O 2.34587 15.0941 7.75018
O 4.53546 11.0511 7.57911
O 1.86496 16.4905 9.54716
O 4.18201 12.3438 9.73707
Si 5.57459 13.2314 5.60229
Si 7.43958 8.741 5.65575
Si 6.17343 15.02 9.09886
Si 8.49129 11.0233 9.0674
Si 6.09945 10.7581 7.3485
Si 8.70168 15.0788 7.44041
O 6.39887 13.694 10.1808
O 8.64962 10.0742 10.3277
O 7.02867 11.0589 8.60366
O 9.6669 15.4982 8.62095
O 6.22629 9.2445 6.66725
O 9.19572 13.5545 6.95969
O 6.37855 12.2502 6.51259
O 8.68358 16.3096 6.17027
O 7.11692 14.7177 7.74074
O 9.57364 10.4217 7.79826
O 6.8587 16.4409 9.73727
O 9.24017 12.3054 9.56855
Si 9.94067 12.782 5.72877
Si 12.7327 8.51523 5.63599
Si 11.1526 15.1021 9.37958
Si 13.7224 11.0502 9.27065
Si 11.27 10.7041 7.50702
Si 13.5965 15.0935 7.59581
O 10.8019 13.9841 10.381
O 13.6673 9.87024 10.2876
O 12.0668 11.3308 8.76828
O 14.5091 15.5008 8.86974
O 11.9008 9.33483 6.75983
O 13.8843 13.7228 6.67387
O 10.9608 11.7676 6.34384
O 13.3491 16.3605 6.62401
O 12.1829 14.4851 8.3718
O 14.6432 10.655 7.79878
O 11.6748 16.5531 10.0468
O 14.2219 12.5466 9.60128
Si 14.7411 4.35232 10.9248
Si 2.65384 0.237992 10.633
Si 1.19544 6.95562 14.623
Si 3.70351 2.2493 14.4696
Si 1.20921 1.96446 12.439
Si 3.66185 6.40697 13.0017
O 0.87475 5.72147 15.7024
O 4.23251 1.14951 15.7663
O 2.28017 2.58934 13.7886
O 4.4979 6.92769 14.252
O 1.70001 0.640193 11.8298
O 4.41516 5.07303 12.3031
O 0.993511 3.1794 11.2055
O 3.78869 7.42709 11.6466
O 2.07681 6.12766 13.3692
O 4.92942 1.77756 13.2141
O 1.85711 8.45156 14.9663
O 4.45208 3.56992 15.0197
Si 5.10532 4.52622 10.9883
Si 7.74755 16.9989 10.9818
Si 6.31407 6.44847 14.5048
Si 8.62584 2.4319 14.3447
Si 6.38697 2.18632 12.4625
Si 8.58841 6.70403 12.7212
O 6.27014 5.23103 15.3458
O 8.77553 1.27925 15.4109
O 7.18728 2.84704 13.6836
O 9.6668 6.96404 13.845
O 6.7361 0.501781 12.1074
O 9.2498 5.05692 12.3737
O 5.97999 3.25386 11.4197
O 8.78219 7.54838 11.3367
O 7.02937 6.21078 13.0736
O 9.51039 1.8682 12.9826
O 7.00071 7.57596 15.3031
O 8.97628 3.96871 14.9352
Si 10.1562 4.40473 11.1708
Si 12.8261 17.1897 11.1127
Si 11.0822 6.64216 14.4533
Si 13.5655 2.3376 14.581
Si 11.0943 2.03121 12.6082
Si 13.5945 6.36953 12.8025
O 10.9541 5.60025 15.5913
O 13.6301 1.07031 15.7485
O 12.0618 2.40102 13.9127
O 14.6247 7.05251 13.9126
O 11.6224 0.664578 11.9485
O 13.9052 4.90136 12.2956
O 11.3338 3.39823 11.7525
O 13.6052 7.22645 11.4656
O 12.1105 6.33504 13.3466
O 14.6596 1.98044 13.3373
O 11.5454 8.09307 15.1584
O 13.8664 3.8151 15.2293
Si 0.58921 12.8665 10.7612
Si 2.84612 8.67486 11.1178
Si 1.51871 15.0131 14.618
Si 3.75825 11.0636 14.7659
Si 1.31531 10.7309 12.6539
Si 4.03752 15.4036 12.7111
O 1.54318 13.842 15.6305
O 3.80118 9.90012 15.9318
O 2.29013 11.2958 13.9112
O 5.02815 15.7224 13.9743
O 2.04296 9.35085 12.2912
O 4.36325 13.9122 11.952
O 1.04918 11.4231 11.2138
O 3.68296 16.4975 11.6476
O 2.47779 14.862 13.1803
O 4.85551 10.4348 13.685
O 2.15722 16.3276 15.3754
O 3.96336 12.3884 15.7316
Si 5.12693 13.0011 10.8596
Si 7.92102 8.7928 10.7966
Si 6.33866 15.0895 14.7533
Si 8.8093 10.858 14.6439
Si 6.35868 10.6046 12.8839
Si 8.65819 14.5201 12.8129
O 5.89002 14.0225 15.7429
O 8.40592 9.99633 15.7785
O 7.38277 11.2354 13.9247
O 9.81111 15.0557 13.6813
O 6.88744 9.27786 12.0284
O 9.20818 13.1996 12.1721
O 5.80809 11.6281 11.6643
O 8.51283 15.5606 11.4168
O 7.05271 14.5196 13.3125
O 9.75766 10.2916 13.4379
O 7.07528 16.4485 15.3993
O 9.72908 12.2093 15.0071
Si 10.1374 12.5723 10.8337
Si 12.8234 8.61058 10.9617
Si 11.2741 14.973 14.5267
Si 13.5245 10.8656 14.4025
Si 11.2669 10.4884 12.7316
Si 13.8067 14.8147 12.841
O 10.9807 14.258 15.9434
O 13.3559 9.76942 15.5945
O 12.0785 11.2051 14.0651
O 14.6635 15.161 14.1023
O 12.1739 9.14715 12.3477
O 14.3281 13.5383 11.896
O 11.1632 11.4321 11.3551
O 13.7186 15.8777 11.484
O 12.3839 14.5168 13.3766
O 14.5575 10.45 13.122
O 11.5545 16.4032 15.2326
O 14.1675 12.2346 15.3086
324
 Atoms. Timestep: 15000
Si 14.9952 4.29345 0.1755
Si 2.85757 17.3244 0.292454
Si 1.51428 6.8312 3.70618
Si 3.95638 2.46645 3.64806
Si 1.46745 2.24418 2.07566
Si 4.06504 6.33793 1.8791
O 1.52094 5.61234 4.91212
O 3.70294 1.28284 4.81814
O 2.40149 3.04669 3.14684
O 5.1676 6.90809 3.0062
O 2.09069 0.727436 1.69559
O 4.46406 4.75923 1.40542
O 1.19791 3.19302 0.801627
O 3.84655 7.43242 0.696405
O 2.52177 6.37345 2.47575
O 4.73427 2.02689 2.30911
O 1.9704 8.108 4.38144
O 4.64699 3.83328 4.13318
Si 5.42765 4.38673 16.2977
Si 7.69685 17.1138 0.354125
Si 6.48102 6.71342 3.87225
Si 8.74666 2.29866 3.95807
Si 6.39895 2.17264 2.00284
Si 8.82846 6.57501 2.00475
O 6.1973 5.77586 5.15996
O 8.51644 1.32164 5.27776
O 7.40231 2.81686 3.14293
O 9.78887 7.2797 3.17518
O 6.83841 0.675196 1.50491
O 9.5455 5.15101 1.60641
O 6.46129 3.20795 0.841851
O 8.39959 7.40946 0.732222
O 7.66128 6.10435 3.02734
O 9.60405 1.76667 2.43255
O 6.92392 8.20487 4.33548
O 9.27685 3.70061 4.48636
Si 10.0669 4.4224 0.176767
Si 12.7294 16.9619 16.2602
Si 11.1413 6.62524 3.75914
Si 13.5538 2.29887 3.70514
Si 11.0727 2.01936 1.79107
Si 13.539 6.54758 2.13605
O 10.8766 5.55141 4.97924
O 13.7557 1.40353 5.01119
O 12.0392 2.37489 3.05598
O 14.7977 6.91309 3.03019
O 11.6525 0.464574 1.27625
O 14.0665 5.12455 1.33691
O 11.186 3.28555 0.704045
O 13.3584 7.81899 1.19882
O 12.3662 6.0954 3.00616
O 14.6428 1.67984 2.47369
O 11.8404 8.14528 4.45621
O 14.1928 3.70734 4.12578
Si 14.8408 12.5514 16.2831
Si 2.61363 8.49079 0.274509
Si 1.50841 15.1309 3.46387
Si 3.81399 11.2243 3.64402
Si 1.38523 10.4771 2.09857
Si 4.05157 15.1619 1.78686
O 1.43248 14.2475 4.91547
O 3.24722 10.099 4.75797
O 2.45624 11.5557 2.68009
O 4.89028 15.2653 3.09628
O 2.20198 9.0468 1.76312
O 4.2365 13.6826 1.1994
O 0.908305 11.1379 0.648807
O 4.16675 16.3195 0.700366
O 2.47454 14.8939 2.19753
O 5.04626 10.5075 3.04372
O 1.74395 16.5412 4.33885
O 4.41492 12.6602 3.8892
Si 5.08456 12.913 16.2035
Si 7.62285 8.80592 0.226172
Si 6.49652 15.1547 3.87073
Si 8.76088 11.3888 3.90199
Si 6.50242 10.8484 2.23571
Si 8.86922 15.0264 2.08637
O 6.55752 14.0673 5.19357
O 8.58418 10.1193 4.78514
O 7.36595 11.7525 3.21933
O 9.78808 15.4458 3.37888
O 7.02306 9.45524 1.54401
O 9.31846 13.6954 1.2524
O 6.03024 11.6292 0.660157
O 8.8628 16.0582 0.764923
O 7.3681 14.8856 2.6278
O 9.78221 11.4102 2.65779
O 6.83239 16.6466 4.493
O 8.91218 12.8767 4.7736
Si 10.1385 13.0108 16.2926
Si 12.4342 8.91017 0.391441
Si 11.3178 15.0343 3.75621
Si 13.6776 11.1732 4.11816
Si 11.2498 10.9442 2.0543
Si 13.8949 14.9021 1.85231
O 11.4631 13.6529 4.70685
O 13.0526 10.4602 5.43676
O 12.4745 11.4599 2.84993
O 14.8458 15.5697 2.82522
O 11.3885 9.3694 1.50986
O 14.3721 13.4875 1.25231
O 11.0248 11.8198 0.571348
O 13.6003 15.607 0.375741
O 12.2112 14.6213 2.3956
O -0.0165742 10.534 3.10614
O 11.8755 16.512 4.27245
O 14.0967 12.749 4.34418
Si 0.273794 4.51347 5.40318
Si 2.64541 0.158685 5.45694
Si 1.13932 6.78421 9.0042
Si 3.787 2.58501 9.40083
Si 1.17696 2.18509 7.63915
Si 3.68787 6.47769 7.23139
O 1.2937 5.75411 10.2334
O 3.88643 1.38568 10.5021
O 2.29493 2.74825 8.90651
O 4.36909 6.88746 8.96368
O 1.73602 0.855284 6.64367
O 4.2593 4.92889 6.75375
O 0.801413 3.47881 6.50197
O 3.95219 7.85731 6.26606
O 2.18301 6.28426 7.74123
O 4.5296 1.62974 8.09206
O 1.79666 8.05924 9.7198
O 4.52304 3.93614 9.71482
Si 5.35395 4.50271 5.619
Si 7.85293 17.1248 5.82775
Si 6.00441 6.96246 9.11272
Si 8.68704 2.35861 8.86541
Si 6.0437 1.98229 7.44626
Si 8.70177 6.58426 7.26688
O 6.23983 5.54652 10.2947
O 8.89326 1.01378 9.74662
O 7.12099 2.487 8.55317
O 9.43166 7.15404 8.60229
O 6.63876 0.768474 6.66705
O 9.07007 5.06812 6.68144
O 6.0581 3.35952 6.42276
O 8.89635 7.4836 5.86235
O 7.1877 6.49226 8.0063
O 9.65331 2.17465 7.60708
O 6.609 8.33003 9.78524
O 8.95918 3.79426 9.59009
Si 10.1643 4.3488 5.68682
Si 12.8205 17.1244 5.55598
Si 10.8665 6.85925 8.95869
Si 13.6466 2.26907 9.42496
Si 11.1927 2.11521 7.34197
Si 13.4641 6.47653 7.10552
O 10.8221 5.62502 10.2187
O 13.5684 1.37045 10.7051
O 12.2561 2.6984 8.48574
O 14.3895 6.82526 8.41071
O 11.932 0.677975 6.79139
O 13.651 5.1697 6.05873
O 11.3805 3.27606 6.11255
O 13.7846 7.79335 6.18187
O 11.8454 6.06869 7.82019
O 14.5482 1.84184 8.28212
O 11.6277 8.18321 9.59375
O 14.0508 3.57714 10.1587
Si 0.283522 13.1277 5.55612
Si 2.86309 8.78415 5.57854
Si 1.2895 15.2467 9.15563
Si 3.60742 11.0096 9.34042
Si 1.22579 10.7259 7.43169
Si 3.74112 15.0282 7.2957
O 1.38913 14.2479 10.5379
O 3.56336 10.1213 10.6503
O 2.1254 10.9234 8.69362
O 4.97871 15.4109 8.29048
O 1.87443 9.39342 6.79711
O 3.97617 13.6264 6.41602
O 1.18418 11.9825 6.29408
O 3.51485 16.1008 6.0995
O 2.25426 14.5233 8.03318
O 4.58793 10.3973 8.07346
O 1.88318 16.7407 9.59923
O 4.04402 12.6098 9.73451
Si 5.09866 12.9801 5.43253
Si 7.94246 8.79843 5.58645
Si 6.27425 15.175 9.0724
Si 8.35844 10.8535 9.23594
Si 5.93574 10.637 7.34652
Si 8.98984 14.9755 7.61032
O 6.18312 14.0297 10.345
O 8.4039 10.0289 10.5902
O 6.7855 11.1938 8.85874
O 10.0997 15.7292 8.57066
O 6.89238 9.38401 6.71271
O 9.7293 13.7419 6.86684
O 5.88691 11.7148 6.06743
O 8.9917 16.2339 6.52029
O 7.55473 14.7553 8.13158
O 9.40419 10.1974 8.01741
O 6.54218 16.7519 9.62679
O 9.15051 12.1489 9.76153
Si 10.3109 12.929 5.65562
Si 12.4823 8.83455 5.82251
Si 11.5063 15.1991 9.23011
Si 13.5144 11.1033 9.40858
Si 10.8985 10.5328 7.85364
Si 13.8965 15.0424 7.42068
O 11.1507 13.9184 10.1185
O 13.2242 10.0558 10.5719
O 11.9893 11.1728 8.80433
O 14.7338 15.7784 8.52342
O 11.4236 9.22877 6.91759
O 14.2651 13.6499 6.78251
O 10.9844 11.7734 6.60623
O 13.6166 15.8333 5.94187
O 12.6582 14.3938 8.26688
O 14.4493 10.8428 7.89641
O 12.1863 16.6181 9.7473
O 13.8933 12.6016 10.0741
Si 0.415038 4.48176 10.9149
Si 2.78489 17.1794 10.827
Si 1.11096 6.60804 14.6796
Si 3.77692 2.48438 14.4342
Si 1.35911 2.41278 12.6899
Si 3.64119 6.55402 12.8101
O 1.17018 4.97632 15.2746
O 3.49574 1.57204 15.821
O 2.30683 2.94259 14.0298
O 4.54618 7.3845 13.8497
O 2.11971 0.89104 12.1458
O 4.31265 4.99332 12.4056
O 1.52918 3.50763 11.3973
O 3.63696 7.61208 11.5315
O 2.12994 6.37588 13.2974
O 4.79924 1.66621 13.4087
O 1.46149 7.81367 15.6841
O 4.72618 3.55414 15.1397
Si 5.22486 4.57309 11.0168
Si 7.72131 0.322249 10.6861
Si 5.97099 6.94026 14.7187
Si 8.74695 2.46919 14.668
Si 6.23179 2.08873 12.8157
Si 8.46127 6.35619 12.8685
O 6.01302 5.77458 15.7646
O 8.7855 1.30389 15.789
O 7.3024 2.69282 13.9178
O 9.62822 6.46503 14.1191
O 7.13269 0.841796 11.9858
O 8.84696 4.93179 11.9009
O 6.04998 3.35752 11.8189
O 8.419 7.59199 11.7175
O 6.87275 6.26553 13.5428
O 9.67729 1.72666 13.5044
O 6.61871 8.35471 15.1902
O 9.1406 4.02831 15.1389
Si 9.95734 4.28718 10.8838
Si 12.656 17.1656 11.2604
Si 11.2044 6.59577 14.5795
Si 13.422 2.3757 14.515
Si 11.0143 2.02497 12.5824
Si 13.5561 6.49135 12.7711
O 11.3903 5.42206 15.7823
O 13.7405 1.07303 15.5583
O 12.0618 2.55563 13.7561
O 14.3459 7.04164 14.2525
O 11.2687 0.588762 11.9274
O 14.2607 5.26071 11.995
O 10.5619 3.10884 11.6165
O 13.4867 7.61867 11.6498
O 12.064 6.37686 13.1754
O 14.6495 2.21942 13.3094
O 11.487 8.2445 15.2542
O 13.8095 3.55632 15.5197
Si 0.386978 12.9804 11.1405
Si 2.54853 8.67116 10.9974
Si 1.68417 14.8701 14.8139
Si 3.54279 10.8306 14.4992
Si 1.14196 10.6194 12.7646
Si 4.11355 14.9359 12.7032
O 1.37348 13.5647 15.5683
O 3.48133 9.65943 15.5928
O 1.9955 11.132 14.0171
O 5.13739 15.7551 13.5806
O 1.64545 9.24642 12.243
O 4.63684 13.4778 12.1995
O 1.34591 11.8132 11.6996
O 3.80054 15.6845 11.2813
O 2.77554 14.658 13.6041
O 4.4048 10.5005 13.1928
O 2.13841 16.0357 15.906
O 4.041 12.1828 15.1973
Si 5.25903 12.9039 10.8916
Si 7.51868 8.71853 11.1135
Si 6.38193 15.3222 14.5158
Si 8.51262 11.1363 14.6902
Si 6.02334 10.6311 12.6277
Si 8.76914 15.0205 12.5387
O 6.24145 13.9836 15.5293
O 8.5615 10.0318 15.8597
O 6.84876 11.198 14.0291
O 10.381 15.4331 13.2098
O 6.34906 9.10514 12.0897
O 8.89547 13.4745 12.0747
O 6.09268 11.7795 11.4763
O 8.80718 16.0428 11.2754
O 7.60946 14.9628 13.6593
O 9.50258 10.4632 13.4964
O 6.71191 16.6653 15.4282
O 8.93011 12.6112 15.2454
Si 10.0635 12.952 10.9158
Si 12.375 8.69393 10.9297
Si 11.3599 15.019 14.4209
Si 13.3593 10.8885 14.4893
Si 10.7953 10.513 12.6724
Si 13.9965 15.1282 13.0873
O 11.1484 13.8856 15.5028
O 13.1207 10.2077 15.9603
O 11.9243 11.0976 13.7951
O 0.381152 15.5845 14.2031
O 11.2608 9.04494 12.0688
O 14.3566 14.0074 12.0514
O 10.9233 11.7061 11.6899
O 13.5315 16.2559 12.1556
O 12.8298 14.7626 13.8912
O 14.2507 10.3518 13.199
O 11.5371 16.4232 15.157
O 13.9371 12.2225 15.0192
324
 Atoms. Timestep: 15500
Si 0.466312 4.40572 0.154337
Si 3.06729 17.1394 0.261714
Si 1.25938 6.72578 4.06325
Si 3.68435 2.30255 3.91999
Si 1.26772 1.86822 2.04104
Si 3.60327 6.19442 2.30662
O 1.51971 5.75957 5.35921
O 4.10163 1.13466 5.05612
O 2.27478 2.39735 3.19648
O 4.5932 6.84595 3.4793
O 2.22076 0.705134 1.42198
O 4.43054 4.9067 1.86288
O 1.31457 3.19521 0.942128
O 3.79607 7.32695 1.02662
O 2.1022 6.2156 2.7414
O 4.40562 2.28353 2.45257
O 1.55222 8.15395 4.55297
O 4.03479 3.79881 4.36616
Si 5.11123 4.29878 0.481169
Si 7.65962 17.259 0.477562
Si 6.33273 6.50576 3.70424
Si 8.71617 2.39976 3.67274
Si 6.06069 2.21056 2.12441
Si 8.76431 6.44967 1.72257
O 6.0828 5.32149 4.68595
O 8.30848 1.44736 4.80787
O 7.48443 2.96142 2.72371
O 9.91844 7.34386 2.5491
O 6.33085 0.522221 1.50594
O 9.30331 4.95212 1.62768
O 6.1601 3.05286 0.729375
O 8.6337 7.45982 0.407932
O 7.2422 6.24313 2.35145
O 9.95912 2.00781 2.77344
O 6.91947 7.90043 4.28488
O 9.02619 3.82014 4.35527
Si 10.2664 4.29107 0.422782
Si 12.7292 0.117749 16.4464
Si 11.139 6.64932 3.51314
Si 13.8391 2.36337 3.99041
Si 11.4743 2.17811 2.00574
Si 13.6823 6.52816 2.08116
O 10.7411 5.71847 4.67313
O 13.753 1.40005 5.21419
O 12.3043 2.63753 3.31061
O 14.528 6.8138 3.39005
O 12.1078 0.692565 1.60192
O 14.4707 5.37295 1.23106
O 11.0979 2.99383 0.745907
O 13.5736 7.8939 1.21553
O 12.4004 5.91854 2.79138
O 14.6942 1.57735 2.75189
O 11.5992 7.89164 4.59623
O 14.4896 3.72652 4.48787
Si 14.6581 12.9455 16.2416
Si 2.71916 8.40227 0.303639
Si 1.30534 15.1978 3.77317
Si 3.61099 10.6952 3.73844
Si 1.23947 10.6859 1.62386
Si 3.84377 14.7414 2.02778
O 1.60793 14.0855 4.94751
O 3.55931 9.56917 4.78481
O 2.13397 11.0355 3.09431
O 5.06039 14.929 3.0321
O 1.70676 9.01094 1.36893
O 4.26079 13.3391 1.4902
O 1.17075 11.7676 0.338399
O 4.06843 15.9872 1.01695
O 2.41046 14.8608 2.69185
O 4.71135 10.7372 2.43457
O 1.94248 16.5301 4.44648
O 3.85975 11.9522 4.72957
Si 5.1883 12.9053 16.3875
Si 7.65046 8.65316 16.2753
Si 6.36824 14.6342 3.8169
Si 8.48446 10.8855 3.88895
Si 6.2371 10.7541 1.86908
Si 8.89923 14.8509 1.9035
O 6.40438 13.4595 4.84753
O 8.29409 10.0566 5.20411
O 6.89926 10.9487 3.31523
O 9.79468 15.5172 3.0607
O 6.73155 9.33262 1.1127
O 9.17048 13.3767 1.22122
O 6.38806 11.936 0.758489
O 8.65684 16.0826 0.954456
O 7.5833 14.6468 2.69611
O 9.75416 10.5988 2.81923
O 6.92876 16.0521 4.49792
O 9.19911 12.5791 4.2266
Si 9.93873 12.8335 16.2006
Si 12.3664 8.57489 0.0912043
Si 11.3315 15.6016 3.62499
Si 13.6838 10.9907 3.50772
Si 11.1194 10.6654 1.91566
Si 13.5872 14.9782 1.87143
O 11.2343 14.4298 4.97771
O 13.4819 9.83696 4.6866
O 12.2659 11.2071 2.7563
O 14.4937 15.3772 3.22638
O 11.3664 9.10219 1.3182
O 13.7919 13.4717 1.28552
O 10.9936 11.597 0.45329
O 13.492 15.9423 0.561348
O 12.1576 14.689 2.58675
O 14.5156 10.3544 2.29163
O 12.0736 16.8454 4.20736
O 14.1173 12.4793 4.21103
Si 0.356019 4.60836 5.64701
Si 2.98398 17.2138 5.66351
Si 1.27721 6.6618 9.08479
Si 3.86093 2.1704 9.31963
Si 1.36152 2.28997 7.36638
Si 3.85148 6.55509 7.34635
O 1.57518 5.75566 10.3559
O 3.84667 0.858296 10.1938
O 2.39209 2.58549 8.66269
O 4.73006 7.28039 8.51575
O 1.92608 1.04598 6.62574
O 4.4122 5.0907 6.79778
O 1.19138 3.73925 6.68951
O 3.77689 7.60815 6.02665
O 2.19062 6.07681 7.8103
O 4.96289 2.04946 8.18761
O 1.67791 8.14832 9.51916
O 4.25097 3.38686 10.1223
Si 4.94721 4.52168 5.46751
Si 7.78451 17.0768 5.56737
Si 6.24263 6.52391 9.04583
Si 8.82783 2.65752 9.14353
Si 6.42828 2.11749 7.18222
Si 8.7717 6.25757 7.38579
O 5.57901 5.26296 9.8356
O 8.33488 1.82531 10.5051
O 7.43256 2.81185 8.24608
O 9.64789 6.77474 8.74472
O 6.74148 0.609127 6.64586
O 9.11615 5.11612 6.44672
O 6.15219 3.2988 6.14531
O 8.59849 7.49227 6.3162
O 7.27925 5.98424 7.97133
O 10.016 2.12424 8.32445
O 6.58036 7.80765 9.93747
O 9.36528 4.05588 9.66185
Si 10.0558 4.48917 5.44207
Si 12.6054 0.209626 5.5778
Si 11.1047 6.68689 9.05066
Si 13.8415 2.62997 9.03383
Si 11.1934 2.45255 7.33043
Si 13.6588 6.46735 7.33079
O 11.4113 5.59922 10.4608
O 13.3572 1.8878 10.5386
O 12.4701 3.17058 8.15362
O 14.5795 6.87487 8.50901
O 11.3952 0.860587 6.4884
O 13.9828 5.32013 6.37089
O 11.0356 3.43756 6.14438
O 13.6345 7.8956 6.3001
O 12.1377 6.36525 7.87102
O 14.6172 1.71364 7.9052
O 11.5412 8.19083 9.7558
O 14.6823 3.84856 9.7
Si 0.339149 12.8382 5.49917
Si 2.70673 8.49749 5.56156
Si 1.435 15.0518 9.44629
Si 3.70417 11.0361 9.0632
Si 1.27389 10.7988 7.22504
Si 4.03888 15.0882 7.52076
O 1.31587 13.8867 10.4701
O 3.01395 10.1117 10.2021
O 2.23439 11.6149 8.34251
O 5.22883 15.8494 8.17874
O 1.8559 9.28891 6.80916
O 4.42397 13.6331 6.86259
O 1.25426 11.5199 5.75272
O 3.60414 15.7808 6.18156
O 2.92662 14.6658 8.75538
O 4.69823 10.2318 7.82935
O 1.73932 16.4556 10.1972
O 4.75694 12.2724 9.6235
Si 4.95364 12.75 5.58138
Si 7.56831 8.44688 5.68055
Si 6.47693 15.4464 9.30157
Si 8.70201 11.1489 8.92562
Si 6.10044 10.6221 7.26258
Si 8.94823 15.0847 7.54516
O 6.17797 14.3165 10.4765
O 8.28604 10.0919 10.3263
O 7.23723 11.2868 8.27838
O 9.88794 15.8823 8.50443
O 6.57773 9.06018 6.94725
O 9.27938 13.7587 6.77746
O 6.04571 11.637 5.98051
O 8.75937 16.061 6.29637
O 7.49571 14.8258 8.2267
O 9.80852 10.5323 7.86978
O 6.8087 16.9019 9.93385
O 9.08345 12.5099 9.723
Si 10.0558 13.2227 5.37765
Si 12.5813 8.8506 5.41361
Si 11.4531 15.4596 9.17827
Si 13.4377 10.8402 9.02178
Si 11.1786 10.8696 7.14188
Si 13.7976 15.1255 7.2633
O 11.1069 14.2259 10.0298
O 13.132 9.87475 10.2047
O 12.3961 11.4504 7.99619
O -0.00975229 15.2472 8.64
O 11.5477 9.2905 6.63686
O 14.3628 13.7645 6.52899
O 11.1134 11.9777 6.02483
O 13.5387 16.2284 6.18289
O 12.5054 14.8799 8.0477
O 14.6637 10.6389 7.92359
O 12.0934 16.9948 9.46707
O 13.8595 12.2489 9.65955
Si 0.565329 4.61703 10.9539
Si 2.73024 17.3065 11.2033
Si 1.31353 6.62154 14.503
Si 4.00018 2.58057 14.6922
Si 1.3965 2.39993 13.0759
Si 3.7506 6.50168 12.6683
O 1.38981 5.33388 15.5632
O 3.84374 1.22445 15.8253
O 2.35015 2.84928 14.2273
O 4.82633 6.74663 13.8497
O 2.16581 1.29088 12.1789
O 3.99341 4.99147 11.9091
O 1.36293 3.54958 11.6801
O 3.70284 7.83596 11.7789
O 2.26865 6.19275 13.2955
O 4.84075 2.20241 13.3553
O 2.14618 7.74246 15.1852
O 4.04548 3.9268 15.6226
Si 5.16318 4.26246 11.018
Si 7.70763 0.461621 11.209
Si 6.28141 6.64775 14.687
Si 8.79642 2.36717 14.8363
Si 6.32688 2.34879 13.0355
Si 8.65188 6.65372 12.7197
O 6.21693 5.44673 15.928
O 8.8149 1.19043 16.0022
O 7.18144 2.58851 14.3649
O 9.60832 6.36885 14.0165
O 6.92741 0.983421 12.3804
O 9.06952 5.32324 11.8457
O 6.40653 3.6297 11.9536
O 8.50249 7.90444 11.7338
O 7.3509 6.3184 13.7245
O 9.64212 2.28835 13.4322
O 6.42837 8.1499 15.3236
O 9.07589 3.77832 15.7082
Si 10.1684 4.66966 10.917
Si 12.6684 0.425904 11.1379
Si 11.1153 6.17278 14.5889
Si 13.6236 2.69541 14.6105
Si 11.1542 2.5298 12.8161
Si 13.5981 6.29299 12.7222
O 11.1171 5.16943 15.6958
O 13.6517 1.51755 15.9087
O 12.1254 3.09253 14.1946
O 14.5247 6.58146 14.041
O 11.4113 0.967765 12.2231
O 14.0907 5.11121 11.7535
O 10.9232 3.31821 11.4972
O 13.5528 7.6728 11.7865
O 12.1328 5.90873 13.3231
O 14.7532 2.10355 13.6241
O 11.597 7.63738 15.4303
O 14.0764 4.10634 15.2679
Si 14.6656 13.0844 10.9053
Si 2.44213 8.67537 10.8753
Si 1.71458 15.0734 14.805
Si 3.54576 10.8125 14.6818
Si 1.07573 10.6145 12.745
Si 3.92967 14.9152 12.9384
O 0.731646 14.3724 15.8951
O 3.52728 9.71256 15.7598
O 2.08235 11.1704 13.8739
O 5.36205 15.415 13.5668
O 1.34582 9.13227 12.0683
O 4.04859 13.5936 11.9175
O 0.994233 11.8141 11.5941
O 3.23493 15.9706 11.936
O 3.02101 14.3094 14.2143
O 4.34334 10.3462 13.3553
O 2.40484 16.6369 15.1789
O 4.28524 12.3359 15.1647
Si 5.32716 12.993 11.1177
Si 7.34365 8.77675 10.9449
Si 6.48038 15.2216 14.688
Si 8.41064 10.9523 14.5562
Si 5.92481 10.5222 12.8303
Si 8.83518 15.25 12.5673
O 6.34635 13.9003 15.6413
O 8.70283 9.40962 15.1342
O 6.69414 11.006 14.2751
O 10.4857 15.669 13.145
O 6.37065 9.35958 11.9109
O 9.00284 13.7325 11.9357
O 6.15842 12.0866 12.1239
O 8.84568 16.2484 11.4173
O 7.78257 14.9146 13.7746
O 9.40249 10.6555 13.0988
O 6.6876 16.6307 15.5089
O 8.72796 12.2867 15.2762
Si 10.1088 13.1683 10.9216
Si 12.4399 8.7404 11.113
Si 11.1607 15.6606 14.6166
Si 13.3305 10.8569 14.4447
Si 10.8999 10.6095 12.668
Si 13.8209 15.2317 13.0127
O 10.5649 14.2405 15.2691
O 13.421 9.76191 15.7668
O 11.8121 11.392 13.8135
O 0.611087 15.344 13.7448
O 11.6102 9.22378 12.339
O 13.6061 13.9554 11.8809
O 10.9669 11.962 11.6349
O 13.6996 16.6679 12.0395
O 12.6606 15.2002 14.1664
O 14.1751 10.4435 13.2934
O 11.4405 16.9415 15.476
O 13.6899 12.2691 15.2227
324
 Atoms. Timestep: 16000
Si 0.154437 4.47773 0.127025
Si 2.34301 17.2949 16.3889
Si 1.15287 6.71311 3.84673
Si 3.82122 2.10472 3.66779
Si 1.27097 2.17981 1.8238
Si 3.58552 6.75302 1.92384
O 1.32143 5.66415 5.06931
O 3.62496 1.09969 5.02978
O 2.47472 2.53012 2.93206
O 4.89629 7.31 2.95765
O 1.36651 0.575142 1.47355
O 4.1253 5.77066 0.78379
O 1.33541 3.59232 0.751376
O 3.19965 7.98556 0.957999
O 2.30055 6.23167 2.60795
O 4.79863 1.55566 2.58633
O 1.5669 8.21663 4.35143
O 4.47749 3.46857 4.394
Si 4.93599 4.58494 16.373
Si 7.32539 17.3131 16.2429
Si 6.00652 6.70669 3.81565
Si 8.62758 2.50181 3.95377
Si 6.26561 2.36399 1.91561
Si 8.45109 6.29921 2.02084
O 5.82596 5.50268 4.79322
O 8.52613 1.17012 4.87992
O 7.27478 2.68922 3.06094
O 9.54487 6.93578 3.192
O 6.82647 1.13796 0.944787
O 9.10147 4.90833 1.36754
O 5.68136 3.44296 0.9307
O 8.67652 7.53143 0.814019
O 7.0618 5.91458 2.70292
O 9.57916 2.22394 2.7219
O 6.76106 8.14145 4.50233
O 9.0746 3.96015 4.50125
Si 10.14 4.50881 0.186884
Si 12.6773 17.3405 0.547073
Si 11.1722 6.61398 3.69668
Si 13.6993 2.34858 3.74403
Si 11.1393 2.42696 2.06834
Si 13.5589 6.45465 1.83856
O 11.3136 5.58585 5.03443
O 13.5282 0.88619 4.59871
O 12.1125 2.94902 3.438
O 14.5248 6.74181 3.14695
O 11.8017 1.0466 1.47741
O 14.0598 5.07305 1.11063
O 11.3912 3.61315 0.846804
O 13.7168 7.46168 0.597132
O 12.0411 6.19772 2.3611
O 14.926 2.1545 2.73457
O 11.6108 8.04689 4.32276
O 14.3573 3.7627 4.54889
Si 0.107695 13.2308 16.418
Si 2.57603 8.99282 16.1991
Si 1.1353 15.1421 3.78898
Si 3.7136 10.8456 3.56895
Si 1.00185 10.9449 1.81305
Si 3.58468 14.8801 1.89538
O 1.15697 14.0072 5.01243
O 3.77988 9.79775 4.80079
O 2.29912 10.9207 2.97969
O 4.6083 15.6908 2.86554
O 1.37097 9.8424 0.55733
O 4.56581 13.7486 1.23498
O 1.1743 12.296 1.03643
O 3.20471 15.9571 0.589608
O 2.12563 14.5748 2.67763
O 4.65575 10.2714 2.24512
O 2.04595 16.4288 4.25303
O 4.44547 12.2743 4.00275
Si 5.3252 12.9274 16.2355
Si 7.80942 8.68746 16.4425
Si 5.98108 15.4251 3.74826
Si 8.637 10.8356 3.52039
Si 6.04672 10.5273 1.6558
Si 8.53268 15.1679 1.80443
O 6.05265 14.212 4.88014
O 8.78162 9.6755 4.67719
O 6.91604 10.9139 2.96375
O 9.62266 15.8174 2.86743
O 6.60041 9.07021 1.12226
O 9.03108 13.555 1.42302
O 6.24177 11.5021 0.341842
O 8.01663 15.8831 0.481836
O 7.17259 15.1154 2.67269
O 9.43197 10.2921 2.2098
O 6.42611 16.8569 4.47003
O 9.34283 12.0181 4.42917
Si 10.212 12.8993 0.386627
Si 12.7236 8.7997 16.4335
Si 10.9375 15.4461 3.83437
Si 13.413 10.8138 3.53977
Si 10.9922 10.5379 1.84717
Si 13.4842 15.0751 1.96503
O 10.6891 13.9375 4.59755
O 13.6591 9.58803 4.54261
O 12.0467 11.1813 2.84706
O 14.3979 15.4707 3.31091
O 11.6979 9.18451 1.29777
O 13.818 13.7654 1.13625
O 11.2048 11.6844 0.768147
O 13.8059 16.5422 1.24111
O 12.2029 15.2286 2.82781
O 14.5478 10.4979 2.49452
O 11.4211 16.5571 5.02825
O 13.9366 12.2157 4.05639
Si 0.354291 4.35134 5.82617
Si 2.96643 17.0251 5.51892
Si 1.44538 6.84541 9.26315
Si 3.87665 2.00684 9.39049
Si 1.38345 1.77314 7.35905
Si 3.9687 6.44926 7.39964
O 1.05813 6.01576 10.6194
O 3.75485 0.639594 10.5216
O 2.37966 2.12307 8.53153
O 4.94201 7.07007 8.49869
O 1.75887 0.422395 6.5562
O 4.33977 4.99477 6.7734
O 1.37305 3.05702 6.24582
O 3.62398 7.60972 6.10166
O 2.49136 6.13114 8.21395
O 5.11072 1.90436 8.23141
O 1.78366 8.40093 9.78666
O 4.17569 3.25871 10.2632
Si 5.14304 4.31213 5.43758
Si 7.71355 17.0896 5.53358
Si 6.42299 6.50766 9.11103
Si 8.84753 2.26025 9.27724
Si 6.49876 2.09278 7.3929
Si 8.85719 6.40951 7.39672
O 6.1177 5.36894 10.0279
O 8.45101 1.3521 10.5659
O 7.3436 2.75272 8.61224
O 9.8264 7.10873 8.72173
O 6.9981 0.459767 6.85779
O 9.56611 5.0558 6.909
O 6.27843 3.0279 6.12311
O 8.93737 7.58228 6.25899
O 7.29547 6.17452 7.74636
O 9.67275 1.53434 8.03019
O 7.07008 7.73203 9.95505
O 9.52036 3.53276 9.96332
Si 10.4329 4.45384 5.75178
Si 12.7872 17.1846 5.74024
Si 11.393 6.77998 9.14067
Si 13.8233 2.38061 9.23429
Si 11.3561 2.04716 7.75899
Si 13.9163 6.40119 7.31829
O 11.1887 5.81316 10.5718
O 13.4211 1.29201 10.5386
O 12.3307 2.88072 8.60469
O 14.8805 7.02067 8.33913
O 12.2136 0.689377 7.22758
O 14.5245 5.03355 7.0264
O 11.1462 2.99245 6.2499
O 13.5523 7.33797 5.84365
O 12.2694 6.27342 7.8
O 14.7204 1.68158 8.07027
O 12.2003 8.29318 9.66937
O 14.4912 3.76464 9.82362
Si 14.6827 12.835 5.32931
Si 2.71775 8.78952 5.47452
Si 1.13056 15.0705 9.10174
Si 4.06326 10.9444 9.21193
Si 1.42293 10.7479 7.4175
Si 3.73908 14.8277 7.31438
O 0.994209 14.012 10.2794
O 3.63898 10.2196 10.6882
O 2.54149 11.3809 8.61685
O 4.89266 15.4619 8.45417
O 1.8746 9.36487 6.6473
O 4.05016 13.5059 6.49759
O 0.907816 11.9146 6.18094
O 3.77465 15.6677 5.94841
O 2.41531 14.8983 8.0934
O 4.90794 10.1872 8.28948
O 1.29107 16.6146 9.94205
O 4.7305 12.5046 9.38986
Si 5.11728 12.7992 5.37216
Si 7.81945 8.46997 5.61702
Si 6.31862 15.4631 9.42428
Si 9.03178 11.0644 8.96386
Si 6.44597 10.6657 7.35259
Si 8.86203 15.2291 7.44719
O 6.13643 14.5839 10.6975
O 9.15263 9.73726 10.0827
O 7.45773 11.3715 8.35464
O 9.93354 15.7853 8.52439
O 7.25137 9.36952 6.95201
O 9.19825 13.5301 7.02017
O 5.68858 11.664 6.28253
O 8.31115 15.6556 5.91316
O 7.28227 14.9298 8.17501
O 9.88911 10.3108 7.82
O 6.77287 16.8316 10.115
O 8.98547 12.591 9.98963
Si 9.97992 12.876 5.62228
Si 12.8456 8.54993 5.35783
Si 11.4025 15.4717 9.29285
Si 13.8503 10.9283 9.03487
Si 11.3789 10.7206 7.08475
Si 13.6219 14.9601 7.01527
O 11.1154 14.1733 10.2209
O 13.835 10.135 10.4749
O 12.5187 10.7937 8.18156
O 14.7982 15.0206 8.07619
O 11.8976 9.22758 6.51342
O 13.4738 13.4675 6.19638
O 11.2401 12.0927 6.35102
O 13.8884 16.0032 5.75876
O 12.376 14.9565 8.08534
O 0.0843308 10.2375 8.15374
O 11.7463 16.854 9.86905
O 14.5123 12.3093 9.43432
Si 0.337391 4.57136 10.9176
Si 2.36901 17.0985 11.1011
Si 1.17396 6.61613 14.5362
Si 3.58552 2.44611 14.6479
Si 1.0592 2.08603 12.6864
Si 3.75819 6.40344 12.8025
O 0.765862 5.66827 15.7019
O 3.47936 1.16387 16.0113
O 2.03556 2.04542 14.0606
O 4.79597 7.29043 13.9669
O 1.26902 0.820301 11.8559
O 4.37255 5.22645 11.9968
O 1.0415 3.45143 11.8502
O 3.51649 7.56624 11.7173
O 2.27295 6.04061 13.4884
O 4.70087 2.04589 13.5072
O 1.70848 8.01919 15.0325
O 3.89979 3.79207 15.5477
Si 5.31267 4.12416 10.9937
Si 7.67878 0.211987 11.3237
Si 6.24795 6.82657 14.6571
Si 8.63545 2.3554 14.5687
Si 6.24195 2.27723 12.9713
Si 8.71417 6.89483 12.9106
O 6.11348 5.44758 15.5758
O 8.38047 0.872377 15.1121
O 7.12393 2.74078 14.2456
O 9.50227 7.01395 14.2808
O 6.37025 0.804392 12.3033
O 9.26635 5.54855 12.2997
O 6.34728 3.30963 11.7969
O 8.87912 8.13604 11.9809
O 7.14342 6.54049 13.4376
O 9.62382 2.05488 13.2782
O 6.99109 8.21695 15.125
O 9.51257 3.34441 15.5875
Si 10.1458 4.64252 11.1233
Si 12.451 0.247798 11.1868
Si 11.0271 6.76779 14.7126
Si 13.4869 2.36368 14.6818
Si 11.1565 2.37517 12.9943
Si 13.5212 6.45512 12.762
O 10.9862 5.62968 15.8245
O 13.3254 1.0421 15.6582
O 11.987 2.8841 14.3384
O 14.529 6.91076 14.0643
O 11.6525 0.944947 12.3111
O 14.02 5.06602 12.0305
O 11.2711 3.57859 11.8992
O 13.7754 7.80374 11.9193
O 11.8763 6.10879 13.4406
O 14.6011 1.83879 13.4514
O 11.7758 8.17019 15.2346
O 14.2392 3.41708 15.6316
Si 0.134248 12.7664 10.905
Si 2.70674 8.97024 11.0935
Si 1.40937 15.2731 14.5168
Si 3.79319 10.8254 14.3327
Si 1.20977 10.6595 13.017
Si 3.59292 14.7584 12.7953
O 1.10716 14.3467 15.9044
O 3.77256 9.59821 15.2837
O 2.16257 11.0506 14.2247
O 5.1894 15.0019 13.207
O 1.75361 9.3684 12.3337
O 3.66155 13.671 11.6193
O 0.903688 11.778 11.8846
O 2.80682 16.0285 12.2503
O 2.90665 14.6273 14.2573
O 4.93705 10.514 13.2031
O 1.53033 16.908 15.0103
O 4.41087 12.4091 14.9197
Si 5.12314 13.3355 10.8983
Si 8.03217 8.86429 10.8119
Si 6.26217 15.0456 14.6744
Si 8.64051 11.0955 14.5801
Si 6.28744 10.8775 12.4666
Si 9.04028 15.1701 13.101
O 6.49977 13.8157 15.7484
O 8.61111 9.74377 15.7042
O 7.19765 11.3499 13.8875
O 10.4172 15.4473 13.9464
O 6.94184 9.74677 11.6087
O 9.26556 13.8882 12.0996
O 5.9147 12.1918 11.6323
O 8.54624 16.3484 12.2424
O 7.69232 14.7854 13.8604
O 10.007 10.47 13.5402
O 6.26083 16.5277 15.3901
O 8.97291 12.3958 15.5857
Si 10.1024 13.163 10.9838
Si 12.8565 8.91162 11.001
Si 11.6817 15.3472 15.0606
Si 13.7045 11.012 14.7162
Si 11.3704 10.9808 12.9251
Si 13.9057 15.0582 12.6968
O 11.6598 13.7678 15.7783
O 13.6273 10.1019 15.9877
O 12.4171 11.5509 14.017
O 0.412077 15.3913 13.1323
O 12.0722 9.65235 12.2095
O 13.9485 13.5106 12.0956
O 11.0216 12.0914 11.6784
O 13.3124 16.0502 11.5946
O 12.9766 15.3033 14.0084
O 14.6256 10.3744 13.6959
O 11.4437 16.3405 16.2501
O 14.3974 12.369 15.2755
324
 Atoms. Timestep: 16500
Si 0.28134 4.46317 0.12864
Si 2.48145 0.272813 0.193898
Si 1.40104 6.15251 3.47488
Si 3.70646 2.30868 3.89226
Si 1.13124 2.23198 1.96204
Si 3.67854 6.51577 1.59549
O 0.698053 4.92946 4.29198
O 3.44458 1.21022 5.21657
O 2.24088 2.59327 3.29884
O 4.83463 6.42205 2.94801
O 1.38299 0.953579 1.17188
O 4.42456 6.00336 0.213713
O 1.24024 3.42338 0.923863
O 3.0984 7.99799 1.35892
O 2.55912 5.39823 2.29607
O 4.79832 1.78663 2.76603
O 2.2665 6.9869 4.51646
O 4.31979 3.61182 4.60437
Si 5.06346 4.57032 16.0923
Si 7.72724 0.263893 16.3161
Si 6.10385 6.44467 3.73024
Si 8.54558 2.26953 3.79493
Si 6.15574 2.43338 1.87813
Si 8.70173 6.46542 1.94699
O 6.28501 5.25946 4.87223
O 8.51006 0.825755 4.58616
O 7.35176 2.89062 2.91323
O 10.0079 6.40892 2.90856
O 7.09068 1.48567 0.805142
O 8.71169 5.19319 0.891671
O 5.56276 3.67749 1.00509
O 8.69636 7.78394 1.03369
O 7.39614 6.56769 2.74266
O 9.66113 2.01369 2.53594
O 6.19654 8.11087 4.42733
O 8.93365 3.55322 4.7756
Si 9.94415 4.65575 16.3531
Si 12.6835 0.299003 0.0586203
Si 11.3327 6.47838 3.90018
Si 13.6194 2.34504 3.81629
Si 11.0572 2.46521 1.91008
Si 13.9158 6.46615 1.89262
O 11.5109 5.06918 4.85394
O 13.4406 0.932809 4.63705
O 12.1424 2.63055 3.1172
O 0.237504 7.04818 2.80844
O 11.7508 1.39573 0.971254
O 14.1185 5.07167 1.15598
O 11.0006 3.89728 0.935165
O 13.3055 7.40491 0.666818
O 12.583 6.24744 2.92438
O 14.7773 2.29224 2.84979
O 11.3154 7.99295 4.70024
O 13.8214 3.31205 5.26698
Si 0.0839916 13.5009 0.137549
Si 2.48169 8.91806 0.119873
Si 1.27561 15.1567 3.86627
Si 3.73974 10.7725 3.74884
Si 1.03415 11.1993 1.88104
Si 3.54879 15.1962 1.84222
O 1.10628 14.0154 4.97832
O 3.64359 9.39215 4.51912
O 2.29757 11.2032 2.95531
O 4.89026 15.7388 2.25713
O 1.63838 10.2951 0.572535
O 3.89703 13.7753 1.28809
O 0.85167 12.7563 1.61819
O 3.10899 16.3767 0.936095
O 2.50563 14.636 3.02368
O 4.65966 10.6434 2.41635
O 1.67046 16.7556 4.13685
O 4.03242 12.1542 4.67843
Si 4.84657 13.2593 0.104117
Si 7.57893 8.6382 0.277612
Si 6.023 15.3596 3.36646
Si 8.57423 10.8383 3.82061
Si 6.15448 10.8965 2.04612
Si 8.57167 15.1622 2.07107
O 5.51043 14.4397 4.80425
O 8.84489 9.40662 4.54173
O 6.93266 11.1804 3.434
O 9.56666 15.512 3.29282
O 6.86295 9.59134 1.41919
O 9.1049 13.903 1.28026
O 6.17584 12.198 1.03769
O 8.22283 16.3003 0.884618
O 7.29237 14.2775 2.7615
O 9.55543 10.6499 2.49797
O 6.50697 16.6645 4.16244
O 8.99869 12.1211 4.71639
Si 10.125 13.1604 0.358932
Si 12.5172 8.70675 0.223966
Si 11.0939 15.1988 3.8003
Si 13.7387 10.9106 3.7942
Si 11.058 10.8263 2.03436
Si 13.522 15.2516 1.92835
O 10.9263 13.9307 4.64938
O 13.8047 9.42117 4.84206
O 12.355 11.2879 3.13667
O 14.7207 15.3217 3.01228
O 11.3881 9.37613 1.39005
O 13.697 14.0393 0.792614
O 11.3193 12.0754 1.00832
O 13.4289 16.5283 1.01673
O 12.0827 14.9573 2.6255
O 14.8298 10.4357 2.65508
O 11.5343 16.602 4.54096
O 14.4182 12.1184 4.53863
Si 0.151347 4.08919 5.59976
Si 2.48479 17.1689 5.63326
Si 1.29689 6.74839 9.13008
Si 3.65689 2.59126 9.31705
Si 1.43071 2.15371 7.33033
Si 3.87824 6.27053 7.25483
O 0.688423 5.97202 10.49
O 3.59251 1.46204 10.5598
O 2.19365 2.72966 8.50915
O 5.15412 6.39066 8.17005
O 1.52836 0.631576 6.74213
O 3.8828 4.90559 6.52058
O 1.44637 3.23963 6.14733
O 3.88003 7.58351 6.25049
O 2.50525 6.18301 8.24856
O 4.86508 1.80084 8.49702
O 1.9297 8.07399 9.90115
O 4.15842 4.01875 9.91897
Si 5.19495 4.33418 5.6384
Si 7.50757 17.3322 5.39956
Si 6.49795 6.29602 9.33833
Si 8.73237 2.44235 9.24343
Si 6.23118 2.15538 7.5976
Si 8.89993 6.52027 7.23268
O 6.43901 5.51198 10.7596
O 8.77554 1.1819 10.3268
O 7.18913 2.52187 8.92822
O 10.2613 7.44262 7.89767
O 6.58378 0.856946 6.41965
O 9.80414 5.23545 6.81623
O 6.03431 3.46873 6.84755
O 8.19719 7.37421 6.01703
O 7.98213 6.23994 8.43271
O 9.53241 2.03909 7.91279
O 6.40192 8.01524 9.73291
O 9.40561 3.73627 9.73787
Si 10.3565 4.23861 5.64276
Si 12.6193 17.2297 5.61575
Si 11.2646 6.90008 9.10881
Si 13.9185 2.03307 9.38835
Si 11.284 1.82862 7.52079
Si 14.0154 6.37543 7.51774
O 10.855 5.74156 10.3516
O 13.8535 0.611971 10.1664
O 12.3154 2.40066 8.7123
O 14.8886 7.36293 8.38766
O 11.7356 0.471289 6.79132
O 14.9711 5.13387 7.02741
O 11.3918 3.20575 6.3771
O 13.5056 7.13331 6.01706
O 12.4846 6.31789 8.21745
O 14.8755 1.90926 8.17682
O 11.5995 8.15424 9.90947
O 13.9848 3.54405 10.0793
Si 0.266645 12.7702 5.80261
Si 2.716 8.33617 5.47308
Si 1.14877 15.3916 9.18577
Si 3.88873 10.8929 8.94912
Si 1.30291 10.2892 7.46451
Si 3.65577 14.927 7.5104
O 1.07943 14.4222 10.5363
O 4.08454 9.44642 9.93404
O 2.34322 10.849 8.51391
O 4.90388 15.6421 8.35943
O 1.66527 8.80359 6.50479
O 4.33906 13.4869 6.92724
O 1.06348 11.6375 6.38101
O 3.03125 15.9247 6.32086
O 2.08877 14.6331 7.96572
O 4.90257 10.8406 7.76656
O 1.95052 16.7778 9.66164
O 4.06886 12.171 10.0647
Si 5.27055 12.9938 5.51759
Si 7.56921 8.58778 5.23726
Si 6.17873 15.1097 9.03856
Si 8.92442 10.8353 9.00782
Si 6.60029 11.0482 7.21227
Si 8.57994 15.1245 7.19398
O 6.0419 14.1363 10.2824
O 8.54798 9.96782 10.383
O 7.54019 11.528 8.43913
O 9.48344 15.4897 8.75999
O 7.32321 9.69232 6.47582
O 9.52102 13.7838 6.75014
O 6.37099 12.009 5.96879
O 8.31594 16.0427 5.89128
O 7.15681 14.7365 7.73557
O 9.56951 10.2481 7.68844
O 6.89479 16.3669 9.62322
O 9.57005 12.3885 9.66853
Si 10.1872 12.9565 5.50075
Si 12.5981 8.39538 5.65959
Si 11.1837 15.2967 9.24958
Si 13.7174 11.0284 9.25777
Si 11.3714 10.7452 7.37645
Si 13.6711 14.9503 7.45575
O 11.2232 14.369 10.6401
O 13.2724 10.2098 10.5954
O 12.1476 11.2631 8.6194
O 14.5734 15.6667 8.60498
O 12.2412 9.39956 6.93118
O 14.2509 13.5786 6.7612
O 11.0209 11.87 6.23968
O 13.3256 16.0609 6.37614
O 12.2501 14.576 8.20434
O 14.8403 10.3235 8.34138
O 11.7817 16.7163 9.58991
O 14.3283 12.6521 9.69286
Si 14.959 4.46208 11.0514
Si 2.80295 17.3733 10.8682
Si 1.26114 6.70313 14.6992
Si 3.56099 2.222 14.5757
Si 1.36909 2.15407 12.5647
Si 3.63453 6.4687 12.7846
O 1.04645 5.32339 15.5315
O 3.60325 1.39651 16.1522
O 2.17342 2.47298 13.9724
O 4.88091 6.87032 13.9798
O 1.66113 0.6954 11.9393
O 4.01055 5.00719 12.113
O 1.25009 3.44357 11.6733
O 3.79625 7.73778 11.681
O 2.19416 6.47343 13.3254
O 4.71602 1.53867 13.5557
O 1.5091 7.80412 15.8161
O 3.91627 3.79174 15.249
Si 5.11219 4.36796 11.1611
Si 7.88545 17.1307 10.6001
Si 6.25671 6.58379 14.6566
Si 8.65266 2.50792 14.3809
Si 6.16258 1.87961 12.6985
Si 8.65456 6.45696 12.7086
O 6.38817 5.2033 15.4999
O 8.71542 1.20946 15.5093
O 7.03892 2.66522 13.9221
O 9.69358 7.20822 13.7655
O 6.89771 0.744195 11.821
O 9.50121 5.01821 12.382
O 5.7974 2.96128 11.554
O 8.55233 7.37729 11.3095
O 7.13197 5.9639 13.2177
O 9.58017 1.84367 13.1174
O 6.96011 7.70947 15.5956
O 9.35407 3.63217 15.2724
Si 10.279 4.39969 11.0755
Si 12.4983 17.2277 10.9237
Si 11.0957 6.83667 14.5566
Si 13.6679 2.28373 14.5706
Si 11.0971 2.17702 12.6355
Si 13.6761 6.54554 12.9314
O 10.972 5.64029 15.5779
O 13.7038 1.1403 15.7291
O 12.146 2.13229 13.8513
O 14.6817 6.93328 14.1946
O 11.5011 0.782841 11.9019
O 13.9595 5.06992 12.2744
O 11.4874 3.26604 11.518
O 13.3708 7.67746 11.7908
O 12.1939 6.26712 13.5676
O 14.7145 2.04814 13.1044
O 11.5354 8.20421 15.295
O 14.0235 3.66531 15.4727
Si 0.253421 13.1078 10.9924
Si 2.98066 8.85654 10.8722
Si 1.23223 15.6512 14.5087
Si 3.87694 10.9497 14.5864
Si 1.41545 10.7556 12.7213
Si 3.8504 15.0941 12.8566
O 1.12559 14.3464 15.6264
O 3.50777 9.49399 15.3314
O 2.65479 11.0886 13.5687
O 5.13248 15.6819 13.4415
O 1.82637 9.44343 11.9406
O 4.14366 13.5887 12.2134
O 1.10072 12.0972 11.8646
O 3.67976 16.2027 11.6365
O 2.45389 14.9924 13.6389
O 5.09954 10.6331 13.6258
O 1.71353 16.9906 15.2774
O 4.03748 12.2427 15.5294
Si 5.12584 12.9911 11.1253
Si 7.61932 8.7318 10.7743
Si 6.28496 15.4927 14.6879
Si 8.8436 10.9212 14.9116
Si 6.5792 10.8395 12.734
Si 9.00937 14.9509 12.6851
O 5.65982 14.4436 15.7558
O 8.50098 9.82326 15.9154
O 7.60789 11.1297 13.9122
O 10.3373 15.3258 13.3915
O 6.9599 9.2422 12.3116
O 9.20972 13.437 11.9238
O 6.35375 11.9078 11.5502
O 8.57317 15.92 11.4176
O 7.60181 14.9773 13.7382
O 10.2081 10.548 13.8626
O 6.54873 16.9986 15.2514
O 9.11928 12.2208 15.8861
Si 10.4213 12.9953 10.9673
Si 12.5219 8.78474 11.0224
Si 11.4928 15.1032 14.6663
Si 14.0704 11.0634 14.9594
Si 11.5674 10.9698 12.9985
Si 13.7237 15.03 12.8117
O 11.0925 14.0198 15.9276
O 13.8344 9.77681 16.025
O 12.7582 11.0588 13.9242
O 14.6832 15.8886 13.7165
O 11.528 9.47411 12.2432
O 14.1225 13.7538 12.0761
O 11.4021 12.0576 11.7342
O 13.2248 16.2445 11.8767
O 12.5422 14.5027 13.7212
O 0.3558 10.8132 13.9491
O 11.8599 16.5556 15.3737
O 14.3381 12.2214 16.0535
324
 Atoms. Timestep: 17000
Si 0.228451 4.50107 16.3734
Si 2.48628 17.0623 16.3492
Si 1.36393 6.47255 3.65305
Si 3.5048 2.04406 3.54315
Si 1.15447 2.04458 1.74542
Si 3.88388 6.29274 1.77818
O 0.646614 5.25964 4.51895
O 3.19079 0.851469 4.47458
O 2.2151 2.54946 2.93366
O 5.29115 6.67416 2.49839
O 1.60848 0.632804 1.06932
O 4.15667 5.21213 0.714172
O 0.896524 3.07274 0.608019
O 3.49441 7.67929 0.960911
O 2.78179 6.07994 3.14804
O 4.68057 1.55726 2.49779
O 1.90587 7.33491 4.99319
O 4.13331 3.54813 4.17722
Si 5.32517 4.33775 16.4946
Si 7.9924 0.0564518 0.148157
Si 6.36402 6.62622 3.67431
Si 8.56385 2.2521 3.69438
Si 6.03427 2.01459 1.72683
Si 8.8825 6.72162 1.90114
O 5.94553 5.4611 4.84402
O 8.67731 1.21766 4.94526
O 7.12509 2.48592 2.95632
O 10.4076 6.66916 2.41839
O 6.87343 0.725357 1.15395
O 8.87005 5.3046 0.852822
O 6.07887 3.48641 1.17536
O 8.48166 8.17041 1.28133
O 7.84672 6.38899 3.11974
O 9.40986 1.81387 2.2643
O 6.53265 8.12467 4.34402
O 9.29519 3.77088 4.09239
Si 10.0029 4.64782 16.2542
Si 12.514 0.311453 16.332
Si 11.4567 6.52047 3.60004
Si 13.3669 1.95749 3.47741
Si 10.8223 2.2438 1.5624
Si 13.8692 6.58799 1.88232
O 10.9464 5.58092 4.91645
O 13.5304 0.799653 4.62868
O 11.9587 1.83828 2.70021
O 0.078628 7.2385 2.72915
O 11.4052 1.11262 0.650978
O 14.3363 5.38523 1.05441
O 10.8531 3.64937 0.795695
O 13.3892 7.82307 0.919365
O 12.8026 6.17728 2.98335
O 14.7552 1.52873 2.65716
O 11.8499 8.18103 4.10905
O 13.4659 3.50565 4.51281
Si 0.237116 13.295 16.1714
Si 2.45519 8.92646 0.430985
Si 1.09918 15.3528 4.06245
Si 3.72373 10.8967 3.91824
Si 1.14229 11.3171 1.9437
Si 3.54525 15.2179 1.96797
O 0.797917 13.984 4.89665
O 3.60024 9.48333 4.64386
O 2.23474 11.3773 3.2624
O 4.67455 16.1199 2.87071
O 1.61442 9.72482 1.60265
O 4.11476 13.8127 1.49261
O 1.09767 12.3762 0.859062
O 3.48414 16.1531 0.614287
O 2.19566 14.8496 2.93195
O 4.67306 10.7865 2.68567
O 1.23222 16.6056 4.96126
O 4.02293 11.8989 5.02523
Si 5.1815 13.1801 0.389522
Si 7.38807 8.86871 16.5756
Si 6.07682 15.29 3.70625
Si 8.91849 10.7649 3.68644
Si 6.18696 11.0343 2.09317
Si 8.63639 15.2441 2.25884
O 5.61536 13.828 4.59503
O 8.71507 9.67056 4.85343
O 7.46839 11.1242 3.11047
O 9.60845 15.7384 3.34681
O 6.46008 10.0861 0.830713
O 9.04043 13.9073 1.31281
O 6.22868 12.4986 1.38624
O 8.97091 16.4416 1.05853
O 7.07437 15.0312 2.49312
O 9.75328 10.4961 2.25165
O 7.00801 15.9373 4.80608
O 9.11135 12.0927 4.51446
Si 9.83534 13.1627 0.220493
Si 12.6706 8.78591 16.2551
Si 11.2195 15.1958 3.72678
Si 13.5543 11.0896 3.8235
Si 11.2267 11.059 1.81122
Si 13.839 15.2942 1.661
O 10.9615 13.8954 4.54296
O 13.6551 9.79093 4.74542
O 12.1245 11.4731 3.04429
O 14.8859 15.9341 2.83516
O 11.7652 9.94166 0.684219
O 14.2052 14.0251 0.619932
O 11.0248 12.2744 1.00237
O 13.4318 16.523 0.747947
O 12.5024 14.7305 2.55128
O 14.596 11.3268 2.51046
O 11.5059 16.5727 4.59502
O 13.8693 12.2309 5.02677
Si 14.7416 4.17752 5.2469
Si 2.42704 17.4053 5.90166
Si 1.38629 6.41673 9.24483
Si 3.51064 2.54238 9.09836
Si 0.954883 2.3481 7.36226
Si 3.7409 6.28605 7.2161
O 1.40304 5.15665 10.1824
O 3.56618 1.09051 9.84146
O 1.9045 2.61769 8.73987
O 4.91224 6.7287 8.44934
O 1.7965 1.0953 6.83022
O 3.95812 5.01428 6.31043
O 0.792995 3.1928 6.02533
O 3.56379 7.94547 6.69518
O 2.40286 6.10305 8.09099
O 4.36576 2.18411 7.82466
O 1.94912 7.51844 10.28
O 4.40686 3.88902 9.85234
Si 5.09958 4.22947 5.32447
Si 7.56348 17.3132 5.83012
Si 6.31461 6.40484 9.46263
Si 8.711 2.0486 9.12777
Si 6.00229 2.22669 7.28789
Si 8.63246 6.29085 7.32559
O 6.23241 5.48062 10.7851
O 8.47789 1.0265 10.3561
O 7.33911 2.44306 8.30375
O 9.93669 6.74627 8.15888
O 6.328 0.632309 6.63847
O 8.88356 4.93771 6.49303
O 6.23344 3.23761 6.05082
O 8.01915 7.62523 6.58802
O 7.5768 5.87479 8.51711
O 9.87297 1.52126 8.22926
O 6.40861 7.88052 10.0436
O 9.10007 3.44368 9.8404
Si 10.013 4.34785 5.48652
Si 12.612 17.1384 5.6282
Si 11.3649 6.60249 9.01118
Si 13.4592 2.46231 9.33308
Si 11.1536 2.1031 7.30537
Si 13.9627 6.56435 7.44358
O 10.9491 5.41613 10.0709
O 13.6382 1.11554 9.95419
O 12.1782 2.75262 8.45462
O 0.116386 7.0058 8.40456
O 11.9133 0.702476 6.90184
O 14.3361 5.37107 6.4473
O 10.9058 3.18532 6.17195
O 13.7038 7.7202 6.38026
O 12.472 6.14924 8.12203
O 14.6068 2.15471 8.27795
O 11.6904 7.92987 9.87499
O 13.9634 3.7818 10.0515
Si 0.126222 12.9096 5.91314
Si 2.58785 8.64407 5.66903
Si 1.10507 15.4489 9.33806
Si 3.65869 11.0376 9.31865
Si 1.20775 10.6973 7.28258
Si 3.56719 15.2048 7.4125
O 1.05288 14.404 10.588
O 3.76898 9.43094 9.85388
O 2.06092 10.9644 8.77249
O 4.90618 15.4066 8.30476
O 1.26265 9.25154 6.46042
O 3.87083 13.8768 6.5105
O 1.29521 11.8249 6.2288
O 3.64501 16.5893 6.51794
O 2.10098 15.1167 8.16299
O 4.75119 10.8231 8.20943
O 1.53708 16.9005 10.0726
O 3.90393 12.4247 10.0759
Si 4.92826 12.9492 5.70127
Si 7.46986 8.82982 5.70585
Si 6.23136 15.0009 9.17839
Si 8.78911 11.0316 9.16633
Si 6.12247 10.9606 7.44097
Si 8.78143 14.9567 7.17333
O 6.36507 13.7424 10.2235
O 8.61374 9.66679 10.2401
O 7.36429 10.998 8.44073
O 9.7924 15.2229 8.54924
O 6.39121 9.56811 6.39619
O 9.25971 13.7812 6.26009
O 6.17679 12.3105 6.5865
O 8.83526 16.5477 6.48884
O 7.32383 14.6961 7.81458
O 9.79459 10.5634 7.96298
O 6.22506 16.5492 9.88241
O 8.87779 12.1257 10.4243
Si 10.212 12.7757 5.48642
Si 12.7244 8.62578 5.50889
Si 11.2111 15.1705 9.28848
Si 13.9357 11.1014 9.46496
Si 11.4847 10.7377 7.55275
Si 13.6517 14.9113 7.57323
O 10.9416 14.1749 10.4117
O 14.0722 9.73981 10.4037
O 12.2843 10.9847 9.01831
O 14.5063 15.813 8.6917
O 12.1143 9.65846 6.66161
O 14.5103 13.5318 7.21799
O 11.4012 12.058 6.39655
O 13.4613 15.7466 6.22959
O 12.1724 14.5505 8.0274
O 14.6993 10.8898 8.02745
O 11.8115 16.6012 9.90969
O 14.3511 12.554 9.9685
Si 0.276264 4.28933 10.8706
Si 2.74734 0.149251 10.9979
Si 1.30737 6.87477 14.9569
Si 3.73928 2.1483 14.6952
Si 1.38903 2.23324 12.8082
Si 3.90826 6.39137 12.9532
O 1.44123 5.42344 15.7752
O 3.54965 1.04671 15.7419
O 2.45065 2.74988 14.0644
O 4.90391 6.73207 14.1671
O 2.29333 0.992354 12.2912
O 4.00546 4.99067 12.3321
O 1.16968 3.06505 11.5892
O 4.10911 7.45204 11.6944
O 2.49764 6.69654 13.6255
O 4.81027 1.62822 13.4575
O 1.52386 8.12856 15.9463
O 4.74731 3.34743 15.3342
Si 5.2411 4.30505 11.2382
Si 7.42729 17.257 10.9183
Si 6.37909 6.53174 14.8096
Si 8.92205 2.23963 14.7139
Si 6.1611 1.92438 12.8484
Si 8.8775 6.52496 12.7024
O 6.4499 5.28335 15.938
O 8.70791 1.35497 16.1133
O 7.44553 2.06363 13.8358
O 10.2672 6.82514 13.2866
O 6.35544 0.702935 11.9107
O 9.00851 4.9673 11.9659
O 6.29528 3.28281 11.9598
O 8.72329 7.591 11.4516
O 7.32392 6.53765 13.4556
O 10.0626 1.74087 13.6302
O 6.59006 7.61749 15.9701
O 9.06289 3.67382 15.326
Si 9.94453 4.31972 10.8604
Si 12.8261 17.3392 10.9399
Si 11.337 6.79907 14.4502
Si 13.8147 2.38173 14.4136
Si 11.2084 2.27353 12.652
Si 13.978 6.53269 12.8827
O 10.9496 5.51583 15.2552
O 13.5727 1.25926 15.6512
O 12.5583 2.9024 13.595
O 14.9356 7.05791 14.1461
O 11.857 0.869245 12.0056
O 14.6795 5.14881 12.3192
O 10.9197 3.30758 11.5964
O 13.7596 7.31947 11.3806
O 12.6824 6.22174 13.7097
O 14.9859 1.73083 13.2933
O 11.6471 8.06911 15.2896
O 14.2207 3.86191 15.2032
Si 0.308306 13.0704 11.1595
Si 3.05593 8.40248 11.0032
Si 1.32376 15.3051 14.3463
Si 4.08946 10.8495 14.7973
Si 1.83419 10.8314 12.7468
Si 4.0018 15.4913 12.8722
O 1.49403 14.11 15.3837
O 3.44126 9.86867 15.9177
O 2.87565 11.4424 13.7786
O 4.78733 15.8609 14.1536
O 2.45132 9.28126 12.2753
O 4.44931 13.9765 12.0816
O 1.64829 12.2213 11.5945
O 3.84252 16.348 11.5091
O 2.49494 14.8372 13.3966
O 5.05819 9.99342 13.8633
O 1.33618 16.6652 15.1806
O 4.58249 12.2545 15.6739
Si 5.10701 12.8611 11.1317
Si 7.49256 8.63221 10.9792
Si 6.19726 15.3967 14.7524
Si 8.73102 11.0668 14.694
Si 6.40089 10.683 13.0889
Si 8.66043 15.0505 12.9148
O 5.91039 14.1708 15.7174
O 8.3196 9.55938 15.3735
O 7.4673 11.6328 13.8878
O 9.62099 16.0101 13.7427
O 6.85805 9.48024 12.2089
O 9.5264 13.7273 12.4858
O 5.71684 11.7035 12.0357
O 8.32222 15.9534 11.3811
O 7.08841 14.8483 13.3795
O 10.1424 10.7048 13.8334
O 6.87187 16.3502 15.8027
O 8.90771 12.0591 15.9216
Si 10.0002 13.0654 11.0858
Si 13.0151 8.64995 10.8865
Si 11.0165 15.4257 14.5609
Si 14.2268 10.8799 14.4326
Si 11.5669 10.7553 12.5233
Si 13.6747 14.8629 12.7024
O 10.5165 14.2655 15.6174
O 13.9691 9.50886 15.3464
O 13.0143 11.2612 13.3902
O 14.8108 15.2454 13.7465
O 11.8805 9.34072 11.9721
O 13.9139 13.3067 12.1888
O 11.2702 12.0968 11.5887
O 13.6932 16.3892 11.866
O 12.0514 14.9288 13.3275
O 0.332777 10.2388 13.2735
O 11.6755 16.6981 15.3002
O 14.6562 12.2276 15.0951
324
 Atoms. Timestep: 17500
Si 0.161461 4.38324 16.0335
Si 2.56705 17.3161 0.134107
Si 1.65511 6.80437 3.61622
Si 3.28563 2.32266 3.6033
Si 1.05235 2.24606 1.70785
Si 4.11679 6.60931 1.94852
O 1.26313 5.43343 4.53591
O 3.44844 1.21279 4.80703
O 1.75464 2.51469 3.14026
O 5.53161 7.30066 2.43663
O 1.57511 0.78493 1.0866
O 4.34236 4.92641 1.82518
O 1.29889 3.33009 0.34905
O 3.35658 7.31112 0.721057
O 3.23047 6.5081 3.32665
O 4.43778 1.74665 2.50688
O 1.41552 7.72022 5.06294
O 3.98535 3.81006 4.17098
Si 5.20254 4.36296 0.434941
Si 7.52228 17.2336 16.4554
Si 6.7059 6.5751 3.56318
Si 8.47654 2.0357 3.73018
Si 5.90021 1.81233 1.92033
Si 9.22364 6.67068 1.96848
O 6.04502 5.29408 4.20851
O 8.56768 1.03291 5.05535
O 6.98393 2.1311 3.12705
O 10.6598 7.14431 2.60569
O 6.44332 0.374379 1.25324
O 9.70637 5.36033 1.06604
O 6.1158 3.09282 0.839456
O 8.59811 7.9674 1.26834
O 8.03914 5.95059 2.97588
O 9.41149 1.46575 2.51547
O 6.61569 7.82093 4.75277
O 9.20151 3.40248 4.43431
Si 10.2044 4.32933 16.4642
Si 12.559 0.15875 16.5237
Si 11.6211 6.45048 3.70786
Si 13.39 2.33269 3.50819
Si 10.8585 1.9738 2.10752
Si 14.0609 6.45266 1.99826
O 10.8552 4.96542 4.10161
O 13.5835 1.11095 4.41656
O 11.8623 2.56725 3.18264
O 0.712919 6.96866 2.31893
O 11.608 0.540399 1.22918
O 14.229 5.18805 0.971415
O 10.8102 3.25553 0.993537
O 13.6265 7.68941 1.10201
O 13.1134 6.55833 3.25028
O 14.3719 2.12837 2.17516
O 11.5505 7.67771 5.05541
O 14.2284 3.52445 4.23872
Si 0.284347 13.1031 16.4087
Si 2.59773 8.82114 0.257386
Si 0.998269 15.4145 3.63238
Si 3.73636 10.8415 3.63572
Si 1.44618 10.9669 1.9403
Si 3.69877 15.2547 1.98486
O 0.751833 14.106 4.62532
O 2.89037 9.53135 4.21405
O 2.50376 11.6015 2.8533
O 4.83498 15.756 2.99801
O 1.69381 9.41674 1.50873
O 4.26731 13.8061 1.57011
O 1.20634 11.8704 0.553645
O 3.67935 16.4862 0.814983
O 2.05445 15.2575 2.25433
O 5.10815 10.2715 2.89792
O 1.54218 16.476 4.80004
O 4.39325 11.6437 5.00044
Si 5.28302 13.149 0.411928
Si 7.66637 8.80584 0.145128
Si 6.21116 15.3737 3.81742
Si 9.01122 10.8042 3.82755
Si 6.52899 10.9879 2.0123
Si 8.61361 14.942 1.66627
O 6.23831 13.8202 4.56385
O 8.68799 9.46619 4.63583
O 7.5606 11.4137 3.16431
O 9.83182 15.2764 2.71183
O 6.6635 9.81363 0.788227
O 8.99368 13.6848 0.699893
O 6.30799 12.3877 1.34249
O 8.51169 16.0693 0.434565
O 7.35101 15.2217 2.66416
O 9.79145 10.3477 2.6036
O 6.67807 16.4551 4.8565
O 9.47021 12.0018 4.80643
Si 10.08 13.0613 16.3755
Si 12.604 8.72448 0.0622369
Si 11.2523 15.3492 3.59488
Si 13.7101 10.8246 3.94846
Si 11.1361 10.7167 1.846
Si 13.6645 15.3303 1.62106
O 11.3261 14.125 4.62504
O 13.759 9.59992 4.96386
O 12.3961 10.6294 2.99572
O 14.5279 16.0123 3.28638
O 11.3568 9.33992 0.88646
O 14.4548 13.9963 1.07132
O 11.0888 12.0238 1.09489
O 13.859 16.4521 0.391723
O 12.2866 14.7815 2.1531
O 14.719 11.0224 2.49634
O 11.9135 16.655 4.34428
O 13.7299 12.282 4.70149
Si 0.306337 4.40031 5.21499
Si 2.60428 0.110834 5.70935
Si 1.36583 6.75825 9.10147
Si 3.70122 2.08402 9.05615
Si 1.15946 2.23476 7.22519
Si 3.81611 6.40045 7.19366
O 1.44566 5.18661 10.0093
O 3.04576 0.821364 9.69561
O 2.45575 2.81125 8.07714
O 4.81967 6.98197 8.42065
O 1.23164 0.657784 6.69262
O 4.357 5.05223 6.46078
O 1.16753 3.20724 5.99587
O 3.92849 7.89399 6.21701
O 2.3234 6.29473 7.87807
O 4.75086 1.93554 7.84962
O 1.63041 8.11949 9.80254
O 4.17373 3.36708 10.1285
Si 5.05989 4.47064 5.18248
Si 7.64513 17.2815 5.82022
Si 6.18021 6.51489 9.21586
Si 8.61549 2.41429 8.98009
Si 6.2454 2.53764 7.11613
Si 8.50013 6.56449 7.5055
O 5.90442 5.48041 10.432
O 8.55666 1.04366 10.0118
O 7.20062 3.14905 8.24726
O 9.67139 6.75928 8.56984
O 6.84538 0.979363 6.81454
O 8.9556 5.86307 6.04429
O 6.08437 3.38359 5.76017
O 7.97684 8.20918 7.16479
O 7.2122 5.80184 8.28133
O 9.52347 1.83437 7.77051
O 7.10066 7.67646 9.74746
O 9.17776 3.70486 9.74605
Si 9.86016 4.54188 5.33467
Si 12.7384 0.262542 5.47685
Si 11.1573 6.21145 9.1382
Si 13.4955 2.57194 9.15957
Si 10.9453 2.53514 7.19345
Si 13.7613 6.28142 7.24533
O 10.9667 5.20572 10.3369
O 13.3301 1.34303 10.192
O 12.0371 2.73227 8.41659
O 14.7849 6.4272 8.48617
O 11.56 1.2674 6.27568
O 14.1526 5.48394 6.01992
O 10.7024 3.93487 6.5933
O 13.2215 7.85492 6.99773
O 12.1386 5.76623 7.89769
O 14.8864 2.41558 8.23954
O 11.4036 7.56774 10.1709
O 13.9056 4.06969 10.1482
Si 14.8235 13.1306 5.53523
Si 2.68126 8.60049 5.56274
Si 1.24519 15.1216 9.16566
Si 3.70889 10.9543 9.14226
Si 1.33547 10.9671 7.15155
Si 3.73016 15.1426 7.08134
O 1.05778 13.6727 9.92876
O 3.77429 9.6168 10.0258
O 2.20728 11.1846 8.63508
O 4.72749 15.3299 8.32155
O 2.03637 9.78492 6.4888
O 4.06607 14.1465 5.96425
O 1.04571 12.0504 6.08665
O 3.86358 16.7296 6.55002
O 2.08107 14.9669 7.57559
O 4.72668 10.6567 7.97058
O 1.60465 16.135 10.4388
O 4.23082 12.2733 9.84882
Si 5.14818 13.0693 5.45905
Si 7.50573 9.00089 5.74274
Si 6.10044 15.1756 9.26534
Si 8.3872 11.147 9.26275
Si 5.97921 11.2306 7.33534
Si 8.62085 14.9876 7.44024
O 5.90934 14.1285 10.4135
O 8.24947 10.001 10.5184
O 6.90716 11.5094 8.83022
O 9.55946 15.0701 8.64376
O 6.82119 10.2437 6.27843
O 9.30183 13.9356 6.46524
O 5.98269 12.7109 6.83047
O 8.57119 16.4451 6.72097
O 7.38524 14.4994 8.19972
O 9.5006 10.6097 7.72487
O 6.33807 16.57 9.83681
O 9.16151 12.4478 9.87869
Si 10.3567 13.2258 5.58292
Si 12.6571 8.79639 5.86892
Si 11.0508 15.2977 9.32011
Si 13.9706 10.5894 8.83139
Si 11.1074 10.9823 7.29699
Si 13.7591 15.4962 7.58825
O 11.0109 14.1532 10.4181
O 13.5239 9.27992 9.73852
O 12.4447 11.1862 8.45443
O 14.6903 15.6975 8.87317
O 11.4472 9.63795 6.57704
O 14.2325 14.1693 6.60094
O 11.5306 12.3471 6.36886
O 13.7522 16.8672 6.71832
O 12.2989 15.1587 8.17769
O 14.9348 10.2578 7.62884
O 11.3622 16.8299 10.1137
O 14.2975 11.948 9.86263
Si 0.407621 4.3478 10.9701
Si 2.64283 -0.00679281 11.1364
Si 1.43798 6.81424 14.651
Si 3.69071 2.43897 14.7856
Si 1.2183 1.97831 12.9538
Si 4.1438 6.55666 12.8364
O 1.14497 5.52232 15.5905
O 3.54564 1.1891 15.8789
O 2.38815 2.73746 13.8808
O 5.65997 6.69281 13.4831
O 1.97098 0.64542 12.4454
O 4.27665 4.97858 12.3835
O 1.01733 2.91455 11.5644
O 3.68892 7.54748 11.6375
O 2.86129 6.53824 13.9356
O 4.87206 1.83509 13.5066
O 1.47026 8.18202 15.6746
O 4.32397 3.65691 15.6582
Si 5.14644 4.26253 11.0754
Si 7.57971 17.2807 10.8734
Si 6.5657 6.5591 14.9306
Si 8.67368 2.38303 14.9385
Si 6.31281 2.13247 12.879
Si 9.00797 6.27851 13.0464
O 6.26769 5.46155 16.1962
O 8.52012 1.38736 16.348
O 7.378 2.5953 14.0479
O 10.4239 6.66146 13.6793
O 6.81525 0.779822 12.0418
O 9.31046 4.80496 12.3397
O 6.251 3.1221 11.5463
O 8.47174 7.34185 12.0334
O 7.86171 5.91944 14.2897
O 9.7229 1.79283 13.7794
O 6.51537 7.98577 15.6735
O 9.1602 3.98898 15.1863
Si 9.96664 4.11132 11.0761
Si 12.4887 17.3383 11.2418
Si 11.6213 6.35748 14.6927
Si 13.5741 2.40825 14.4402
Si 11.0518 2.11423 12.8762
Si 13.8307 6.33121 12.7341
O 11.4884 5.31857 15.895
O 13.1249 1.63319 15.9128
O 12.361 3.0253 13.4822
O 14.8262 7.02106 14.1678
O 11.6319 0.616351 12.4944
O 14.6857 5.03789 12.2826
O 10.7936 2.84514 11.5017
O 13.7807 7.31164 11.3792
O 12.5057 5.6896 13.4888
O 14.8003 1.59126 13.6697
O 12.0932 7.84028 15.1795
O 14.0882 3.80995 15.0553
Si 0.380432 12.7505 11.0441
Si 2.7281 8.7524 10.9824
Si 1.18874 15.3704 14.5759
Si 3.87302 11.0635 14.9709
Si 1.36424 10.8139 13.108
Si 3.66281 15.0697 12.7004
O 1.24591 14.1769 15.5962
O 3.64628 9.97817 16.1184
O 2.48198 11.3668 14.2266
O 4.44115 15.5657 14.1574
O 1.93405 9.61562 12.0387
O 3.92184 13.526 12.0269
O 1.32419 12.0358 12.0369
O 3.89245 16.3074 11.6273
O 2.22485 14.9035 13.5459
O 5.03632 10.4531 13.941
O 1.58511 16.7766 15.328
O 4.51007 12.3688 15.7438
Si 5.024 12.8644 10.9427
Si 7.48963 8.5197 11.1183
Si 5.97406 15.3846 14.8025
Si 9.05577 10.6722 14.5872
Si 6.34332 10.542 12.825
Si 8.50731 14.8371 12.8844
O 5.94897 14.3614 16.024
O 8.78933 9.46994 15.5173
O 7.7923 10.968 13.491
O 9.71328 15.4842 14.0519
O 6.25947 9.19347 11.9015
O 9.32186 13.4825 12.3399
O 5.95873 11.8029 11.8188
O 8.31742 15.9601 11.4849
O 7.11557 14.661 13.6445
O 10.2791 9.91199 13.8448
O 6.50314 16.8414 15.2307
O 9.46278 12.1221 15.2196
Si 10.0599 12.9449 11.0337
Si 12.6241 8.5469 10.981
Si 11.3066 15.471 14.6171
Si 13.8499 11.0079 14.9401
Si 11.4405 10.5624 12.7538
Si 13.685 14.8207 12.7196
O 11.2204 14.287 15.8625
O 13.8185 9.93032 16.0714
O 12.5655 11.2157 13.9524
O 14.8329 15.5038 13.7376
O 11.945 9.24622 12.2391
O 14.4077 13.573 12.0054
O 10.9178 11.671 11.6767
O 13.5329 16.1777 11.7423
O 12.2267 14.5192 13.5619
O 14.9116 10.4762 13.8485
O 11.7424 16.8311 15.2817
O 14.0271 12.4814 15.513
324
 Atoms. Timestep: 18000
Si 0.248733 4.48997 16.3774
Si 2.55445 0.217796 16.2572
Si 1.64277 6.51315 3.65828
Si 3.59321 2.86028 3.93463
Si 1.17212 2.31815 1.77396
Si 4.2971 6.61777 2.1728
O 1.29646 5.54373 5.03057
O 3.45085 1.68051 5.15177
O 2.14117 2.71495 3.06325
O 5.99822 6.77428 2.64479
O 1.35182 0.910831 0.836882
O 4.02024 5.37782 1.05871
O 1.34803 3.44732 0.52353
O 4.16034 7.90961 1.02697
O 3.29382 6.22439 3.1723
O 4.68785 2.26171 2.94337
O 1.53602 8.13575 4.37565
O 4.09612 4.33424 4.51024
Si 4.81569 4.51956 16.2795
Si 7.26497 0.176081 16.4379
Si 6.84277 6.55752 3.99298
Si 8.50182 2.31845 3.52753
Si 5.97507 2.44005 1.93862
Si 9.17479 6.64042 2.02766
O 6.48121 5.13635 4.79217
O 8.47966 0.927257 4.55616
O 7.10251 2.8356 3.09525
O 10.5764 7.21046 2.88036
O 6.50957 0.920213 1.32317
O 9.69237 5.10961 1.40909
O 5.61584 3.3054 0.673372
O 8.63401 7.30547 0.700781
O 8.23075 6.32277 3.21939
O 9.56274 2.23733 2.31284
O 6.65346 7.79648 4.97426
O 9.10867 3.18959 4.78096
Si 10.1662 4.25421 0.249659
Si 12.6804 17.1615 16.3536
Si 11.5125 6.39111 3.84878
Si 13.7416 2.34709 3.87751
Si 11.1607 2.26586 2.02533
Si 14.0192 6.43209 1.83652
O 10.8967 4.94931 4.24994
O 13.5109 1.21102 4.92843
O 12.1787 2.60365 3.30459
O 0.607065 6.38293 2.45554
O 11.6826 0.870655 1.04502
O 13.8271 5.05028 1.08118
O 11.252 3.35527 0.776831
O 13.9495 7.95496 1.30735
O 12.8966 6.46345 3.1634
O 14.6411 1.92626 2.58163
O 11.637 7.47699 5.1978
O 14.0222 3.84496 4.48975
Si 14.9345 13.1056 0.336903
Si 2.93705 8.87047 0.288528
Si 1.35608 15.3653 3.73898
Si 3.7511 10.8761 3.56642
Si 1.36402 10.7442 2.20318
Si 3.74245 15.2475 1.54131
O 0.730831 14.2868 4.65831
O 3.17362 9.89209 4.57074
O 2.62667 11.6426 2.72786
O 5.03002 15.5675 2.49826
O 1.91732 9.35759 1.33205
O 3.98927 14.0798 0.476784
O 0.524946 11.6816 1.04658
O 3.60344 16.7621 0.878054
O 2.5037 14.9714 2.60238
O 5.17239 10.5428 2.64825
O 1.88889 16.4735 4.66643
O 3.90896 12.2139 4.76578
Si 5.24451 13.1395 16.104
Si 8.05144 8.6541 16.3804
Si 6.22978 15.2053 3.58679
Si 8.86685 10.8198 3.578
Si 6.45603 10.8154 1.79178
Si 8.84124 15.1257 1.56742
O 6.01112 13.7264 4.52695
O 8.34729 9.44008 4.26605
O 7.48258 11.364 2.82698
O 9.86231 15.5721 2.70601
O 7.44781 9.5218 1.18426
O 9.15215 13.6571 1.03158
O 6.27136 11.8003 0.462338
O 8.44842 16.214 0.308404
O 7.51001 14.8967 2.48615
O 10.1085 10.3284 2.67574
O 6.49529 16.5386 4.41806
O 9.29817 12.1306 4.56032
Si 10.3165 13.0628 16.3145
Si 12.9797 8.66844 16.4696
Si 10.984 15.6468 3.80392
Si 13.9418 10.6485 3.80343
Si 11.4552 10.5142 1.64307
Si 13.7309 15.2189 2.01923
O 10.6647 14.6806 5.13897
O 13.8853 9.17933 4.64399
O 12.9635 10.6856 2.39485
O 14.7188 16.0526 2.96893
O 11.7568 9.07627 1.01556
O 14.3726 13.7934 1.66824
O 11.2983 11.6919 0.665451
O 13.5111 15.8847 0.581657
O 12.4325 15.2114 2.92587
O 0.584324 10.2243 3.44865
O 11.4457 17.134 4.20401
O 13.9345 11.96 4.54708
Si 14.9367 4.69554 5.77674
Si 2.63631 0.375218 5.69304
Si 1.42462 6.51578 9.31901
Si 3.44507 2.08477 9.37575
Si 0.903811 1.98009 7.50468
Si 3.79083 6.64439 7.35459
O 1.46111 5.02444 9.95801
O 3.22627 1.11648 10.5485
O 2.03956 2.33624 8.66857
O 4.89608 7.22287 8.42003
O 1.31592 0.927744 6.33679
O 4.37962 5.10422 7.05379
O 0.572224 3.53399 6.75284
O 3.6322 7.94785 6.20071
O 2.38162 6.45132 7.94632
O 4.33903 1.76182 8.00823
O 1.65979 7.95644 9.99777
O 3.7309 3.7003 9.9915
Si 5.19341 4.58343 5.57732
Si 7.64153 17.2374 5.51627
Si 6.21315 6.74582 8.9725
Si 8.42212 2.6622 9.29227
Si 5.81635 1.91674 7.23604
Si 8.77404 6.45432 7.28293
O 5.79223 5.52826 9.99989
O 8.57188 1.36825 10.39
O 6.98143 2.20999 8.45284
O 9.75906 6.17139 8.50862
O 6.43788 0.723988 6.41418
O 8.96176 5.52196 6.07958
O 5.77797 3.31007 6.4387
O 8.91931 7.90458 6.53724
O 7.18347 6.27858 7.80928
O 9.51091 2.42121 8.06957
O 7.26632 7.77037 9.81779
O 8.83941 4.04784 10.163
Si 9.86511 4.5058 5.34142
Si 12.1572 0.297628 5.54017
Si 11.2348 6.23419 9.30077
Si 13.6514 2.287 9.20237
Si 10.9769 2.64052 7.39268
Si 13.7374 6.76961 7.53546
O 11.423 4.90193 10.3366
O 13.0973 1.58696 10.606
O 12.287 2.62567 8.26932
O 14.8464 6.64674 8.7564
O 11.2199 1.35919 6.32437
O 13.9178 5.86659 6.23704
O 10.8772 3.89225 6.45323
O 13.5614 8.36989 6.96035
O 12.135 6.154 7.90382
O 14.5979 1.36685 8.24425
O 11.3966 7.54906 9.94661
O 14.2665 3.57608 9.80758
Si 14.6365 13.1957 5.25372
Si 2.37601 8.93568 5.52453
Si 0.866678 15.0424 9.08047
Si 3.59273 11.0925 9.13244
Si 1.17888 11.2364 7.30488
Si 3.52483 15.1639 7.52995
O 0.0826765 13.7542 9.81485
O 3.13734 10.0399 10.2927
O 2.3623 11.654 8.2586
O 4.84554 15.5249 8.49444
O 1.34495 9.79737 6.42222
O 4.16278 14.0549 6.4999
O 0.822299 12.526 6.39811
O 3.44702 16.5698 6.69856
O 2.26322 14.401 8.31096
O 4.92492 10.2061 8.36195
O 1.52026 16.3572 9.82224
O 4.32001 12.4381 10.0204
Si 5.07492 13.0755 5.69083
Si 7.87289 8.85888 5.7614
Si 6.13354 15.3679 9.46154
Si 8.76614 10.6182 9.47782
Si 6.2143 10.8549 7.62288
Si 8.43851 14.9419 7.49716
O 5.94254 14.2492 10.5956
O 9.07551 9.40672 10.4749
O 7.32417 10.7138 8.95499
O 9.7104 15.1403 8.71438
O 6.77276 9.89403 6.55147
O 8.63068 13.4375 6.76175
O 6.06151 12.1369 6.74946
O 8.63471 16.1738 6.3572
O 7.31663 14.5821 8.47516
O 9.80651 10.3392 7.92313
O 6.56297 16.6106 10.2927
O 9.5167 11.92 9.99504
Si 9.91782 13.0647 5.7851
Si 12.6756 8.76489 5.70968
Si 11.2629 15.236 9.19779
Si 13.6289 10.4805 9.19439
Si 11.1686 10.7616 7.5254
Si 13.3875 14.9995 7.0139
O 11.275 14.2031 10.4112
O 13.8173 8.95485 9.79035
O 12.1606 10.6299 8.72066
O 14.7689 15.4708 7.85538
O 11.9448 9.94511 6.36028
O 13.4376 13.8148 5.91358
O 10.866 12.2246 6.75886
O 12.8383 16.3227 6.30279
O 12.4548 14.3873 8.41238
O 14.9421 10.7751 8.27031
O 11.7183 16.7044 9.87896
O 13.855 11.3923 10.48
Si 0.529277 4.2097 10.9124
Si 2.42778 16.9961 11.0584
Si 1.33275 6.87641 14.5827
Si 3.41722 2.42615 14.4237
Si 1.0761 1.82721 12.5154
Si 3.74033 6.53902 12.9068
O 0.929251 5.9363 15.8981
O 3.41002 1.54035 15.7813
O 2.15302 2.48124 13.5
O 4.89761 7.0205 13.8745
O 1.53847 0.330919 12.2651
O 4.21322 5.14638 11.9842
O 1.29796 2.92788 11.2914
O 3.9776 7.72835 11.8471
O 2.35288 6.03473 13.6855
O 4.89635 2.10204 13.6817
O 2.234 8.12775 15.2794
O 3.84382 3.68163 15.3335
Si 4.88266 4.35392 10.7741
Si 7.70133 0.362134 11.3413
Si 6.42029 6.75137 14.6113
Si 8.50509 2.46828 14.5138
Si 6.22885 2.51687 12.9205
Si 8.88065 6.52339 13.093
O 5.93151 5.58187 15.6448
O 7.70109 1.54796 15.6123
O 7.46846 3.23708 13.577
O 10.1372 6.76719 14.1907
O 6.86104 1.05855 12.4319
O 9.19225 5.14982 12.2592
O 5.75325 3.1496 11.4376
O 8.84264 7.83283 12.2199
O 7.31736 6.20032 13.4326
O 9.79333 1.58523 13.9683
O 6.93928 8.23957 15.2377
O 9.11942 3.7739 15.3865
Si 10.0932 4.36544 11.1804
Si 12.5607 17.3421 11.2218
Si 11.5756 6.28152 14.65
Si 13.6945 2.37569 14.6
Si 11.1484 1.88218 13.112
Si 13.9719 6.262 12.6491
O 11.3607 5.32166 15.787
O 13.8501 1.08996 15.5581
O 12.0328 2.70328 14.1521
O 14.7842 7.19711 13.6771
O 11.7297 0.482028 12.5052
O 14.7142 4.91061 12.1233
O 10.8261 3.10869 12.0361
O 13.6754 7.16854 11.378
O 12.7342 5.86164 13.6184
O 14.3882 2.23966 13.11
O 12.268 7.60505 15.4335
O 14.2646 3.72144 15.2552
Si 14.7314 12.6677 10.9946
Si 2.65221 8.71956 11.1069
Si 1.17688 15.2988 14.7104
Si 4.02262 11.0291 14.3164
Si 1.15059 10.6662 12.8676
Si 3.64049 14.6838 12.8614
O 1.04679 14.3521 16.0406
O 3.92539 10.1241 15.8355
O 2.41161 10.9615 13.8659
O 4.8908 14.9251 13.9012
O 1.57741 9.11413 12.2443
O 4.01129 13.2981 12.206
O 1.18559 11.7593 11.6233
O 3.63506 15.9281 11.5868
O 2.33152 14.6393 13.6374
O 5.0866 10.6156 13.2644
O 1.95994 16.7051 15.0167
O 4.40141 12.4404 14.9959
Si 5.29009 12.9188 11.3208
Si 7.92788 8.47587 11.0091
Si 6.30046 15.2589 14.5946
Si 8.96959 10.7899 14.5694
Si 6.61867 10.6792 12.6242
Si 8.82058 15.1389 12.6649
O 6.51169 13.9695 15.5659
O 9.15544 9.35614 15.3825
O 7.39342 11.0084 13.9827
O 9.91477 15.3742 13.8603
O 6.79521 9.49341 11.5698
O 9.2278 13.9049 11.7801
O 6.54806 11.9402 11.6585
O 8.8226 16.587 11.717
O 7.53694 14.9561 13.5822
O 9.85127 10.2336 13.1439
O 6.15002 16.7025 15.1878
O 9.21293 12.3513 15.2768
Si 10.2189 12.9587 11.0806
Si 12.733 8.27098 10.7966
Si 11.481 15.3085 14.3881
Si 13.6391 11.0076 14.8741
Si 11.3717 10.4329 12.7742
Si 13.8361 15.1078 12.6035
O 11.4884 13.952 15.4506
O 13.8237 9.83176 15.9232
O 12.0269 10.8609 14.342
O 14.7517 15.8049 13.7742
O 11.9673 9.17351 11.9454
O 14.575 13.6244 12.2911
O 11.1871 11.913 12.0144
O 13.7733 16.2945 11.4792
O 12.5648 14.8413 13.4404
O 14.6403 10.6629 13.5293
O 11.5527 16.5757 15.4006
O 14.0487 12.4471 15.5393
324
 Atoms. Timestep: 18500
Si 15.1495 4.2439 0.35099
Si 2.95279 0.222087 0.267624
Si 1.49703 6.55493 3.9114
Si 3.82736 2.3043 4.01185
Si 1.26319 1.93821 2.35099
Si 3.95194 6.55388 1.9955
O 1.42395 5.124 4.77152
O 3.74379 0.733407 4.7641
O 2.30636 2.4746 3.43559
O 5.4239 6.46636 2.62635
O 2.1828 0.874562 1.59686
O 3.80773 5.19158 1.02997
O 0.795571 3.06436 1.23906
O 4.0083 7.65818 0.64917
O 2.91416 6.78453 3.0267
O 5.21981 2.09115 3.1939
O 1.44993 7.78818 5.13641
O 3.98048 3.4431 5.10319
Si 5.03093 4.48967 16.4088
Si 7.29502 0.224004 0.20031
Si 6.51203 6.46246 3.77076
Si 8.64323 2.07678 3.54963
Si 6.16103 2.21561 1.88181
Si 8.99799 6.46396 1.94465
O 6.30303 5.0421 4.68903
O 7.67681 1.47573 4.57278
O 7.67251 2.89316 2.33394
O 10.4278 7.0224 2.6237
O 6.16375 0.805059 1.22356
O 9.4732 4.94983 1.35029
O 5.85656 3.42284 0.977935
O 8.55988 7.53531 0.91355
O 7.90785 6.29348 2.93112
O 9.97555 1.37103 2.91371
O 6.45164 7.86856 4.47839
O 8.99851 3.34694 4.38815
Si 10.3666 4.33959 0.190841
Si 12.6158 17.1797 0.280312
Si 11.3617 6.56943 3.70144
Si 13.5171 2.33905 3.85923
Si 11.2332 2.10187 2.04699
Si 13.8787 6.50461 1.85951
O 10.9986 4.96902 4.40792
O 12.9628 1.25873 4.83464
O 12.3451 2.96886 2.92601
O 0.322305 6.4746 2.89295
O 11.5792 0.557626 1.36853
O 13.9742 5.21174 0.907383
O 11.0844 3.03228 0.63588
O 13.5861 7.82263 1.1229
O 12.9206 6.53005 3.22829
O 14.7116 1.48116 3.00216
O 11.4659 7.78641 4.75529
O 14.306 3.80825 4.51998
Si 14.9939 12.9378 0.177267
Si 2.9605 8.42741 16.1802
Si 1.40934 14.7858 3.45985
Si 4.19332 10.8598 3.77605
Si 1.86715 10.8967 1.68073
Si 3.85508 14.6328 1.75476
O 1.12142 13.4262 4.28434
O 3.05634 9.63262 4.42384
O 3.34477 11.2303 2.4596
O 4.80241 14.3394 3.01572
O 2.27208 9.41974 0.881792
O 4.09478 13.7531 0.450707
O 1.31926 11.9907 0.463124
O 3.87011 16.1808 1.13556
O 2.47601 14.2715 2.25728
O 5.81157 10.7968 3.63301
O 1.81157 15.9015 4.59846
O 4.24534 12.1867 4.79444
Si 5.12849 12.9437 16.0193
Si 7.66177 8.6992 0.183656
Si 6.17527 14.8304 3.70031
Si 9.21978 10.8624 3.5688
Si 6.62618 10.7665 2.13994
Si 8.72648 15.1753 1.92104
O 6.50376 13.5558 4.64198
O 8.36187 9.77954 4.51969
O 8.07328 11.2506 2.41779
O 9.97037 15.8241 2.70542
O 6.78543 9.18828 1.50246
O 9.40572 14.0179 0.823424
O 6.13148 11.7327 0.724022
O 8.37788 16.3666 0.940833
O 7.47196 14.6809 2.65791
O 10.5086 10.2354 2.82064
O 6.28987 16.3066 4.53254
O 8.95058 12.1419 4.78148
Si 10.3533 13.159 16.2734
Si 12.9715 8.65746 16.1919
Si 11.1301 15.6034 3.81716
Si 14.0067 10.884 3.32578
Si 11.4875 10.6529 1.53755
Si 13.7356 14.9643 1.99025
O 10.3593 14.2464 4.23298
O 13.5599 9.34138 4.09824
O 12.8796 11.1738 2.2214
O 0.0534612 15.6887 2.77144
O 11.8146 9.43338 0.566472
O 14.0341 13.3265 1.76144
O 10.8844 12.0647 0.949096
O 13.4016 15.7252 0.544228
O 12.5715 15.2309 3.20598
O 0.764821 10.7415 2.76322
O 11.0996 16.7086 5.04686
O 14.13 11.587 4.80205
Si 0.262284 4.48381 5.76177
Si 2.4187 17.1819 5.46223
Si 1.39469 6.49686 9.2179
Si 3.5496 2.04906 9.32763
Si 0.945769 1.9997 7.45944
Si 3.80109 6.74757 7.42537
O 1.148 5.47821 10.5283
O 3.5317 0.542234 10.1494
O 2.10726 2.17028 8.62879
O 4.81232 7.30042 8.55151
O 1.36583 0.941016 6.25316
O 4.40075 5.71756 6.28971
O 0.99339 3.67986 6.84236
O 3.5618 8.32339 6.77276
O 2.75391 5.99976 8.35811
O 4.53198 1.64132 8.12457
O 1.78549 8.02571 9.74731
O 3.99696 3.1494 10.3454
Si 5.17953 4.43097 5.7081
Si 7.23042 17.306 5.45897
Si 6.18267 6.72943 9.12291
Si 8.50806 2.4772 9.45329
Si 6.02263 2.13523 7.56751
Si 8.7709 6.52614 7.1919
O 5.95556 5.3788 9.71063
O 8.95549 1.25108 10.4857
O 6.98729 2.4604 8.84258
O 9.66884 7.12561 8.54157
O 6.47171 0.876564 6.70689
O 9.29869 4.98112 6.82196
O 5.67597 3.85704 7.17712
O 8.59189 7.37022 5.87187
O 7.29773 6.66107 7.73981
O 9.3788 2.48438 8.13478
O 6.77351 8.17427 9.94693
O 8.73492 3.99483 10.3396
Si 10.1499 4.15318 5.47736
Si 12.1782 0.297902 6.02401
Si 11.1483 6.74854 9.21565
Si 13.3572 2.19956 9.41858
Si 10.9925 2.42621 7.73035
Si 13.6961 6.80591 7.42207
O 10.9095 5.3867 10.0561
O 13.5306 1.17312 10.6075
O 11.7774 2.72074 9.06401
O 14.9207 6.53953 8.45883
O 11.481 0.953715 7.19321
O 14.0845 5.59898 6.29081
O 11.2332 3.48474 6.52098
O 13.3653 8.28043 6.56693
O 12.2807 6.23437 7.98691
O 14.0985 1.90688 7.94645
O 11.6877 7.90591 10.0527
O 13.8686 3.4969 10.1687
Si 15.0387 12.8817 5.46515
Si 2.38849 8.96052 5.68182
Si 1.32727 15.1468 9.01133
Si 3.91918 10.9853 9.12278
Si 1.22283 11.0893 7.35353
Si 3.78631 15.3073 7.5107
O 1.19433 13.8574 9.9493
O 3.37239 10.1394 10.4427
O 2.60335 11.2417 8.2617
O 4.87158 15.9412 8.56404
O 1.08262 9.88888 6.29556
O 4.77459 14.5812 6.48415
O 0.998806 12.5592 6.73004
O 3.01652 16.43 6.72103
O 2.56573 14.5728 8.26114
O 5.17954 10.0682 8.39491
O 1.2847 16.6515 9.67268
O 4.77774 12.3573 9.65358
Si 5.42136 13.211 5.8288
Si 7.69727 8.64024 5.3516
Si 6.18926 15.381 9.28594
Si 8.93412 11.15 8.94181
Si 6.37336 10.7013 7.48556
Si 8.67535 15.5178 7.40065
O 6.28135 14.2337 10.3423
O 8.9382 9.79876 10.0384
O 7.52346 11.1811 8.41638
O 9.7406 16.2079 8.4324
O 6.64231 9.58172 6.27419
O 9.06112 13.9417 6.86803
O 5.88562 12.0682 6.95831
O 8.49359 16.4017 5.94709
O 7.26727 15.0523 7.98693
O 9.98336 11.0712 7.69462
O 6.85983 16.9335 9.71402
O 9.4866 12.3737 9.82067
Si 9.77176 13.1908 5.70276
Si 12.538 8.81122 5.28793
Si 11.205 15.4506 9.12427
Si 13.3568 11.2321 9.2408
Si 11.3101 11.3076 6.90892
Si 13.668 14.9074 7.16837
O 10.5962 14.535 10.4074
O 13.2953 9.9208 10.4037
O 12.3028 11.5095 8.09725
O 14.9309 15.371 8.00524
O 11.881 10.1276 6.01005
O 13.9472 13.8729 5.99413
O 11.2163 12.7484 6.30024
O 13.2145 16.2691 6.64777
O 12.434 14.6732 8.47771
O 14.9543 10.8104 8.65639
O 11.9037 16.7254 9.71373
O 13.5079 12.6724 10.0047
Si 0.107255 4.29064 11.0949
Si 2.41958 16.9877 10.9369
Si 1.38497 6.2385 14.5863
Si 3.70588 2.47216 14.5345
Si 1.25779 2.00167 12.8412
Si 3.91473 6.38763 12.6493
O 1.3475 5.09448 15.7858
O 3.81639 1.38701 15.696
O 2.19441 2.76221 13.9425
O 4.97684 6.5049 13.8252
O 2.04748 0.711579 12.248
O 4.38018 5.30027 11.5993
O 1.28666 3.22105 11.6974
O 3.53432 7.5103 11.6155
O 2.49569 5.96453 13.3584
O 4.59192 1.88452 13.2053
O 1.84375 7.60484 15.4189
O 4.32419 3.89329 14.9926
Si 5.11155 4.17773 10.7352
Si 7.82706 0.24683 11.1813
Si 6.53064 6.57647 14.6641
Si 8.64271 2.53883 14.6016
Si 6.18886 2.29424 12.707
Si 8.95921 6.65294 12.8086
O 6.27761 5.65335 15.977
O 8.20259 1.50727 15.7667
O 7.017 2.9796 13.9383
O 9.7979 7.3663 14.0644
O 7.01731 0.979532 12.4194
O 9.46546 5.17755 12.4351
O 6.26492 3.24172 11.4469
O 9.15011 7.8531 11.5353
O 7.38392 6.43581 13.2287
O 9.62197 1.72205 13.4467
O 7.04017 8.06596 15.1817
O 9.60097 3.64949 15.189
Si 9.98078 4.40505 11.0809
Si 12.5815 17.2106 11.0908
Si 11.0828 6.66056 14.6896
Si 13.745 2.19064 14.7695
Si 11.1285 1.98179 12.7339
Si 13.4446 6.30043 12.9645
O 11.2137 5.74031 16.0401
O 13.6988 1.15088 16.0465
O 12.2828 2.09258 13.8318
O 14.6262 6.50834 14.1242
O 11.5438 0.327288 12.219
O 13.8882 4.73841 12.3412
O 10.9235 3.19524 11.7177
O 13.6392 7.60212 11.672
O 11.9862 5.69978 13.5744
O 14.6766 1.54239 13.5998
O 12.3338 8.01989 14.9033
O 14.2305 3.58859 15.305
Si 14.9614 13.1596 10.9637
Si 2.68443 8.80825 10.8343
Si 1.14164 15.4441 15.0524
Si 3.77971 10.611 14.2163
Si 1.25412 10.8872 12.5968
Si 3.31278 14.7313 12.8561
O 0.93852 14.3732 16.2748
O 3.65164 9.46725 15.2549
O 2.4717 11.3321 13.5874
O 4.66503 15.3718 13.6838
O 1.67562 9.48831 11.8737
O 4.11398 13.5977 11.8302
O 1.19297 12.0064 11.3968
O 2.73497 15.6058 11.6236
O 2.20555 14.7437 13.9176
O 4.78018 10.2963 13.0731
O 1.99948 16.7135 15.5289
O 4.187 12.1747 14.8188
Si 5.32777 13.0792 10.9656
Si 7.97764 8.80172 10.8893
Si 6.09774 15.3571 14.4686
Si 8.56193 11.0371 14.7337
Si 6.2447 10.6585 12.7217
Si 8.63276 14.9264 12.8728
O 6.20778 13.9853 15.2438
O 8.40912 10.0051 15.9938
O 7.02614 11.0167 14.0776
O 9.47526 15.436 14.2881
O 7.05091 9.4289 12.0938
O 9.11228 13.3803 12.4026
O 6.21633 11.9277 11.8418
O 8.58781 16.014 11.4007
O 7.21112 15.2493 13.2951
O 9.55914 10.4098 13.5635
O 6.44073 16.6763 15.2783
O 9.23634 12.5005 15.2105
Si 10.1792 13.1863 11.164
Si 12.4854 8.71468 11.1856
Si 11.0792 15.3281 14.658
Si 13.5844 11.0909 14.5824
Si 10.8884 10.856 12.9155
Si 13.491 15.1473 12.9525
O 11.3914 14.0215 15.601
O 14.0152 9.74623 15.5024
O 12.0118 11.3577 14.0757
O 14.4008 15.382 14.3249
O 11.5784 9.19598 12.5659
O 14.2547 13.8924 12.2582
O 11.1001 11.9616 11.7264
O 13.7151 16.2512 11.7896
O 11.8755 14.6759 13.2789
O 14.7811 10.8689 13.3417
O 11.6751 16.6758 15.4072
O 13.7404 12.4695 15.6077
324
 Atoms. Timestep: 19000
Si 0.137118 4.04884 0.175359
Si 2.82804 17.1549 0.226192
Si 1.58165 6.78029 3.7118
Si 3.8256 2.39189 3.59564
Si 1.53493 1.8976 2.07982
Si 3.86676 6.10744 1.55668
O 0.955399 5.46581 4.21327
O 3.12999 0.980025 4.36466
O 2.51177 3.0495 2.6729
O 5.47421 6.54101 2.10481
O 2.26463 0.578528 1.74221
O 3.93457 4.57923 0.88084
O 0.83011 2.76164 0.791439
O 3.51028 7.43072 0.844167
O 3.17272 6.39773 2.97416
O 5.20436 2.04567 2.81016
O 2.03078 8.01528 4.40322
O 4.1144 2.99755 5.0678
Si 5.24167 4.19382 16.2721
Si 7.44422 0.156931 16.2315
Si 6.18628 6.39486 3.54509
Si 8.79674 2.42602 3.77076
Si 6.40557 2.25597 1.79196
Si 8.63661 6.5021 1.91022
O 5.37637 4.99051 4.05424
O 8.41634 0.860244 4.39673
O 7.5007 2.77593 2.80398
O 10.2336 6.72968 2.31745
O 6.70992 0.707456 1.27348
O 8.75724 5.12213 1.01937
O 6.46641 3.57847 0.740719
O 8.0955 7.74779 1.04103
O 7.95872 6.31227 3.43185
O 10.4829 2.57055 3.25315
O 6.19687 7.43043 4.78726
O 8.66913 3.66531 4.76876
Si 10.0356 4.47634 16.3713
Si 12.3369 17.2146 0.285947
Si 11.2756 6.43599 3.56717
Si 13.7358 2.29772 3.75119
Si 11.4832 2.3593 1.89507
Si 13.9829 6.52253 1.94042
O 10.9766 4.9241 4.32644
O 12.7486 1.07339 4.51398
O 13.0563 2.84677 2.33707
O 0.570421 7.23278 2.50038
O 11.6145 0.885165 1.45035
O 14.6138 5.05882 1.45514
O 10.6807 3.25412 0.706716
O 13.5052 7.26102 0.579694
O 12.9744 6.25821 3.11246
O 0.278558 1.4197 3.25236
O 11.5995 7.96412 4.23192
O 14.4103 3.39381 4.50288
Si 0.426761 12.959 16.3331
Si 2.59016 8.44605 16.1542
Si 1.03017 15.2477 3.95194
Si 4.14019 10.9476 3.78324
Si 1.56942 10.6308 1.82299
Si 3.71769 14.7888 1.95406
O 0.566462 13.6377 4.15639
O 3.79242 9.57499 4.86447
O 2.9817 10.8529 2.55387
O 5.10265 15.456 2.7577
O 1.68586 9.48994 0.790393
O 3.85908 13.2845 1.10574
O 1.09549 11.9173 0.939867
O 3.60241 15.7646 0.701377
O 2.61592 15.1528 3.02455
O 5.53532 10.4023 3.40262
O 1.73889 15.9972 5.21593
O 3.97517 12.3532 4.42575
Si 5.11585 12.8936 0.171505
Si 7.08688 8.91589 16.4643
Si 6.13066 15.264 3.87168
Si 8.95023 10.7983 3.77512
Si 6.55138 10.8863 2.1922
Si 8.65731 15.4174 2.01559
O 6.02742 13.6555 4.54503
O 8.304 9.31028 4.1589
O 8.05865 11.457 2.49738
O 10.2483 15.9694 2.45984
O 6.25178 9.59362 1.29946
O 8.92133 13.8603 1.54419
O 6.21122 12.3244 1.34198
O 7.93973 15.9651 0.57905
O 7.56551 15.6581 3.23824
O 10.4826 10.6537 3.38836
O 6.38012 16.2394 5.27802
O 9.04466 11.7401 5.11462
Si 9.78294 13.0652 0.516635
Si 12.5855 8.65078 0.239028
Si 11.0921 15.0371 3.43095
Si 13.8982 10.6882 3.76031
Si 11.611 10.9401 2.19953
Si 13.6157 14.892 1.98192
O 10.2968 13.7973 3.9168
O 13.5786 9.12793 4.17991
O 13.078 11.582 2.64142
O 14.8725 15.6641 2.84962
O 11.8229 9.34617 1.52253
O 14.1258 13.4923 1.19941
O 10.9961 12.245 1.27674
O 13.2185 15.93 0.830751
O 12.269 14.4603 2.6618
O 0.621818 10.3316 2.96094
O 11.5005 16.1518 4.5867
O 13.8521 11.4637 5.09655
Si 0.197532 4.51741 5.43235
Si 2.63385 0.23768 5.68638
Si 1.46426 6.66431 9.11425
Si 3.90197 2.35976 9.01486
Si 1.20757 2.45121 7.38933
Si 3.63938 6.45839 7.46896
O 1.14148 5.95149 10.5937
O 3.94259 1.23833 10.3189
O 2.42334 2.72344 8.48353
O 4.8619 6.45805 8.66624
O 1.4338 1.23917 6.38185
O 4.13011 5.44539 6.31291
O 1.19655 3.83851 6.63632
O 3.11852 7.94417 6.82268
O 2.27045 5.72802 7.98324
O 5.0299 1.82158 7.90612
O 1.92131 8.1385 9.38709
O 4.25869 3.8111 9.88974
Si 5.01562 4.34676 5.50306
Si 7.74182 0.0705793 5.66475
Si 6.43948 6.52167 9.35351
Si 8.80745 2.46791 9.23744
Si 6.47159 2.3895 7.32012
Si 8.92246 6.59168 7.42889
O 6.59067 5.67721 10.6261
O 8.64012 1.32591 10.3408
O 7.42911 2.85963 8.4562
O 9.9878 7.32785 8.52679
O 6.94497 1.401 6.2791
O 9.80955 5.21043 7.00045
O 6.03293 3.75759 6.54882
O 8.71725 7.38673 5.85724
O 7.46216 6.39566 8.19833
O 9.50629 2.02366 7.8644
O 6.6442 8.01465 9.96951
O 9.28605 3.90092 9.95603
Si 10.0807 4.46108 5.56103
Si 12.2127 17.1148 5.56604
Si 11.4344 6.89447 9.19518
Si 13.6334 2.63195 8.97797
Si 11.0074 2.18109 7.26795
Si 13.7674 6.59399 7.30427
O 10.974 5.70234 10.2829
O 13.5941 1.49546 10.1389
O 11.9856 2.60582 8.39639
O 0.108448 7.05589 8.23936
O 11.3252 0.477924 6.77879
O 14.0846 5.47905 6.30212
O 10.9637 3.31157 6.16263
O 13.2462 7.94084 6.65443
O 12.5504 6.05879 8.13865
O 14.5308 1.95608 7.83569
O 12.1077 8.20211 9.94001
O 14.5309 3.86343 9.65279
Si 14.8238 12.8739 5.55743
Si 2.51286 8.90296 5.66608
Si 1.20306 15.3328 9.42705
Si 3.84744 10.7323 9.32104
Si 1.2833 10.9542 7.3378
Si 3.59524 15.2638 7.6219
O 1.30349 14.2923 10.6645
O 3.5043 9.8472 10.6359
O 2.70935 10.9682 8.25542
O 4.99795 15.5208 8.18332
O 1.52763 10.0694 6.10442
O 3.93732 14.0288 6.45631
O 0.639509 12.3533 6.80308
O 3.37845 16.6823 6.97809
O 2.41531 14.6684 8.53431
O 5.10646 10.2324 8.4731
O 1.87617 16.7277 9.87083
O 4.03763 12.2181 10.1072
Si 4.85559 13.0728 5.48567
Si 7.44219 8.39781 5.25751
Si 6.2704 15.2162 9.10545
Si 8.89455 10.9571 8.99426
Si 6.37893 10.7762 7.4067
Si 8.82767 15.085 7.5385
O 5.85603 14.3129 10.4938
O 8.81171 9.30995 9.78339
O 7.64303 11.5931 8.16615
O 9.95381 15.2451 8.59538
O 7.16423 9.51122 6.38092
O 9.30952 14.1939 6.10185
O 5.70614 11.8542 6.36336
O 8.51314 16.4262 6.62343
O 7.56256 14.4977 8.20538
O 10.1137 10.7343 7.85432
O 6.84106 16.6384 9.66252
O 9.28763 12.3781 9.74479
Si 9.88372 12.9945 5.45913
Si 12.4791 8.68438 5.39897
Si 11.5387 15.1502 9.2205
Si 13.9239 11.0243 9.37917
Si 11.5347 10.9987 7.11955
Si 13.7745 15.2642 7.11716
O 11.3805 13.9338 10.0857
O 13.542 10.0689 10.5567
O 12.8825 11.0531 8.16132
O 14.7897 15.2249 8.43133
O 11.4392 9.65925 6.29473
O 13.6215 13.8716 5.9729
O 11.1957 12.2733 6.25467
O 13.6055 16.4837 6.24215
O 12.4042 14.7323 8.05105
O 0.521934 10.6024 8.73872
O 11.8849 16.6926 9.70369
O 14.1897 12.5921 10.1488
Si 0.259687 4.66179 11.0047
Si 2.8366 0.241409 10.9389
Si 0.987627 6.26719 14.6042
Si 3.66425 1.99255 14.5042
Si 1.06496 2.08064 12.6437
Si 3.54341 6.35742 12.7394
O 1.1492 4.96381 15.5051
O 3.7838 1.38495 16.0314
O 2.23659 2.05936 13.7138
O 4.5643 7.0855 14.0383
O 1.5023 0.752165 11.8386
O 4.21845 4.81926 12.2128
O 1.13508 3.57001 11.9898
O 3.09292 7.28214 11.5493
O 2.11645 5.89139 13.4693
O 4.64411 1.14871 13.5562
O 1.39669 7.57906 15.3731
O 4.50949 3.37423 14.8326
Si 5.26062 4.31272 11.1076
Si 7.73655 17.1988 10.8813
Si 5.94558 6.76524 14.6608
Si 8.63928 2.42304 14.5862
Si 6.04515 1.84155 12.9062
Si 8.67815 6.37764 12.9806
O 5.95452 5.60824 15.7821
O 8.46881 1.29367 15.7772
O 6.88118 2.56854 14.1537
O 9.63138 6.96322 14.1284
O 7.1923 0.739516 12.403
O 9.41563 5.02959 12.4182
O 6.04968 3.02368 11.7294
O 8.74686 7.62654 11.8221
O 7.22334 6.46078 13.5316
O 9.71667 2.28213 13.2628
O 6.20917 8.26509 15.3309
O 9.0055 3.85128 15.2378
Si 10.1517 4.54197 11.0026
Si 12.7621 0.312237 10.82
Si 11.087 6.81098 14.8041
Si 13.5251 2.25111 14.7787
Si 11.3974 2.44621 12.6412
Si 13.4583 6.66135 12.8464
O 11.1674 5.62693 15.8482
O 13.3031 0.91252 15.5706
O 12.0968 2.61693 14.0626
O 14.3954 6.60588 14.117
O 11.9592 0.868758 12.0489
O 13.8515 5.59621 11.5537
O 11.4428 3.66304 11.4617
O 13.3818 7.95817 12.0728
O 12.1376 6.28108 13.5853
O 14.6565 2.17981 13.6183
O 11.543 8.48268 15.377
O 13.5064 3.5303 15.9299
Si 0.292204 13.2298 11.272
Si 2.43134 8.547 10.9215
Si 1.44585 15.2451 14.6887
Si 3.77945 10.743 14.52
Si 1.15031 10.7265 12.7046
Si 3.66788 15.0382 12.9795
O 1.3281 14.2394 15.9349
O 3.63881 9.38955 15.3633
O 2.35611 11.2318 13.8973
O 4.5699 15.4603 14.1382
O 1.33583 9.18906 12.0307
O 4.45197 13.5829 12.4363
O 1.18844 12.1481 11.9622
O 3.59245 16.1769 11.71
O 2.24075 14.2662 13.6853
O 4.8503 10.4431 13.0206
O 1.89749 16.7533 15.1999
O 4.52352 11.7734 15.5155
Si 5.2231 12.9734 11.116
Si 7.94759 8.57734 10.9464
Si 6.05603 15.2916 14.7452
Si 8.47691 11.0348 14.7679
Si 6.42873 10.7825 12.6102
Si 8.51833 14.9834 12.8076
O 5.7952 14.0437 15.5595
O 8.37102 9.65305 15.6096
O 7.22585 11.4531 13.7825
O 9.51394 15.3245 13.9413
O 7.27805 9.57016 12.0567
O 8.92181 13.6076 11.8499
O 6.50197 12.0182 11.5577
O 8.58753 16.1278 11.6085
O 6.93201 14.9993 13.2431
O 9.7322 10.6963 13.7229
O 6.60638 16.8568 15.0171
O 8.87334 12.2129 15.781
Si 10.2443 13.0171 10.9758
Si 12.6031 8.94652 11.2121
Si 10.826 15.3306 14.879
Si 13.6412 10.8681 14.5961
Si 11.1231 11.0027 12.9797
Si 13.7423 15.3898 12.9975
O 10.7943 13.9158 15.7983
O 13.2341 10.0501 16.0269
O 12.2432 11.3913 14.0664
O 0.0446005 15.8422 13.8898
O 11.5899 9.52235 12.1894
O 14.0598 14.0531 12.1938
O 11.2105 12.2312 11.9166
O 13.7705 16.3737 11.6433
O 12.3685 15.0861 13.8767
O 14.816 10.1242 13.6108
O 11.1523 16.7494 15.7394
O 14.4766 12.3228 15.0584
324
 Atoms. Timestep: 19500
Si 0.279513 4.35235 16.4088
Si 2.52452 17.3033 16.288
Si 1.40849 6.54715 3.55176
Si 3.81342 2.01551 3.53395
Si 1.17817 2.01696 1.61532
Si 3.90864 6.34295 1.78338
O 0.365716 5.34391 4.39262
O 3.41574 0.532797 4.14248
O 2.47437 2.19213 2.5186
O 5.33606 7.05841 2.33376
O 1.52055 0.645952 1.00418
O 4.74427 5.04468 1.13534
O 1.28785 3.26733 0.591878
O 3.42603 7.32963 0.454741
O 2.93929 5.89412 2.99516
O 5.24262 1.43832 2.8196
O 2.11066 7.53043 4.67191
O 4.28182 2.97002 4.76185
Si 5.34438 4.33053 16.2884
Si 8.11256 17.0464 16.4969
Si 6.27917 6.37109 3.63265
Si 8.74918 2.18489 3.90662
Si 6.4888 1.93965 1.90696
Si 8.8035 6.60093 1.71556
O 5.58677 5.02176 4.06592
O 8.70017 0.956092 4.89477
O 7.33611 2.49309 3.14925
O 10.2846 6.91219 2.39756
O 7.54955 0.674921 1.3633
O 8.83574 5.51015 0.536283
O 6.15684 3.06069 0.656553
O 8.36833 7.97324 1.17447
O 7.81563 6.32851 3.18781
O 10.0334 1.87823 2.79951
O 6.38903 7.24603 4.99469
O 8.79943 3.38991 4.96434
Si 9.98442 4.34407 16.2246
Si 12.363 0.283744 16.4537
Si 11.1242 6.45456 3.78453
Si 13.7225 2.16937 3.69695
Si 11.163 2.56938 1.96307
Si 13.7679 6.43071 2.01595
O 10.5927 5.02788 4.16309
O 13.446 0.687711 4.27078
O 12.4197 2.91772 3.01623
O 0.221893 7.42162 2.60554
O 11.7054 1.50116 0.866648
O 14.3144 5.09253 1.31335
O 10.7073 3.99671 1.34382
O 13.1956 7.06261 0.687117
O 12.7847 6.37386 3.29595
O 14.7006 2.18046 2.35814
O 11.3648 7.78099 4.89294
O 14.4438 2.90208 4.99678
Si 0.708454 12.9854 0.158347
Si 2.35229 8.51429 16.2478
Si 1.29224 15.1291 3.69267
Si 4.12733 10.936 3.64795
Si 1.53131 10.5529 1.86481
Si 3.87956 15.4802 1.88916
O 1.26093 13.7971 4.65853
O 3.79685 9.60335 4.73414
O 3.03099 10.7155 2.34289
O 5.17765 15.9466 2.91653
O 1.30929 9.22892 0.967914
O 4.22995 13.9082 1.5416
O 1.32095 11.9911 1.26167
O 3.77753 16.671 0.801434
O 2.45883 15.1941 2.54747
O 5.46114 10.5239 2.90046
O 1.44015 16.4284 4.55222
O 4.05193 12.5429 4.38683
Si 5.06524 13.1533 0.36819
Si 7.54908 8.83806 16.2979
Si 6.40892 15.4694 3.72655
Si 8.82493 10.4139 3.9298
Si 6.66366 10.9221 1.7623
Si 8.96506 14.847 2.23605
O 6.10049 14.3014 4.97677
O 8.42364 9.11531 4.87859
O 8.01961 10.8055 2.603
O 10.0329 15.6297 3.33897
O 6.55187 9.90334 0.455208
O 9.71509 13.5956 1.42329
O 6.61624 12.4784 1.03896
O 8.87172 15.9006 0.93111
O 7.28134 14.7755 2.5413
O 10.3121 10.5243 3.22883
O 6.72494 16.8841 4.39352
O 8.78922 11.5758 5.16129
Si 10.1544 12.73 0.191221
Si 12.5516 8.43479 0.163346
Si 11.3507 14.8973 3.90963
Si 14.0372 10.7828 3.904
Si 11.5326 10.5716 2.12095
Si 13.7265 15.1347 1.67292
O 10.9819 13.5887 4.6079
O 13.5375 9.30889 4.49427
O 12.7355 11.2734 3.02859
O 14.8032 15.1649 2.93741
O 11.446 9.01102 1.36618
O 14.6212 14.2361 0.776767
O 11.238 11.671 0.909346
O 13.2561 16.6322 1.20328
O 12.2806 14.3389 2.3423
O 0.426883 10.5507 2.93516
O 12.2067 15.7197 5.00608
O 14.3236 11.7046 5.09163
Si 14.8529 4.36595 5.54663
Si 2.55579 -0.029277 5.29587
Si 1.27881 6.70891 9.05704
Si 3.66921 2.50477 9.08481
Si 1.35531 2.42994 7.05533
Si 3.95803 6.56377 7.3088
O 0.592718 5.7757 10.3085
O 3.54351 1.46902 10.4193
O 2.34041 2.62923 8.25397
O 5.48397 6.59502 7.8741
O 1.73153 1.42752 5.88996
O 3.84335 5.47347 5.99804
O 1.17208 3.92203 6.45717
O 3.7195 8.0626 6.66336
O 2.54566 6.28284 8.12495
O 4.97241 2.08001 8.12506
O 1.62984 7.9128 10.0658
O 3.84329 3.85423 9.86217
Si 5.01958 4.39506 5.32933
Si 7.55733 0.23506 5.77878
Si 6.56306 6.53559 9.21403
Si 9.06238 2.60142 9.03687
Si 6.34747 2.66223 7.49521
Si 8.89906 6.3782 7.57883
O 6.08875 5.53518 10.2959
O 8.6511 1.48481 10.23
O 7.63264 3.08541 8.45617
O 9.80375 7.28764 8.68475
O 6.59756 1.27422 6.56547
O 9.39288 5.23154 6.60101
O 5.98322 4.09061 6.58197
O 8.0652 7.6017 7.02557
O 7.87915 5.68774 8.61223
O 9.86084 2.09823 7.7157
O 6.47748 8.00584 9.83736
O 9.66936 4.19526 9.5259
Si 10.0848 4.40071 5.46757
Si 12.7101 17.1678 5.51648
Si 11.3023 6.89516 9.35604
Si 13.8007 2.30973 9.10562
Si 11.2895 2.30465 7.17431
Si 13.5793 6.47546 7.47062
O 10.9541 6.01721 10.8115
O 13.7785 1.38722 10.4606
O 12.6393 2.20107 7.92842
O 15.0243 6.95089 8.04978
O 11.3986 0.820184 6.04426
O 13.5619 5.01708 6.49343
O 11.3387 3.75562 6.26871
O 13.1516 7.9379 7.01851
O 12.4793 6.06652 8.50931
O 0.158214 1.83221 8.25942
O 11.7581 8.47931 9.65886
O 13.8257 3.79618 9.85332
Si 0.358886 12.8644 5.71471
Si 2.83454 8.74987 5.62221
Si 1.33845 15.3947 9.36534
Si 4.27506 11.0912 9.29916
Si 1.61955 10.7522 7.5477
Si 3.50081 15.0324 7.26085
O 1.25186 14.0731 10.4919
O 3.81526 9.65107 10.0171
O 2.98272 11.1086 8.20542
O 4.82066 15.5292 8.42096
O 1.77049 9.42448 6.65365
O 3.86267 13.5715 6.52066
O 1.41783 12.0407 6.56881
O 3.34656 16.3382 6.47776
O 2.27232 14.5976 8.25472
O 5.60694 10.9415 8.42126
O 1.61358 16.8639 9.86497
O 4.44007 12.6574 9.77723
Si 5.09706 13.2204 5.55481
Si 7.11996 8.47011 5.78406
Si 6.21639 15.2868 9.09885
Si 9.05697 10.9254 9.18073
Si 6.61099 11.0179 7.17223
Si 8.41471 15.0647 7.6155
O 6.23255 14.3342 10.513
O 8.27554 10.0675 10.484
O 8.16059 11.2929 7.9225
O 9.71759 15.4969 8.45319
O 6.47494 9.65983 6.52004
O 9.07892 14.0679 6.19769
O 5.93095 12.0929 6.29805
O 8.09738 16.2445 6.58822
O 7.15838 14.214 8.23723
O 10.1794 9.91771 8.44381
O 6.89738 16.7014 9.77163
O 9.68767 12.3159 9.63386
Si 9.87165 12.7941 5.75567
Si 12.5311 8.63707 5.54584
Si 11.3465 15.4276 9.39994
Si 13.831 10.8893 9.33178
Si 11.222 10.7423 7.4608
Si 13.7273 15.2246 7.44596
O 11.2777 14.1894 10.4622
O 13.7572 9.74247 10.5268
O 12.5931 11.0227 8.31548
O 14.6439 15.4711 8.78608
O 11.6956 9.89136 6.12963
O 14.4133 13.8955 6.66852
O 10.6898 12.2716 7.21481
O 14.0501 16.6989 6.53073
O 12.2001 15.3082 8.04875
O 0.357321 10.356 8.44382
O 11.5831 16.8966 10.0306
O 13.9275 12.5402 9.95108
Si 14.7854 4.46323 11.0873
Si 2.57921 0.325484 11.0997
Si 1.06582 6.57451 14.5261
Si 3.51708 2.49669 14.5341
Si 0.980021 2.13602 12.7717
Si 3.64663 6.5607 12.7941
O 1.28809 5.50095 15.6394
O 3.48428 1.30442 15.6402
O 1.98669 2.60433 13.9561
O 4.39476 6.80438 14.2631
O 1.54226 0.779349 12.2336
O 4.09595 5.11094 11.9226
O 0.882973 3.32622 11.7017
O 3.74333 7.73574 11.6666
O 1.98589 6.18542 13.1636
O 4.46072 1.9088 13.4488
O 1.64381 8.01197 14.8474
O 4.00422 3.79949 15.2911
Si 5.01489 4.369 10.8894
Si 7.78652 0.154944 10.8936
Si 5.99488 6.56908 14.5519
Si 8.4745 2.05898 14.4295
Si 5.98772 2.21009 12.6417
Si 8.12454 6.41801 12.6559
O 6.28068 5.04345 15.2442
O 8.70695 1.01652 15.5757
O 7.08678 2.44457 13.9068
O 9.31353 7.02975 13.7676
O 6.46801 0.805158 11.9511
O 8.66721 5.03852 11.9425
O 6.12815 3.32416 11.4164
O 8.42063 7.61114 11.5199
O 6.54725 6.4779 13.025
O 9.49545 1.51999 13.1775
O 6.72307 7.7531 15.4233
O 9.18105 3.27588 15.3879
Si 10.0029 4.62723 11.0007
Si 12.7949 0.20329 11.0065
Si 10.9026 6.97529 14.5483
Si 13.3558 2.56245 14.6298
Si 10.9196 2.17568 12.6245
Si 13.4905 6.45582 12.9386
O 10.798 5.38862 15.1771
O 13.4057 0.992768 15.4008
O 11.7655 2.67207 13.9811
O 14.4277 6.57887 14.2129
O 11.753 0.915395 11.995
O 13.7307 5.11188 12.1013
O 10.9306 3.60165 11.8484
O 13.4925 7.55165 11.7387
O 11.9266 6.60818 13.2869
O 14.3858 2.19021 13.442
O 11.4924 8.21722 15.2652
O 14.1074 3.86308 15.3123
Si 14.8922 13.1114 11.0816
Si 2.78471 8.75768 10.924
Si 1.11802 15.2581 14.4586
Si 3.53271 11.0391 14.9644
Si 1.20674 10.846 12.791
Si 3.5558 15.2803 12.6719
O 1.55219 13.947 15.4447
O 3.53328 9.61983 15.923
O 2.30028 11.5315 14.1284
O 4.65443 15.7423 13.7689
O 2.04325 9.68011 12.0235
O 3.84228 14.0004 11.7341
O 0.784335 11.9667 11.7857
O 3.66887 16.3878 11.528
O 2.10874 15.1434 13.2929
O 4.8037 10.4825 13.9422
O 1.66501 16.6389 15.0286
O 4.25131 12.1339 16.0154
Si 5.20037 13.2058 11.0968
Si 7.59064 8.82393 11.165
Si 6.11054 15.3464 14.6114
Si 8.74214 10.8631 14.6385
Si 6.20285 10.8504 13.109
Si 8.73536 15.0508 12.8681
O 5.79049 14.28 15.7017
O 8.69619 9.50767 15.4293
O 7.36336 11.374 14.0086
O 9.58557 15.7561 14.1979
O 6.80388 9.42032 12.4969
O 9.12064 13.5948 12.1721
O 5.74345 11.9993 12.019
O 8.59638 16.3557 11.8473
O 7.0386 14.5534 13.5316
O 10.0308 10.7683 13.6264
O 7.05671 16.5879 15.2973
O 9.02229 11.9791 15.7163
Si 10.2457 12.822 11.0728
Si 12.5981 8.68805 11.0787
Si 10.9585 15.0429 14.841
Si 14.0037 10.6427 14.9908
Si 11.597 10.6588 13.0625
Si 13.4219 15.1491 12.9416
O 10.9595 13.7388 15.6084
O 13.4988 9.61223 16.2566
O 12.6386 10.8112 14.1267
O 14.4243 15.2923 14.228
O 11.7354 9.30554 12.2188
O 13.7009 13.9919 11.8648
O 11.3451 11.8542 11.8062
O 13.5639 16.2999 11.8869
O 11.9022 14.7564 13.5607
O 15.0095 10.0986 13.7611
O 11.305 16.588 15.7437
O 14.5473 11.9297 15.6626
324
 Atoms. Timestep: 20000
Si 0.19324 4.32903 16.3673
Si 2.41249 17.3173 16.3255
Si 1.34987 6.27948 3.49118
Si 3.44971 2.19707 3.60856
Si 1.1084 2.22699 1.73529
Si 3.62635 6.39217 1.95171
O 0.992113 5.15447 4.70119
O 3.64352 0.732061 4.35446
O 2.00103 2.37139 3.18384
O 4.65031 6.99924 3.02859
O 1.79151 0.765217 1.25037
O 4.50075 5.32643 1.05407
O 1.33389 3.2596 0.545089
O 3.36399 7.7023 0.944224
O 2.20918 5.64206 2.3182
O 4.52311 1.90446 2.35144
O 1.74037 7.73111 4.14104
O 4.0923 3.54832 4.28783
Si 5.25352 4.34706 0.0277448
Si 7.65965 17.2933 16.5715
Si 6.06171 6.53054 3.80648
Si 8.66053 2.42783 3.68369
Si 6.07342 1.98487 1.85845
Si 8.77942 6.61246 1.9699
O 6.00138 5.21424 4.88201
O 8.47114 1.66811 5.14869
O 6.96205 2.48194 3.28819
O 9.94762 6.59124 3.15195
O 6.75191 0.634665 1.2206
O 9.17662 5.47815 0.830786
O 6.07508 3.27871 0.922908
O 8.64333 7.98537 1.09324
O 7.1096 6.44496 2.71131
O 9.56552 1.57132 2.49513
O 6.44162 7.94964 4.63957
O 9.33716 3.87334 4.1054
Si 9.99048 4.36646 16.3493
Si 12.7015 0.112277 0.0147615
Si 11.4485 6.58439 3.71549
Si 13.5171 2.34992 3.56199
Si 10.9337 2.03399 1.81897
Si 13.8389 6.30129 1.57344
O 11.1372 5.60341 5.01922
O 13.5463 0.940458 4.45136
O 12.1942 2.46084 2.76209
O 14.9244 6.70292 2.73079
O 11.5174 0.744646 0.98423
O 14.4487 4.82224 1.21524
O 10.8464 3.32957 0.84398
O 13.7733 7.45067 0.342443
O 12.4431 5.89853 2.65544
O 14.6662 2.59042 2.23817
O 12.2136 8.03839 4.22855
O 13.7166 3.51599 4.89227
Si 14.7891 12.9231 0.175523
Si 2.42502 8.90413 0.133926
Si 1.20755 15.1354 3.67674
Si 3.91516 10.8189 3.82261
Si 1.52119 11.1092 2.37134
Si 3.70918 15.2488 1.87156
O 1.31173 13.8726 4.64448
O 3.44591 9.47078 4.60083
O 3.01989 11.6997 2.59011
O 4.68499 15.8521 2.95935
O 1.4704 9.777 1.23243
O 4.4283 14.068 1.07229
O 0.544366 12.1998 1.45106
O 3.52893 16.3526 0.70728
O 2.31643 14.9839 2.5554
O 5.08261 10.1777 2.7567
O 1.66984 16.3704 4.65947
O 4.40764 12.0651 4.8718
Si 5.25006 13.1839 16.418
Si 7.64435 8.6729 16.491
Si 6.17447 15.5859 3.54626
Si 9.10794 10.6415 3.71147
Si 6.32922 10.7337 1.7657
Si 8.70817 14.9533 1.98293
O 6.08274 14.3941 4.65878
O 8.82657 9.25636 4.49813
O 7.84676 10.7648 2.52966
O 9.95433 15.3409 3.04227
O 6.39765 9.645 0.395987
O 9.1758 13.5926 1.10525
O 5.7389 11.9673 0.995572
O 8.63801 16.0916 0.854277
O 7.01435 14.8492 2.27106
O 10.4171 10.1707 2.93444
O 6.98495 16.8636 4.21887
O 9.15731 11.6718 4.83756
Si 10.2056 12.872 0.189509
Si 12.6274 8.35972 16.0311
Si 11.3545 14.8595 3.78718
Si 14.0206 10.9275 4.06268
Si 11.6455 10.3841 1.83648
Si 13.6531 15.1374 1.87481
O 11.0414 13.7067 4.70146
O 13.6268 9.88159 5.37942
O 13.0859 10.6782 2.63787
O 14.7476 15.2672 3.09145
O 11.984 9.22111 0.904456
O 13.8419 14.0521 0.829713
O 11.2198 11.9594 1.07271
O 13.6073 16.6044 1.28101
O 12.2434 14.5449 2.61363
O 0.595768 10.8859 3.6018
O 11.8784 15.9797 4.80495
O 13.7432 12.3466 4.81081
Si 14.8041 4.42881 5.50009
Si 2.74469 17.2732 5.48554
Si 1.41457 6.7983 9.11229
Si 3.74594 2.50582 9.24501
Si 1.2875 2.25378 7.43698
Si 3.82996 6.26321 7.30793
O 1.1879 5.39291 10.0953
O 3.17587 1.52098 10.3576
O 2.60922 2.93747 8.1497
O 5.2735 6.29424 7.87198
O 1.71452 1.1302 6.19978
O 3.65174 5.06583 6.35475
O 0.641284 3.48066 6.57751
O 3.3119 7.69123 6.42656
O 2.77677 6.3372 8.46826
O 5.07439 1.82718 8.53257
O 1.68818 7.86143 10.3741
O 4.58018 3.57051 10.0338
Si 4.81638 4.3316 5.50146
Si 7.58065 0.304265 5.5836
Si 6.32707 6.60157 9.24912
Si 8.88088 2.06783 9.06059
Si 6.14782 2.08526 7.35243
Si 9.04188 6.66763 7.37954
O 5.89827 5.64512 10.4088
O 8.70173 1.0433 10.245
O 7.73797 2.31152 7.85534
O 10.3956 6.97182 8.22496
O 6.24815 0.727922 6.3492
O 9.0054 5.10788 6.6153
O 5.64321 3.65129 6.76537
O 8.62993 7.97745 6.65119
O 7.87884 6.50778 8.6089
O 9.87807 1.22112 8.07782
O 6.13086 8.02631 9.80745
O 9.46052 3.24764 9.91665
Si 10.0509 4.48671 5.50823
Si 12.7141 17.1767 5.44473
Si 11.6391 6.63277 9.18524
Si 13.856 2.15747 9.20757
Si 11.0774 1.95225 7.39291
Si 13.9179 6.63628 7.48307
O 11.3476 5.24527 10.136
O 13.6131 1.03936 10.3385
O 12.4073 2.48433 8.39899
O 0.280695 7.28819 8.20036
O 11.8579 1.13052 6.11714
O 14.1493 5.64852 6.18647
O 10.6502 3.47044 6.6736
O 12.9128 7.80508 6.83451
O 13.1195 5.95675 8.749
O 0.187281 1.58643 8.48403
O 11.8826 8.126 9.89146
O 14.2065 3.71168 9.77373
Si 0.210704 13.04 5.53253
Si 2.4641 8.54173 5.38333
Si 1.15306 15.3641 9.37709
Si 3.97885 11.0194 9.13547
Si 1.54513 10.664 7.31542
Si 3.53164 15.0961 7.34185
O 1.081 14.4436 10.7456
O 3.76353 9.65687 10.062
O 3.08063 10.9787 7.8265
O 4.43718 15.4734 8.78856
O 1.45538 9.55605 6.21263
O 4.07922 13.7433 6.61173
O 1.1547 12.0534 6.35483
O 3.77905 16.5867 6.6264
O 2.13388 14.6829 8.26713
O 5.47785 10.8276 8.43376
O 1.69221 16.8072 10.0379
O 4.11322 12.3669 10.1404
Si 5.23873 13.3495 5.59487
Si 7.7457 8.70951 5.44165
Si 6.00639 15.2104 9.19975
Si 8.96416 11.1881 9.14568
Si 6.46853 11.2779 7.2795
Si 8.51888 15.1464 7.26168
O 5.81507 14.2807 10.3782
O 8.02971 10.1434 10.0395
O 8.04254 11.4812 7.8929
O 9.61346 15.4855 8.37873
O 6.64882 9.90951 6.10108
O 9.2903 14.1027 6.32
O 6.14979 12.6411 6.7657
O 8.12247 16.2833 6.20292
O 7.1782 14.8641 8.16284
O 10.533 10.6372 8.83034
O 6.54463 16.4211 10.1907
O 9.2501 12.6793 10.0006
Si 10.1143 12.9467 5.70483
Si 12.3839 8.80171 5.6556
Si 11.169 15.0803 9.2204
Si 14.1768 10.9662 9.1298
Si 11.3839 10.7983 7.56489
Si 13.7089 15.1806 7.49053
O 11.4276 14.0435 10.2995
O 14.0217 9.90806 10.3819
O 12.8191 10.9767 8.33341
O 14.642 15.4086 8.66777
O 11.1546 9.49796 6.56501
O 14.2772 14.0904 6.42121
O 10.9014 12.1179 6.82109
O 13.695 16.6454 6.42587
O 12.145 15.0146 7.89023
O 0.350507 10.2922 8.3963
O 11.4621 16.4587 10.0216
O 14.3682 12.4325 9.85888
Si 0.261194 4.24832 10.7904
Si 2.61268 0.308108 11.1637
Si 0.929969 6.97448 14.7107
Si 3.62376 2.39032 14.6783
Si 1.43583 2.38377 12.816
Si 3.49224 6.36657 13.1673
O 0.799087 5.64497 15.5454
O 2.90432 0.932238 15.0917
O 2.39411 3.14817 13.8494
O 4.63533 6.63075 14.3413
O 1.9911 0.896869 12.5196
O 3.89125 4.99956 12.2616
O 1.22303 3.13242 11.3672
O 3.97932 7.59861 12.0184
O 2.07444 6.43859 13.6907
O 4.58646 1.88774 13.4113
O 1.36018 8.26547 15.5459
O 4.03478 3.60346 15.5529
Si 5.01809 4.5704 11.3008
Si 7.58878 0.0596694 11.1143
Si 6.2788 6.50089 14.7121
Si 8.51194 2.34461 14.7015
Si 6.026 2.2734 12.8204
Si 8.59521 6.55901 12.5774
O 6.27846 5.06932 15.4991
O 8.50224 1.26282 15.8224
O 7.14234 2.50621 14.0297
O 9.97511 7.10899 13.3635
O 6.3748 0.900821 11.8284
O 8.90415 5.28428 11.6276
O 6.12101 3.80088 12.1972
O 8.02827 7.75575 11.7396
O 7.22131 6.16041 13.4933
O 9.78363 2.14414 13.6407
O 6.8481 7.50139 15.6508
O 8.6671 3.82131 15.4526
Si 10.1838 4.37676 11.0044
Si 12.5316 17.2491 10.8947
Si 11.1832 6.53688 14.3128
Si 13.8881 2.20543 14.6601
Si 11.0644 2.11205 12.7978
Si 13.8523 6.33875 12.5477
O 11.0464 5.26194 15.3605
O 13.9803 0.958584 15.8335
O 12.3773 2.11548 13.9779
O 14.5241 7.05076 13.8939
O 11.4425 0.830119 11.9826
O 14.2763 4.95005 11.8061
O 11.0492 3.59655 12.0582
O 13.7642 7.57166 11.4749
O 12.3627 6.06939 13.4451
O 14.9503 2.04155 13.4807
O 11.4191 7.56674 15.4372
O 14.2614 3.65445 15.2397
Si 0.163109 13.0675 11.2034
Si 2.94975 8.70954 11.118
Si 0.838378 15.2932 14.6694
Si 3.93425 10.8866 14.7868
Si 1.3932 10.6197 12.774
Si 3.73086 15.3769 12.977
O 0.727559 13.7853 15.4951
O 3.51586 9.76993 15.7944
O 2.51828 11.0033 14.1801
O 4.65807 15.614 14.427
O 2.12866 9.32608 12.3799
O 4.15059 13.8231 12.5304
O 1.07985 11.8892 11.8309
O 3.64374 16.3904 11.8101
O 2.15336 15.3564 13.7433
O 5.14277 10.4735 14.0097
O 1.12987 16.4774 15.8513
O 4.22653 12.4657 15.3415
Si 5.01141 13.1247 11.1774
Si 7.16571 8.8752 10.8713
Si 6.30066 15.0962 14.6447
Si 8.9508 10.8097 14.5019
Si 6.20616 10.8181 12.7712
Si 8.81368 15.2143 12.8759
O 6.49362 13.76 15.5255
O 8.68721 9.44877 15.4102
O 7.55534 11.1401 13.6637
O 9.82057 15.7454 14.0652
O 6.13869 9.45389 11.9346
O 9.41678 13.8482 12.3808
O 6.12881 11.9532 11.5943
O 8.7604 16.5796 12.01
O 7.27598 15.0957 13.5057
O 9.91875 10.8808 13.1896
O 6.97481 16.3481 15.4869
O 9.38391 11.9526 15.5348
Si 10.2883 13.2654 11.1229
Si 12.8716 8.79874 10.8915
Si 11.0463 15.1547 14.9081
Si 13.7199 10.8586 14.5606
Si 11.5678 11.0029 12.8449
Si 13.4498 14.9797 12.8499
O 11.2381 13.9355 15.9152
O 13.207 9.34494 15.0327
O 12.338 11.7509 14.006
O 14.3642 15.6481 14.1734
O 12.2281 9.50417 12.248
O 14.0356 13.4715 12.2475
O 11.3729 12.1141 11.4974
O 13.4353 16.0819 11.543
O 11.9545 14.6428 13.62
O 14.948 10.5024 13.6863
O 11.9245 16.7503 15.3023
O 14.0405 11.9203 15.6627
324
 Atoms. Timestep: 20500
Si 14.8245 4.50325 16.4545
Si 2.09789 17.1689 0.161162
Si 1.18704 6.35221 3.58443
Si 3.57919 2.2967 3.53489
Si 1.06134 2.32316 1.86163
Si 3.76482 6.61031 1.90407
O 1.06075 5.11674 4.80052
O 3.42394 1.03874 4.6522
O 2.11722 2.58825 3.0582
O 4.80381 6.60322 3.10029
O 1.5063 0.647168 1.6229
O 4.15106 5.55152 0.522943
O 0.690027 3.50675 0.848677
O 3.56287 8.25781 1.55976
O 2.20271 6.27135 2.19634
O 4.6618 1.88024 2.22552
O 1.46815 7.68709 4.45167
O 3.97089 3.82821 4.32703
Si 5.1514 4.41439 16.4144
Si 7.3819 0.0620647 0.253134
Si 6.32846 6.45403 3.64925
Si 8.52101 2.28997 3.54534
Si 6.1396 2.36859 1.88588
Si 8.77324 6.49764 2.11858
O 6.21772 5.31834 4.85219
O 8.80735 1.15809 4.59898
O 6.94139 2.42464 3.40693
O 9.49586 6.77171 3.56327
O 6.54391 0.982231 1.06298
O 9.3525 5.35927 1.25945
O 6.24451 3.72544 1.01135
O 8.82833 7.6657 1.09129
O 7.15984 6.17618 2.43422
O 9.34225 2.10481 2.06454
O 6.581 7.82293 4.54572
O 9.00924 3.52479 4.39365
Si 10.1105 4.45879 0.160676
Si 12.6373 0.279168 0.11651
Si 11.0341 6.75829 3.95124
Si 13.4774 2.27763 3.56296
Si 10.9842 1.97872 1.72087
Si 13.5167 6.57098 1.89877
O 11.0994 5.30709 4.63059
O 13.6241 1.20835 4.79935
O 11.957 2.33307 3.01977
O 14.9041 6.35867 2.68536
O 11.3325 0.582028 1.10195
O 13.6844 5.02775 0.965287
O 11.0291 3.25863 0.78894
O 13.3956 8.04648 1.09413
O 12.0162 6.38175 2.54331
O 14.5203 1.92345 2.27434
O 11.6771 7.82547 4.96317
O 14.0056 3.69339 4.39339
Si 14.9393 12.8701 0.128345
Si 2.60288 8.95957 0.365235
Si 0.934739 15.3733 3.69474
Si 4.02383 10.8641 3.70567
Si 1.51893 11.2692 2.04529
Si 3.64147 15.2264 1.78082
O 1.34749 14.3325 4.89771
O 3.40324 9.54485 4.28398
O 2.89067 11.5368 2.75926
O 4.84211 15.9146 2.67517
O 1.71818 9.94334 1.00388
O 4.23399 13.8269 1.36683
O 0.813979 12.5453 1.38982
O 3.58161 16.4159 0.627173
O 2.11385 15.0506 2.57513
O 5.26578 10.6034 2.62352
O 1.49759 16.8427 4.38137
O 4.75763 11.9994 4.85592
Si 5.10637 12.9856 0.331793
Si 7.72012 8.3236 0.195257
Si 6.02737 15.2952 3.67741
Si 9.14058 11.0751 3.50442
Si 6.65117 10.9275 1.88795
Si 8.34929 14.8698 1.9456
O 5.73907 14.2179 4.80293
O 8.4613 9.78552 4.34147
O 7.94043 11.5974 2.42892
O 9.43063 15.6227 2.9327
O 6.81516 9.28218 1.18179
O 9.19384 13.6684 1.17533
O 6.19762 12.0202 0.834197
O 7.90984 15.8796 0.753873
O 7.03045 14.2765 2.76356
O 10.5072 10.7231 2.84797
O 6.95536 16.4511 4.33387
O 9.11443 12.2265 4.51887
Si 10.0426 13.255 16.4063
Si 12.4817 8.56539 16.3079
Si 11.116 15.3528 3.75327
Si 13.8497 11.2189 3.51654
Si 11.4633 11.0929 1.51358
Si 13.4734 15.1494 1.74024
O 10.9414 14.6036 5.30327
O 13.2348 10.0963 4.50576
O 12.8915 11.4101 2.17221
O 14.5384 15.2709 3.07348
O 11.5112 9.94165 0.446622
O 13.8707 13.7893 0.758354
O 11.1693 12.5207 0.665507
O 13.5692 16.6427 1.29799
O 12.1632 14.6363 2.70783
O 0.352635 10.8534 3.01777
O 11.5644 16.8256 4.21086
O 14.0983 12.3752 4.55567
Si 14.9778 4.37032 5.56926
Si 2.44098 0.14812 5.53869
Si 1.61445 6.55395 9.2409
Si 3.83178 2.06951 9.4608
Si 1.10012 2.02039 7.60685
Si 4.09397 6.5639 7.37262
O 1.11324 5.09983 9.94001
O 3.87246 0.943132 10.6124
O 2.428 2.03204 8.67858
O 5.78956 6.85425 7.7077
O 1.20864 0.790948 6.45511
O 4.2262 5.14763 6.51649
O 0.76486 3.3834 6.78894
O 3.74277 7.87517 6.23011
O 3.08481 6.49927 8.65288
O 4.93308 1.5955 8.25301
O 1.56142 7.83873 10.2522
O 4.60048 3.39478 10.0542
Si 5.10656 4.32199 5.43209
Si 7.83965 17.3408 5.2981
Si 6.59982 6.63849 9.20549
Si 8.71486 2.24225 9.19561
Si 6.25153 1.87351 7.24036
Si 8.99399 6.63205 7.22703
O 6.1947 5.17811 9.73482
O 8.6629 1.07955 10.2714
O 7.55217 2.23677 7.9403
O 10.4805 6.29727 7.87598
O 6.95417 0.412629 6.59779
O 9.02298 5.44182 6.10068
O 5.9606 3.08485 6.19497
O 8.43948 7.94787 6.55623
O 8.00312 6.33391 8.57582
O 9.86456 1.78223 8.11276
O 6.54935 8.01344 10.3595
O 9.04893 3.63558 9.50793
Si 10.0461 4.27782 5.37427
Si 12.457 0.119413 5.40368
Si 11.6088 6.27131 9.00678
Si 13.7374 2.3344 9.43059
Si 11.2374 2.1506 7.30582
Si 14.1629 6.50464 7.29133
O 11.2191 5.19646 10.1696
O 13.1981 1.13923 10.3384
O 12.6367 2.48314 8.19978
O 0.652822 6.63435 7.90283
O 11.3982 0.859826 6.39493
O 13.9592 5.54131 6.00577
O 10.7663 3.47549 6.50675
O 13.7352 8.03557 6.53612
O 13.1018 6.32523 8.41732
O 14.9596 1.7406 8.72836
O 11.6183 7.68964 9.88107
O 13.9086 3.70453 10.2226
Si 0.112482 13.2291 5.63067
Si 2.52588 8.5932 5.42865
Si 1.087 15.475 9.25098
Si 3.76142 10.7172 8.81536
Si 1.31915 10.8278 7.23167
Si 3.5507 15.2612 7.37804
O 0.889855 14.1267 9.98896
O 3.203 9.64306 9.81617
O 2.82827 11.1756 7.58877
O 4.48313 15.4243 8.67194
O 1.32609 9.42808 6.34572
O 4.13491 13.882 6.80431
O 0.611821 11.9851 6.4887
O 3.5938 16.6043 6.48687
O 1.99212 15.1205 7.9323
O 5.30064 10.2774 8.47889
O 1.92958 16.6467 10.0543
O 3.80192 12.0935 9.85967
Si 5.10117 13.179 5.84907
Si 7.68185 8.85584 5.23008
Si 6.02864 15.0372 9.2085
Si 8.91989 10.9616 9.29634
Si 6.45134 11.0815 7.39264
Si 8.64147 15.3872 7.29301
O 5.65536 13.9353 10.2142
O 8.88027 9.501 10.1485
O 7.70214 11.3351 8.41586
O 9.85373 16.0386 8.19905
O 6.56012 9.97593 6.24432
O 8.66171 13.7357 6.47584
O 6.13179 12.5587 7.02846
O 8.85442 16.256 5.87175
O 7.21252 14.876 8.05574
O 10.6039 11.2604 8.89106
O 6.55879 16.3612 10.0725
O 9.04504 12.3307 10.2857
Si 9.99189 13.3161 5.66312
Si 12.6274 8.99895 5.69043
Si 11.263 15.2707 8.91583
Si 13.9668 10.8058 9.10828
Si 11.4223 10.9448 7.5494
Si 13.8077 15.4161 7.35445
O 10.9043 14.0291 9.82203
O 13.283 9.61755 9.93286
O 13.0555 11.2378 7.82495
O 14.6149 15.9749 8.6942
O 11.3713 9.54996 6.57445
O 14.6835 14.2683 6.67439
O 10.9836 12.1681 6.51118
O 13.5225 16.3273 5.95357
O 12.2628 14.9461 7.67962
O 0.272325 10.3854 8.39604
O 11.5436 16.5773 10.011
O 14.1855 12.1449 10.0062
Si 0.180821 4.22601 10.9172
Si 2.82931 17.3573 11.2384
Si 1.44158 6.71658 14.8718
Si 3.38181 2.20017 15.0937
Si 1.15586 1.983 13.0774
Si 4.01107 6.95161 12.8007
O 1.02853 5.56473 15.9194
O 2.34535 1.07252 15.6005
O 2.4906 2.70047 13.6511
O 5.22253 7.50565 13.7462
O 1.57029 0.500871 12.2179
O 4.4163 5.55206 11.8228
O 0.889621 2.8154 11.682
O 3.78037 8.44837 12.0842
O 2.76878 6.43434 13.7357
O 4.81391 1.77135 14.0002
O 1.94616 7.91667 15.8166
O 4.05571 3.29079 15.9007
Si 5.36752 4.55334 11.0785
Si 7.34949 0.0205023 10.968
Si 6.47774 6.39404 14.4021
Si 8.72972 2.22904 15.04
Si 6.09411 1.90026 12.9617
Si 9.06743 6.05806 12.5548
O 5.8589 5.01664 15.0755
O 8.80183 0.987067 16.0837
O 7.30167 2.17864 14.0933
O 10.0185 6.49513 13.7253
O 6.41727 0.765276 12.02
O 9.27253 4.60679 12.078
O 5.82413 3.42817 12.1259
O 8.80784 7.24857 11.4228
O 7.25807 5.79035 13.0979
O 10.1429 2.26691 14.0784
O 7.09369 7.06886 15.7019
O 9.01746 3.65469 15.7477
Si 10.1312 4.07959 10.8166
Si 12.4388 17.2086 11.0867
Si 11.3521 6.3424 14.4862
Si 13.5574 2.45697 14.5972
Si 11.1492 2.09818 12.9132
Si 14.0312 6.54762 12.826
O 11.0457 5.16508 15.6107
O 13.2815 1.50686 15.7848
O 12.4145 2.96234 13.6918
O 14.9362 7.10555 14.1779
O 11.473 0.712713 12.1652
O 14.8062 5.2069 12.1838
O 10.6079 2.80927 11.5126
O 13.8935 7.60898 11.6189
O 12.5023 5.96469 13.4807
O 14.7193 1.5024 13.7615
O 11.4572 7.56355 15.6059
O 14.2493 3.75287 15.2834
Si 0.206904 13.0647 10.9872
Si 2.443 8.94058 11.0995
Si 1.2433 14.8657 14.6753
Si 3.98221 11.0122 14.8036
Si 1.39436 11.0375 12.9897
Si 3.81461 14.8383 12.8334
O 0.72711 13.6536 15.6082
O 3.33721 9.99638 15.8193
O 2.49172 11.4949 14.1702
O 5.20541 15.0584 13.6985
O 1.59787 9.5356 12.3731
O 3.99142 13.5126 12.0099
O 1.46066 12.0788 11.6409
O 3.74554 16.153 11.8264
O 2.63236 14.7209 14.065
O 4.92546 10.3297 13.7254
O 1.26425 15.9564 15.9305
O 4.37495 12.4056 15.5274
Si 4.85977 12.7788 10.8828
Si 7.96467 8.63336 11.1271
Si 6.35801 15.2429 14.8884
Si 8.79707 10.7833 14.7063
Si 6.36646 10.6734 12.9682
Si 8.8688 15.345 13.006
O 5.93257 14.2574 16.211
O 8.50198 9.48545 15.7491
O 7.23359 11.144 14.2277
O 10.386 15.8792 13.6987
O 7.03583 9.40135 12.3104
O 9.12348 14.2165 11.8157
O 6.15119 11.8285 11.7723
O 8.3197 16.4785 12.0856
O 7.82156 14.8165 14.2812
O 9.64819 10.1375 13.3644
O 6.62048 16.8846 15.3781
O 9.27747 12.1593 15.4606
Si 10.2327 13.1704 11
Si 12.6992 8.38361 10.8804
Si 11.4759 15.3676 14.6411
Si 13.755 10.8846 14.6206
Si 11.0959 10.628 12.9297
Si 13.94 14.9572 12.8543
O 10.949 14.4671 15.7939
O 13.5769 9.24683 15.2464
O 12.1481 11.089 14.0127
O 0.2889 15.5469 13.6257
O 11.9376 9.35531 12.0284
O 14.2435 13.6443 12.0459
O 10.9672 12.162 11.9566
O 13.3675 15.8979 11.5683
O 12.7048 14.5763 13.8251
O 14.7188 10.9225 13.3582
O 12.1106 16.4824 15.5846
O 14.0936 11.9389 15.744
324
 Atoms. Timestep: 21000
Si 0.140504 4.52088 16.2623
Si 2.51709 17.3733 0.0451693
Si 1.35298 6.42486 3.704
Si 3.22704 2.57465 3.65874
Si 0.729661 2.14719 1.74195
Si 3.83362 6.69963 1.97896
O 1.45263 5.14148 4.65697
O 3.1019 1.58508 4.96525
O 1.83093 2.63203 2.82815
O 5.1617 7.0737 2.99018
O 1.64738 1.10019 1.01555
O 4.25121 5.56337 0.999133
O 0.167122 3.2536 0.749904
O 3.38478 8.14033 1.38845
O 2.37102 6.11317 2.22138
O 4.55719 1.71828 2.7684
O 1.96325 7.87384 4.29672
O 3.81407 4.05339 4.2371
Si 4.84211 4.61062 16.336
Si 7.31526 0.254262 16.3322
Si 6.65814 6.53611 3.65444
Si 8.45916 2.21589 3.7645
Si 5.95005 2.2804 1.7949
Si 8.91664 6.55697 1.8519
O 6.17037 5.29343 4.61073
O 8.07898 1.14305 4.84219
O 7.13835 2.55975 2.77757
O 10.0057 7.01982 3.09125
O 6.17718 1.08584 0.706265
O 9.32778 5.10491 1.02525
O 5.65605 3.52143 0.855305
O 8.75494 7.91398 0.819079
O 7.47991 6.01197 2.39114
O 9.57297 1.83648 2.63513
O 7.5313 7.65147 4.26192
O 8.79016 3.57714 4.66353
Si 10.3264 4.14693 0.115553
Si 12.4445 0.242593 0.198963
Si 11.3488 6.21989 3.70908
Si 13.6977 2.15209 3.7968
Si 11.1433 2.217 2.19938
Si 13.9184 6.52661 2.06458
O 11.3076 4.87961 4.58571
O 13.6042 0.919377 5.10063
O 12.0617 2.55335 3.60433
O 14.8661 6.89455 3.42506
O 11.5698 0.765014 1.47871
O 14.9033 5.80945 0.857057
O 11.383 3.42312 1.06557
O 13.8122 8.12346 1.51103
O 12.4009 5.98463 2.46305
O 14.4667 1.61618 2.54655
O 11.9564 7.60974 4.38373
O 14.0409 3.78872 4.15709
Si 14.869 13.0475 16.4733
Si 2.78045 8.9051 16.5488
Si 1.06717 15.1905 3.59855
Si 3.89791 10.9396 3.86982
Si 1.48264 10.8487 1.91698
Si 3.53852 14.8128 1.91495
O 0.757906 14.3815 4.97971
O 3.85364 9.53296 4.5731
O 2.80252 11.5074 2.72687
O 4.67037 14.8131 3.12212
O 1.52938 9.43302 0.913866
O 3.95749 13.8674 0.701289
O 0.859583 12.0241 0.82833
O 3.51851 16.4074 1.15032
O 2.01346 14.5926 2.50111
O 5.20938 10.9579 2.98752
O 1.5601 16.6686 4.4402
O 4.02609 12.3264 4.65471
Si 5.09247 13.0358 16.2412
Si 7.56892 8.65571 16.3176
Si 6.15166 14.9391 3.80691
Si 9.01615 11.0236 3.6191
Si 6.36517 10.7803 1.86361
Si 8.33575 15.5389 1.94086
O 6.27779 13.7773 4.98723
O 8.75689 9.76497 4.87579
O 7.81107 10.8809 2.47543
O 9.5161 15.8424 2.94485
O 6.50599 9.36912 1.00341
O 9.29735 14.4959 1.04548
O 5.90874 11.8509 0.72517
O 8.08503 16.6606 0.924502
O 6.95657 14.708 2.38165
O 10.4023 10.5997 2.97475
O 6.50097 16.3192 4.58492
O 9.043 12.2983 4.62833
Si 9.93973 13.4776 0.103059
Si 12.987 8.8684 0.292256
Si 11.0827 15.4965 3.49828
Si 13.8149 10.8379 3.80074
Si 11.4274 11.3155 1.742
Si 13.5749 15.6725 1.71931
O 10.7158 14.208 4.37517
O 13.5996 9.67003 4.67875
O 12.8976 11.6257 2.51877
O 14.5128 15.9199 3.01235
O 11.73 9.89409 0.939459
O 14.5114 14.1817 1.19247
O 10.8953 12.5088 0.902726
O 13.9657 16.7321 0.513004
O 12.1069 15.288 2.22845
O 0.310156 10.4164 3.06255
O 11.4791 16.9781 4.27863
O 13.7821 12.441 4.59554
Si 0.204454 4.59225 5.3186
Si 2.43136 0.116374 5.52084
Si 1.48642 6.31653 9.35221
Si 3.63885 2.23091 9.21826
Si 1.22041 2.14812 7.35914
Si 4.08636 6.44734 7.54329
O 0.772721 4.84241 9.79442
O 3.16109 0.74224 9.86822
O 2.41952 2.95355 8.37367
O 5.44963 6.92341 8.39023
O 1.63259 0.628336 6.92521
O 4.55608 5.25758 6.5989
O 0.860346 3.2051 6.20035
O 3.87631 7.70556 6.30062
O 2.80284 6.00786 8.56543
O 4.79668 1.63895 8.39115
O 1.45272 7.61066 10.3385
O 4.17254 3.45747 9.95161
Si 5.04444 4.31709 5.22222
Si 7.37294 17.1362 5.67654
Si 6.65242 6.5857 9.32485
Si 8.3996 2.48507 9.38374
Si 5.94473 2.04319 7.24092
Si 9.08008 6.4116 7.44313
O 6.16558 5.14734 9.85932
O 8.05279 1.30823 10.4718
O 7.1892 2.69335 8.17169
O 10.3428 7.228 8.19543
O 6.42566 0.550719 6.7127
O 9.49519 5.43054 6.39247
O 5.55351 3.0772 6.04745
O 8.87104 7.85452 6.69469
O 7.86233 6.13927 8.40086
O 9.64455 1.71201 8.55048
O 6.93073 7.76649 10.4637
O 8.64939 3.86243 10.1845
Si 9.94371 4.32814 5.49239
Si 12.2531 0.126434 5.62196
Si 11.3912 6.55686 9.25556
Si 13.6196 2.21019 9.2269
Si 10.9505 1.99297 7.52448
Si 13.9872 6.60568 7.52224
O 10.7947 5.21201 9.69853
O 12.9528 1.14341 10.2413
O 12.3897 2.38324 8.21567
O 0.541623 6.95137 8.15205
O 11.3324 0.600623 6.89572
O 14.1806 5.24543 6.60627
O 10.4281 3.01348 6.37201
O 13.6882 7.79312 6.51314
O 13.054 6.48241 8.77394
O 0.122852 1.88562 8.47992
O 11.3827 7.35269 10.6212
O 13.716 3.45044 10.2261
Si 14.8461 13.1174 5.58908
Si 2.89475 8.46685 5.43073
Si 0.857246 15.1923 9.14257
Si 3.93226 10.6839 8.81183
Si 1.4396 10.7955 7.16116
Si 3.49982 15.2461 7.28121
O 0.278328 13.9344 9.7987
O 3.44942 9.50074 9.95391
O 2.72355 11.401 7.89524
O 4.70518 15.3578 8.27139
O 2.15337 9.55606 6.46943
O 3.92757 13.7861 6.55674
O 0.730931 11.9415 6.24121
O 3.47661 16.4533 6.15264
O 2.18645 15.0432 8.16568
O 5.27 9.95447 8.45121
O 1.19148 16.3583 10.3315
O 4.33751 12.13 9.73236
Si 4.97348 12.9476 5.62525
Si 7.90754 8.71298 5.61365
Si 6.08737 15.328 9.16593
Si 8.99182 10.5523 9.25144
Si 6.29187 10.3684 7.26209
Si 8.60816 15.0348 7.44841
O 6.11581 14.1122 10.1894
O 8.99477 9.09262 10.127
O 7.72013 10.6051 8.14903
O 9.33805 15.2938 8.8785
O 6.39432 9.29129 6.194
O 9.17341 13.8126 6.58829
O 5.54915 11.6844 6.66308
O 8.62009 16.2159 6.24952
O 7.18566 14.6904 8.16218
O 10.1998 10.9881 8.25297
O 6.21087 16.6009 10.2876
O 9.05289 11.8267 10.2958
Si 10.192 13.1137 5.40453
Si 12.6358 8.623 5.60286
Si 10.8034 15.1436 9.50772
Si 13.8882 10.6156 9.16039
Si 11.4613 10.9244 7.37279
Si 13.3341 15.1046 7.45684
O 10.681 13.8259 10.3957
O 13.2039 9.29248 9.8447
O 12.7603 11.3179 8.20336
O 14.6665 15.8096 8.29681
O 11.5687 9.34409 6.61231
O 14.0277 13.7557 6.94828
O 11.2173 11.9429 5.87712
O 12.7086 15.9382 6.24898
O 12.0434 14.8014 8.52883
O 0.280559 10.5937 8.2597
O 11.5133 16.1707 10.7375
O 14.2884 11.7043 10.5557
Si 14.8566 4.34006 11.1068
Si 2.4214 17.0806 10.9253
Si 1.67503 6.64222 14.5956
Si 3.6305 2.49869 14.9373
Si 1.25693 1.87603 12.9246
Si 4.08807 6.54844 12.679
O 1.15418 5.25888 15.2698
O 3.65064 1.07341 15.6383
O 2.3183 2.57021 14.0176
O 5.38596 7.20198 13.2707
O 1.65835 0.571917 12.1952
O 3.94201 5.23404 11.6657
O 0.782942 3.18574 11.9885
O 3.21055 7.89751 12.0242
O 3.13758 6.14132 13.9089
O 4.90892 2.76819 13.8205
O 1.99678 8.24169 15.143
O 3.53644 3.70743 15.9823
Si 5.11022 4.46516 10.9949
Si 7.1568 17.3218 11.1776
Si 6.48479 6.54211 14.4321
Si 8.74787 2.10857 14.5981
Si 6.17565 2.45541 12.9718
Si 9.28851 6.29708 13.0917
O 5.93647 5.24794 15.3966
O 8.54768 0.726716 15.4608
O 7.3529 2.8543 14.0195
O 10.4677 7.09993 13.9932
O 6.4282 0.77252 12.4924
O 10.1145 5.21988 12.3678
O 6.17295 3.29036 11.4887
O 8.9219 7.4088 12.0032
O 7.80398 5.86784 13.7342
O 9.68431 1.7393 13.238
O 6.71925 7.64764 15.5879
O 9.69971 3.05319 15.3894
Si 10.2451 4.40854 11.0011
Si 12.7044 17.2774 11.179
Si 11.5848 6.52279 14.9498
Si 13.7141 2.42014 14.5524
Si 11.2997 2.09484 12.7023
Si 13.8921 6.7706 13.0226
O 11.157 4.8827 15.3438
O 13.0241 1.53447 15.6846
O 12.3515 2.76245 13.8295
O 0.232912 7.31976 13.7896
O 11.8959 0.698502 12.4634
O 14.3966 5.69007 11.8857
O 11.1946 3.19167 11.4383
O 13.3393 8.04442 12.2783
O 12.936 6.01021 14.1073
O 14.803 1.63181 13.745
O 11.868 7.64807 16.3262
O 14.1994 3.9069 15.1932
Si 14.894 13.1288 11.0526
Si 2.4404 8.78432 10.9588
Si 1.79069 15.1105 14.4878
Si 3.73185 10.9625 14.3631
Si 1.20459 11.068 12.4995
Si 4.17665 14.8983 12.6133
O 0.854777 13.8926 15.2877
O 3.6943 10.0871 15.8459
O 2.35381 11.1257 13.5109
O 5.55003 15.4706 13.2611
O 1.11936 9.58543 11.7441
O 4.39171 13.3801 12.0284
O 1.25051 12.5645 11.9012
O 3.29566 15.8695 11.6288
O 3.22219 14.6969 13.9375
O 4.83019 10.3456 13.3024
O 1.64459 16.4058 15.4185
O 4.40884 12.3436 14.8886
Si 5.30514 12.8527 10.7598
Si 7.96823 8.53421 11.3415
Si 6.53044 15.3317 14.7096
Si 8.79025 11.3063 14.7007
Si 6.45022 10.7866 12.678
Si 8.89069 15.2163 12.8111
O 6.25538 13.8725 15.431
O 8.49979 9.80678 15.5515
O 7.10422 11.5937 13.9333
O 10.4979 15.6769 13.3301
O 6.90331 9.275 12.403
O 8.77878 13.7092 12.0464
O 6.45126 11.699 11.3068
O 8.11672 16.4182 12.1014
O 8.20285 15.2202 14.4528
O 9.79245 10.7309 13.5345
O 6.38849 16.7812 15.3119
O 8.87025 12.5533 15.6351
Si 9.8086 12.7142 11.2974
Si 12.3778 8.59325 11.0656
Si 11.6111 15.5214 14.557
Si 13.8671 10.9389 14.6716
Si 11.271 10.8417 12.9237
Si 14.2804 15.2845 12.8972
O 11.1058 14.1496 15.4197
O 14.0455 9.78473 15.8943
O 12.4658 10.8041 13.852
O 0.916373 15.1449 13.0695
O 11.4155 9.65981 11.777
O 13.7577 13.8775 11.9831
O 11.2149 12.4011 12.2825
O 14.0611 16.5845 11.8644
O 13.2898 15.3492 14.0817
O 14.8471 11.124 13.4428
O 11.2848 16.6715 15.7645
O 13.6986 12.415 15.586
324
 Atoms. Timestep: 21500
Si 0.226237 4.56383 16.3759
Si 2.75469 0.230642 0.28385
Si 1.52392 6.51223 3.78474
Si 3.64344 2.23139 3.91435
Si 1.17424 2.01522 2.13636
Si 3.98776 6.84999 2.17094
O 1.3454 5.60016 4.96584
O 3.47269 1.27349 5.04496
O 2.19744 2.61273 3.23814
O 5.14945 6.86408 3.31004
O 1.51687 0.863901 1.12376
O 4.36013 6.09568 0.741106
O 0.613877 3.34411 1.12089
O 3.10774 8.15102 1.51226
O 2.9184 5.93664 3.00063
O 4.62527 2.08414 2.64156
O 1.61378 8.02744 4.35159
O 4.17687 3.72894 4.55843
Si 4.89563 4.66537 16.3385
Si 7.20617 0.316401 16.2504
Si 6.79487 6.34368 3.81976
Si 8.32181 2.28433 3.81964
Si 5.88625 2.4704 1.85385
Si 8.59689 6.33374 1.55437
O 6.52929 5.07798 4.73743
O 7.82834 1.10528 4.74525
O 7.11496 2.96928 2.94787
O 9.86278 6.44668 2.52398
O 6.44921 1.43153 0.759637
O 8.9739 5.23697 0.47747
O 5.49129 3.85541 1.24905
O 8.11662 7.63957 0.897144
O 7.5294 5.71509 2.56727
O 9.65491 1.80701 3.18747
O 7.2266 7.70952 4.54001
O 8.55382 3.74953 4.75942
Si 10.3179 4.29276 0.204877
Si 12.0593 0.346614 16.3734
Si 11.1909 6.30397 3.42075
Si 13.7906 2.39643 3.91244
Si 10.9256 2.14079 2.22991
Si 13.9081 6.61808 1.98192
O 11.0846 5.01081 4.6004
O 13.6297 1.13834 5.16151
O 12.4795 2.27951 2.92348
O 0.401336 6.51969 2.8009
O 11.164 0.907695 1.15734
O 14.3424 5.91776 0.590796
O 10.7663 3.67427 1.60234
O 13.6702 8.25343 1.46694
O 12.6601 6.07316 2.81874
O 14.7838 1.58944 2.98867
O 11.207 7.64114 4.45147
O 14.5042 3.84772 4.29484
Si 0.200853 13.1875 0.24243
Si 2.89116 8.67285 16.4056
Si 1.23429 15.0786 3.66522
Si 3.95239 10.7377 3.86609
Si 1.59409 10.7309 1.81196
Si 3.83758 14.9901 2.01968
O 1.02455 14.1277 4.95797
O 3.42968 9.88737 5.18344
O 2.90737 10.7367 2.63658
O 4.99618 15.3768 2.91834
O 1.62336 9.6092 0.574471
O 3.8362 13.8302 0.860567
O 1.42908 12.2483 1.13543
O 3.5556 16.4469 1.27519
O 2.37584 14.6789 2.71996
O 5.38279 10.814 3.22914
O 2.00978 16.3986 4.38189
O 3.84203 12.2158 4.62563
Si 5.02312 13.0628 16.282
Si 7.4486 8.91563 0.124513
Si 6.34593 15.0572 3.73119
Si 8.83953 11.127 3.66735
Si 6.27686 10.8836 1.92888
Si 8.65547 15.3594 1.72843
O 5.98805 13.7555 4.52305
O 7.92935 9.7825 4.3317
O 7.87514 11.4664 2.37308
O 9.97493 15.3401 2.62727
O 6.13735 9.43568 1.20421
O 8.74399 14.1424 0.366317
O 6.00439 12.2633 0.968668
O 8.04335 16.6365 1.03601
O 7.48892 14.8283 2.70586
O 10.2847 10.4532 3.25201
O 6.09872 16.4153 4.72217
O 9.02332 12.3831 4.74983
Si 10.1861 13.2211 0.0922688
Si 12.7918 8.88313 0.369532
Si 11.3568 15.3595 3.60053
Si 13.8723 10.6937 3.64514
Si 11.3143 10.9609 1.97069
Si 13.5968 15.2717 1.5573
O 11.1117 14.1957 4.73445
O 13.1945 9.34306 4.26711
O 13.0339 11.3869 2.43607
O 14.7655 15.6728 2.80535
O 11.5208 9.7485 1.04121
O 13.889 13.7794 1.07623
O 10.7448 12.2978 1.16963
O 13.1307 16.4947 0.603285
O 12.459 14.9334 2.61272
O 0.600304 10.5874 3.19467
O 11.4337 16.7625 4.54272
O 13.8332 12.2742 4.58302
Si 0.393971 4.51985 5.70121
Si 2.65283 17.1095 5.59465
Si 1.47325 6.21041 9.25079
Si 3.50047 2.02352 9.02819
Si 0.998515 2.03947 7.21326
Si 4.14234 6.44952 7.41664
O 1.06838 4.84038 9.89553
O 3.28954 0.4952 9.68474
O 1.9257 2.24169 8.58539
O 5.46808 7.02656 8.0104
O 1.54741 0.6338 6.66279
O 4.60705 5.15399 6.68057
O 1.35478 3.32065 6.18584
O 3.51095 7.67038 6.50222
O 2.8506 6.18033 8.44547
O 4.81365 2.09767 8.15155
O 1.5986 7.44229 10.3758
O 3.95513 2.96648 10.436
Si 5.41793 4.27321 5.3772
Si 7.12747 17.1874 5.63111
Si 6.44662 6.44653 9.204
Si 8.55696 2.53527 9.31671
Si 6.12052 2.1417 7.39334
Si 9.20488 6.87249 7.63943
O 5.88228 4.91775 9.62983
O 8.35803 1.22644 10.1326
O 7.19199 2.89212 8.41667
O 10.5439 7.275 8.44123
O 6.28332 0.560069 6.89926
O 9.41768 5.43804 6.85212
O 6.06969 3.12844 6.23381
O 8.88983 7.90332 6.20669
O 8.06993 6.24198 8.6946
O 9.44292 1.68138 8.06668
O 6.80771 7.21153 10.5375
O 8.72677 3.98051 10.1495
Si 9.88417 4.37027 5.59529
Si 12.5119 17.289 5.69881
Si 11.5304 6.38716 9.48651
Si 13.4128 2.31211 8.95721
Si 11.0868 2.18886 7.48683
Si 13.9183 6.59468 7.32359
O 10.7886 5.10491 9.95623
O 12.8903 1.08548 9.79087
O 12.0369 3.1004 8.43407
O 0.354258 6.87177 8.23882
O 11.9495 0.980794 6.98966
O 14.1904 5.03942 6.77575
O 10.6619 3.00134 6.12961
O 13.397 7.53863 6.24858
O 12.9145 6.0085 8.55198
O 14.3621 2.07857 7.80264
O 11.8109 7.1598 10.8889
O 14.1181 3.34021 10.0201
Si 15.016 13.0199 5.55151
Si 2.402 8.69083 5.57692
Si 1.07074 15.1112 9.14981
Si 3.81058 10.7737 9.18747
Si 1.24051 10.7344 7.47602
Si 3.59285 15.2271 7.57746
O 0.790837 13.5812 9.86946
O 3.71405 9.7503 10.4903
O 2.3984 11.0259 8.54351
O 4.81152 15.2851 8.76061
O 1.40601 9.26467 6.81986
O 4.00351 13.9788 6.60298
O 1.30385 12.0468 6.16304
O 3.60684 16.5003 6.6818
O 2.22945 14.6697 8.09791
O 4.83653 10.2975 8.06177
O 1.77761 15.9113 10.3014
O 4.3129 12.0801 9.81382
Si 4.79292 13.1124 5.46254
Si 7.7543 8.82808 5.40311
Si 6.33658 15.1514 9.42697
Si 8.6892 10.7077 9.05243
Si 6.10005 10.9286 7.16762
Si 8.68857 15.4401 7.17082
O 6.45689 13.6649 10.0335
O 8.50904 9.06946 9.53748
O 7.2707 11.2168 8.3019
O 9.62831 16.0949 8.30894
O 6.79402 9.54455 6.53422
O 9.44107 13.8787 6.89551
O 5.74821 11.9702 6.12792
O 8.46673 16.2409 5.72965
O 7.40228 15.0861 8.16344
O 9.7989 10.6116 7.90935
O 6.48547 16.4423 10.4485
O 9.08305 11.7271 10.2149
Si 10.1272 13.1043 5.58349
Si 12.3454 8.44345 5.27712
Si 10.9416 15.252 9.16271
Si 13.5029 10.6747 9.02468
Si 11.123 10.592 7.10481
Si 13.694 15.0755 7.53473
O 10.2711 13.9581 9.80727
O 12.9543 9.26435 9.65274
O 12.5207 11.0454 7.72734
O 14.9276 15.994 8.28883
O 11.1742 9.12525 6.27822
O 14.1273 13.5385 7.08646
O 11.0532 11.9455 6.15801
O 13.1912 15.9557 6.29632
O 12.2651 14.9767 8.19401
O 0.108294 10.374 8.70577
O 11.3017 16.2031 10.4746
O 13.49 12.0123 10.0569
Si 14.9266 4.46123 11.0081
Si 2.37851 17.1303 11.0098
Si 1.8571 6.23589 14.6289
Si 3.63558 2.34252 14.7056
Si 1.14423 2.28538 12.7969
Si 4.11254 6.44385 12.6673
O 1.60021 4.86545 15.3992
O 3.76966 1.33921 16.0634
O 2.1801 2.43661 14.2358
O 5.56846 6.71441 13.3281
O 1.33656 1.25125 11.6549
O 3.97536 5.68196 11.2321
O 1.11461 3.86325 12.1546
O 3.74 7.94847 12.0774
O 3.28028 5.78805 14.0675
O 4.73999 1.828 13.5814
O 2.29586 7.52921 15.4374
O 3.85225 3.73472 15.5503
Si 4.92146 4.25283 10.7832
Si 7.7944 0.158372 11.089
Si 6.59136 6.53196 14.4952
Si 8.704 2.3611 14.4377
Si 5.99217 2.53653 12.8129
Si 9.21291 6.5126 12.9154
O 6.13724 5.12478 15.5343
O 8.07731 1.13032 15.234
O 7.38179 3.05157 13.8094
O 10.7277 7.04344 13.9053
O 6.83921 1.19368 12.1711
O 9.80519 5.20697 12.3447
O 5.69291 3.96422 12.0557
O 8.94026 7.61763 11.7887
O 8.03638 6.18531 13.8897
O 9.78082 1.61058 13.504
O 6.44103 7.99191 15.4897
O 9.60183 3.23789 15.4942
Si 9.9744 4.40424 11.0218
Si 12.6098 17.1827 10.8629
Si 11.8837 6.49331 14.8534
Si 13.5125 2.50523 14.4608
Si 11.1743 2.01073 12.8024
Si 14.2191 6.7528 12.8793
O 11.4683 5.19077 15.8053
O 12.9532 1.54684 15.7219
O 12.2266 3.0446 13.6933
O 0.655936 6.48999 13.5158
O 12.0732 0.76601 12.4351
O 14.2621 5.92777 11.3897
O 10.706 3.11081 11.5769
O 13.901 8.10619 12.0837
O 12.943 6.3536 13.7635
O 14.5651 2.07519 13.3869
O 12.1741 7.93024 15.4648
O 14.2083 3.92615 15.2256
Si 14.6082 12.9526 10.9355
Si 2.57969 8.55429 10.985
Si 1.46434 15.3551 14.5963
Si 3.96035 10.5755 14.5087
Si 1.33815 10.5977 12.7587
Si 3.80565 15.2312 12.7642
O 0.796858 14.6571 15.8441
O 4.16574 9.31576 15.7007
O 2.73633 11.0674 13.4244
O 5.46837 15.3065 13.3574
O 1.6802 9.29027 12.1425
O 3.96168 14.1057 11.485
O 0.904816 12.0134 11.8116
O 3.38284 16.7515 12.2934
O 2.74538 14.6425 13.7657
O 5.14203 10.1486 13.6633
O 1.80421 16.8827 15.3843
O 4.37445 11.9893 15.2881
Si 5.07673 12.9315 10.8171
Si 7.68988 8.46573 10.9304
Si 6.37028 15.3049 14.6739
Si 8.86145 11.2296 14.7396
Si 6.4105 10.7728 12.8493
Si 8.80689 15.2752 12.7754
O 5.92457 14.0259 15.3988
O 8.58875 10.013 15.9821
O 7.35335 11.4225 13.9667
O 10.3033 15.1443 13.4629
O 7.17609 9.80652 11.7551
O 8.55596 13.7546 11.875
O 5.68379 12.0128 11.9883
O 8.73047 16.6184 12.0116
O 7.84242 15.4746 14.0562
O 9.74068 10.1979 13.6804
O 6.04925 16.5235 15.6753
O 9.57642 12.3645 15.4219
Si 9.72834 12.9747 10.9839
Si 12.6126 8.66037 11.1126
Si 11.3999 15.3697 14.5741
Si 13.8479 10.9961 14.72
Si 11.2782 10.9369 12.9446
Si 13.9267 15.2184 12.8032
O 11.3117 14.3243 15.7658
O 13.8263 10.0554 16.1441
O 12.2576 11.3582 14.1526
O 0.448542 15.5953 13.356
O 11.8942 9.61652 12.1785
O 13.8306 13.6501 12.072
O 10.7586 12.2453 12.0722
O 13.8017 16.2682 11.5425
O 12.7929 15.0416 13.8391
O 14.7231 10.4786 13.4803
O 11.1814 16.8201 15.2862
O 14.5193 12.4312 15.4231
324
 Atoms. Timestep: 22000
Si 14.8305 4.42593 0.131886
Si 2.56316 0.49437 16.3935
Si 1.32502 6.3376 3.67664
Si 3.77994 2.06137 3.66178
Si 1.16435 2.3105 1.97722
Si 3.79522 6.69647 1.78764
O 0.722332 5.51379 4.99456
O 3.37563 1.22842 4.91986
O 2.39124 2.36371 2.99053
O 5.26163 6.67579 2.43655
O 1.3124 1.11714 0.876595
O 3.82747 5.71047 0.503157
O 0.799799 3.66593 1.20346
O 3.27114 8.32867 1.29344
O 2.64207 6.05463 2.68222
O 4.98695 1.58235 2.6903
O 1.76257 7.74409 4.42741
O 4.48803 3.65951 4.26078
Si 5.15068 4.61748 16.1599
Si 7.59173 0.151397 16.443
Si 6.40973 6.85462 3.72484
Si 8.59685 2.6002 3.77112
Si 6.23016 2.3909 1.78945
Si 8.73874 6.59626 1.63753
O 5.68323 5.78913 4.81174
O 8.55752 1.22889 4.77057
O 7.18572 2.9264 3.05794
O 10.2976 6.79983 2.0867
O 6.74216 1.34115 0.658405
O 8.86511 5.53118 0.486452
O 5.78504 3.79005 1.03084
O 8.21689 7.85182 0.827409
O 7.83562 6.33161 2.99452
O 9.68613 2.12607 2.61413
O 6.86179 8.34055 4.34324
O 9.29663 3.66842 4.6631
Si 9.98226 4.48318 16.2147
Si 12.5362 17.3394 0.262479
Si 11.4629 6.61874 3.17619
Si 13.5708 2.5068 3.81505
Si 11.0401 2.55533 1.8504
Si 13.7885 6.81616 1.63383
O 10.9179 5.56043 4.30877
O 13.2991 1.31064 5.03714
O 12.2006 2.85171 2.93508
O 0.285098 6.72509 2.23269
O 11.6338 1.32783 0.956981
O 13.7487 5.68944 0.404478
O 10.943 4.04026 1.05128
O 13.3833 8.44557 1.27123
O 12.8359 6.14517 2.72528
O 14.7139 1.97372 2.85931
O 11.6585 8.03607 3.95731
O 14.2463 3.84275 4.3532
Si 15.0286 13.4865 0.13439
Si 2.19905 8.71023 0.178127
Si 1.46758 15.1589 3.63153
Si 3.85143 11.1136 3.7579
Si 1.3199 10.9728 1.88354
Si 3.82123 15.3024 1.47851
O 0.823656 13.7344 4.14801
O 3.51406 9.70588 4.53465
O 2.7989 10.8462 2.4052
O 5.24646 15.5521 2.12471
O 1.02386 9.90892 0.454568
O 3.60737 13.9745 0.644057
O 0.945008 12.444 1.27196
O 3.17436 16.4553 0.690252
O 2.75039 14.99 2.74754
O 5.37435 10.5063 3.25681
O 2.01358 16.1039 4.76589
O 3.87787 12.3757 4.74285
Si 4.79982 12.9179 0.128969
Si 7.31756 8.84224 16.408
Si 6.06755 15.2751 3.50012
Si 8.90823 11.0329 3.90937
Si 6.36267 11.0084 2.0499
Si 8.73947 15.2504 2.08996
O 5.40777 14.0736 4.45936
O 8.76637 10.1282 5.28651
O 7.86949 10.9295 2.79199
O 10.3462 15.5188 2.758
O 6.35953 9.67805 1.06826
O 9.0056 13.8329 1.18669
O 5.7346 12.2893 1.34531
O 8.23233 16.8116 1.62574
O 7.72728 14.9628 3.37879
O 10.2798 10.7365 3.29989
O 6.228 16.6506 4.4806
O 8.96313 12.7209 4.25726
Si 9.95135 12.994 16.3872
Si 12.418 8.95269 0.140058
Si 11.4339 15.5556 3.96047
Si 13.8232 10.638 3.70588
Si 11.2452 10.8507 1.97274
Si 13.6981 15.1581 2.15653
O 10.7215 14.7195 5.10186
O 13.9144 9.29641 4.70254
O 12.7809 10.8771 2.51121
O 0.256186 15.7724 2.7784
O 11.1245 9.48145 1.01513
O 13.6162 14.1285 0.85746
O 11.0866 12.0365 0.878909
O 12.6943 16.3841 1.59477
O 12.7443 14.7566 3.46073
O 0.479331 10.8714 3.35337
O 11.8165 16.8989 4.66175
O 13.648 12.0978 4.7097
Si 14.9853 4.25375 5.77684
Si 2.60733 17.1121 5.8311
Si 1.39694 6.55505 8.88921
Si 3.65745 1.90462 9.2531
Si 1.09172 2.00113 7.40685
Si 4.0024 6.44953 7.23419
O 0.784928 4.94869 9.37281
O 3.57631 0.834712 10.4268
O 2.02112 1.93011 8.78669
O 5.32928 7.21541 7.90516
O 1.25719 0.602838 6.62761
O 4.22399 4.89159 6.90058
O 1.22598 3.42452 6.51655
O 3.93872 7.53862 5.93118
O 2.74259 6.42094 8.27047
O 4.74222 1.47747 8.09018
O 1.60318 7.64514 10.1143
O 4.10133 3.33518 9.87433
Si 5.19245 4.25472 5.57705
Si 7.55966 17.2426 5.40151
Si 6.26251 6.49196 8.96769
Si 8.60429 2.17798 9.08925
Si 6.13365 1.70939 7.40445
Si 9.06936 6.65639 7.4523
O 5.8975 5.20965 9.92392
O 8.82849 0.765343 9.81665
O 7.00385 2.03442 8.80185
O 10.0198 7.17348 8.63389
O 6.42919 0.252708 6.68029
O 10.0195 5.25242 6.85134
O 6.32464 3.12818 6.21545
O 8.61545 7.54256 6.21136
O 7.76631 6.15035 8.12757
O 9.44961 2.31486 7.81633
O 6.34793 7.34757 10.5275
O 8.98532 3.46585 9.9934
Si 10.4343 4.57988 5.41718
Si 12.4738 0.284642 5.93151
Si 11.3885 6.64225 9.41618
Si 13.5219 1.98812 9.18348
Si 11.0819 2.47464 7.26321
Si 13.9897 6.39275 7.36132
O 11.1957 5.07199 9.94614
O 13.2304 0.519036 10.0134
O 12.1064 2.5829 8.49999
O 0.586265 6.9929 7.61844
O 11.3379 0.927748 6.917
O 13.8051 4.70487 6.84771
O 11.3461 3.43661 6.02794
O 13.251 7.38185 6.13132
O 12.9131 6.65118 8.76798
O 14.3642 2.05425 7.83065
O 11.4446 7.86248 10.4834
O 14.3454 3.00967 10.492
Si 14.9325 13.0025 5.34296
Si 2.72745 8.76808 5.4917
Si 1.36668 14.8331 9.45344
Si 3.68452 10.9058 9.43677
Si 1.26329 10.9283 7.3428
Si 3.65933 15.0747 7.84862
O 1.26798 13.4929 10.3711
O 3.53741 9.83443 10.5981
O 2.20659 11.1741 8.74101
O 4.82065 15.5259 8.81966
O 1.72387 9.52024 6.64103
O 4.44751 13.9574 6.90358
O 1.40048 12.1974 6.22369
O 3.40021 16.3582 6.87614
O 2.24855 14.4093 8.14092
O 4.78151 10.3709 8.3169
O 1.88241 16.2179 10.1458
O 4.21732 12.1886 10.1029
Si 4.95296 13.0882 5.58835
Si 7.82171 8.72842 5.58048
Si 6.27684 15.1628 9.37553
Si 8.37476 10.8198 9.19678
Si 6.29223 10.8201 7.34769
Si 8.7529 15.1486 7.28367
O 6.13792 14.0547 10.424
O 8.02802 9.23852 9.71016
O 7.26672 11.7007 8.42231
O 9.9498 15.7493 8.10256
O 6.65315 9.35714 6.66388
O 8.93988 13.6526 6.73802
O 6.13019 12.0372 5.96158
O 8.5597 16.1724 6.09188
O 7.48488 14.9756 8.26221
O 9.59336 10.6055 8.13025
O 6.65962 16.5177 10.091
O 8.9029 11.5017 10.5722
Si 9.8353 13.4055 5.49399
Si 12.5396 8.67573 5.37758
Si 11.0661 15.0147 8.94294
Si 13.5189 10.9169 9.23434
Si 11.0583 11.0597 7.30665
Si 13.8151 14.9654 7.46761
O 10.8602 13.5756 9.81832
O 13.3877 9.49081 9.99087
O 12.0903 11.2928 8.59793
O 0.136833 15.555 8.49764
O 11.8092 9.64146 6.53031
O 14.121 13.6163 6.53442
O 10.6068 12.1459 6.14529
O 13.3854 16.3417 6.60386
O 12.5504 14.6763 8.29813
O 14.7335 10.5363 8.08476
O 11.21 16.0959 10.1074
O 13.7725 12.322 10.1537
Si 0.2488 4.33079 10.8743
Si 2.5416 17.2293 11.2732
Si 1.50656 6.24066 14.8283
Si 4.05805 2.3234 14.3712
Si 1.34501 2.34116 12.7106
Si 4.06575 6.66972 12.8864
O 1.03981 4.90815 15.3712
O 3.68034 1.54999 15.8829
O 2.77867 2.68393 13.4486
O 5.63804 6.32034 13.5035
O 1.08894 0.962268 11.8653
O 4.05895 5.61681 11.5532
O 1.59358 3.97765 11.9387
O 3.7691 8.03797 12.0923
O 3.1061 6.39926 14.4084
O 5.02614 1.32035 13.3825
O 1.45091 7.43983 15.9077
O 4.74482 3.82077 14.709
Si 4.9127 4.32012 10.8334
Si 7.70255 17.2379 10.8398
Si 6.7732 6.60272 14.6817
Si 8.88758 1.98349 14.4168
Si 6.34505 2.24086 12.7908
Si 8.99331 6.85508 12.6877
O 6.18453 5.45963 15.6676
O 8.82628 0.823297 15.6236
O 7.40598 2.77335 13.9794
O 10.8376 7.04119 12.8529
O 7.02747 1.35949 11.7546
O 8.97875 5.42751 11.7284
O 5.73984 3.66572 12.1026
O 8.45487 8.14203 11.9918
O 8.36965 6.50435 14.123
O 9.86935 1.89469 13.1291
O 6.50742 8.06073 15.1281
O 9.27897 3.33922 15.3981
Si 9.94091 4.4235 10.7735
Si 12.4636 16.6823 10.9449
Si 11.6711 6.61129 14.1195
Si 13.7062 2.08476 14.5592
Si 11.4171 2.14423 12.5554
Si 14.0581 6.4888 12.7906
O 10.8566 5.41631 15.118
O 13.5389 0.712285 15.5722
O 12.3185 2.43519 13.8087
O 0.553446 6.39376 13.4893
O 11.9683 0.546448 12.1295
O 14.1641 5.34478 11.4649
O 10.9138 3.29416 11.4961
O 13.726 8.03232 12.2522
O 13.1688 5.69153 13.9418
O 14.928 2.05706 13.4559
O 11.9306 7.94401 15.181
O 13.915 3.31846 15.5266
Si 14.9525 12.6848 11.3243
Si 2.64038 8.52067 10.9926
Si 1.48283 15.4895 14.7804
Si 3.71579 10.5455 14.7611
Si 1.08201 10.321 13.0915
Si 3.82721 15.118 13.0974
O 0.9544 14.6763 16.0267
O 3.1776 9.20927 15.4588
O 2.44292 10.8691 13.7864
O 5.21974 15.394 13.672
O 1.63331 9.2704 12.0417
O 3.96319 13.8111 12.0952
O 0.49101 11.4632 12.2838
O 3.25749 16.5288 12.4838
O 2.8182 14.5644 14.1636
O 4.95986 10.1005 13.8257
O 1.74852 17.1538 15.1121
O 4.29557 11.789 15.6106
Si 5.06829 13.0351 11.2426
Si 7.20691 8.59628 10.9048
Si 6.33474 14.9321 14.8329
Si 8.80854 10.966 14.5967
Si 6.20624 10.6631 12.763
Si 8.7996 14.973 12.7887
O 6.15292 13.6361 15.8313
O 8.42992 9.92769 16.0242
O 7.63958 10.8983 13.5061
O 10.3192 15.6689 13.3211
O 6.28267 9.84329 11.3803
O 9.13696 13.6317 11.969
O 5.94216 12.1909 12.3443
O 8.22965 16.4855 12.1508
O 7.74633 14.3144 13.9144
O 10.2647 10.7196 14.07
O 6.63837 16.0004 16.1954
O 8.81186 12.5008 15.4824
Si 9.97052 12.7686 10.983
Si 12.5988 8.7321 11.1127
Si 11.3928 15.2586 14.7023
Si 13.8109 11.0754 14.8016
Si 11.5854 11.0137 12.9458
Si 14.0149 15.0815 13.0034
O 11.1415 13.8572 15.5161
O 12.8172 10.2672 15.6547
O 12.6986 11.8784 13.7897
O 0.47006 15.6671 13.5062
O 12.0869 9.65928 12.3616
O 14.4268 13.541 12.5642
O 10.8787 12.0412 11.9932
O 13.3121 15.5734 11.5811
O 12.8815 14.9036 14.0505
O 14.5571 9.97191 13.8806
O 11.4242 16.4514 15.8355
O 14.2733 12.3898 15.7095
324
 Atoms. Timestep: 22500
Si 0.149555 4.34184 0.242058
Si 2.69721 0.421039 0.142552
Si 1.24111 6.65896 3.86427
Si 3.7306 1.85041 3.6606
Si 1.34006 2.46316 2.18084
Si 3.82667 6.53224 2.16736
O 1.02002 5.47175 4.76887
O 3.42051 0.522913 4.47181
O 2.21002 2.6374 3.46082
O 5.38819 6.91732 2.4867
O 1.66692 1.32381 1.08648
O 3.84422 5.07696 1.21431
O 1.43556 3.8397 1.22775
O 3.19789 7.60208 1.0403
O 2.6401 6.64556 3.22908
O 4.68731 1.1948 2.51387
O 1.20409 8.05723 4.8685
O 4.6617 3.24352 4.25978
Si 5.08282 4.51731 16.4802
Si 7.65069 17.1459 0.16087
Si 6.36757 6.32567 3.8586
Si 8.86143 2.29759 3.52636
Si 6.2777 2.07952 1.82043
Si 8.83842 6.33408 1.84067
O 5.873 4.90872 4.42323
O 8.79582 0.837911 4.42424
O 7.4319 2.60595 2.79597
O 10.1738 6.84332 2.50173
O 6.50448 0.692491 0.817572
O 9.06009 5.26371 0.707959
O 6.08921 3.32709 0.828253
O 8.17549 7.77416 1.3455
O 7.84892 6.14074 3.29008
O 9.86752 2.21357 2.28816
O 6.15672 7.56038 4.87538
O 9.28286 3.26432 4.56216
Si 10.276 4.43801 16.3717
Si 12.5069 17.3636 0.19259
Si 11.3676 6.64639 3.49175
Si 13.6648 2.18789 3.76721
Si 11.3681 2.44734 1.64249
Si 13.9992 6.77294 1.67201
O 11.0779 5.41908 4.49581
O 13.7506 1.14008 5.02681
O 12.2392 2.08432 2.99895
O 0.335289 6.7227 2.46124
O 11.6392 1.32465 0.601533
O 13.8539 5.30286 1.05758
O 11.3844 3.94147 0.899957
O 13.5191 7.95476 0.646149
O 12.9408 6.48542 2.79661
O 14.7123 1.69953 2.62946
O 11.607 7.9622 4.40003
O 13.8406 3.77754 4.22555
Si 14.9055 13.4101 0.206819
Si 2.16931 8.54683 0.192736
Si 1.38602 15.2467 3.66012
Si 4.00839 10.953 3.6832
Si 1.53562 11.2754 1.81818
Si 3.79405 15.1893 1.67678
O 1.01181 13.6439 3.82976
O 3.28498 9.70263 4.41678
O 2.99014 11.3906 2.40298
O 5.2803 15.4801 2.40348
O 1.64311 10.0376 0.603819
O 3.95152 14.2319 0.388989
O 0.91041 12.4589 0.957039
O 3.21527 16.4612 0.86659
O 2.95166 14.9515 3.09745
O 5.4262 10.6715 3.08715
O 1.42923 16.2412 5.05826
O 4.03519 12.3153 4.59527
Si 5.06363 12.9491 16.5072
Si 7.57686 8.58169 16.4632
Si 6.34038 15.287 3.5851
Si 8.91723 10.5047 3.65388
Si 6.57986 11.0318 1.79798
Si 9.04217 15.3234 2.06342
O 6.10666 13.8749 4.40889
O 8.30043 9.27625 4.51345
O 8.16894 11.2139 2.3808
O 9.98216 15.3006 3.25892
O 6.46832 9.66359 0.904734
O 9.48677 14.1756 0.874562
O 6.06042 12.4489 1.23681
O 8.70398 16.6715 1.34744
O 7.65333 14.8615 2.7866
O 10.5346 10.1663 3.1436
O 6.56916 16.6808 4.32818
O 9.14425 12.0776 4.5193
Si 9.96906 13.0058 16.4033
Si 12.3711 8.86617 16.5314
Si 11.4201 15.2914 4.06344
Si 13.8126 10.9547 3.57978
Si 11.4055 10.7584 1.91229
Si 13.8145 15.3533 2.2359
O 10.7419 14.3277 5.22351
O 13.1906 9.86593 4.55406
O 12.8199 11.3469 2.57337
O 0.420745 15.6757 2.44508
O 11.3966 9.15153 1.28907
O 13.6512 14.3028 0.914754
O 10.8675 11.993 1.11876
O 13.0571 16.6468 1.58905
O 12.8506 14.7922 3.39253
O 0.313121 10.8656 3.07317
O 11.7681 16.4477 5.13901
O 13.9307 12.3403 4.46394
Si 14.8857 4.51976 5.33289
Si 2.65477 17.1457 5.68055
Si 1.12301 6.4402 9.13411
Si 3.69509 2.23078 9.14166
Si 1.11185 2.23744 7.19791
Si 3.71711 6.31465 7.19891
O 0.487591 5.08979 9.67177
O 3.6867 0.961109 10.1322
O 2.12033 2.67971 8.57643
O 5.37915 6.29142 7.63508
O 1.70102 0.963598 6.54789
O 3.75921 5.44966 5.86687
O 0.880037 3.38155 5.89705
O 3.52624 7.81107 6.49006
O 2.5258 5.9469 8.34141
O 4.90731 2.10193 7.9746
O 1.30915 7.57527 10.3455
O 3.87345 3.48196 10.0339
Si 4.97264 4.29163 5.53842
Si 7.63753 0.125747 5.3323
Si 6.34773 6.24661 9.15785
Si 8.72786 2.22985 9.18524
Si 6.30523 2.4464 7.2827
Si 8.74197 6.42138 7.34499
O 5.76928 5.29539 10.1115
O 8.72376 0.651996 9.55735
O 7.22131 2.78204 8.73204
O 10.2835 6.87571 7.91457
O 7.06055 1.55776 6.23241
O 8.88925 5.17598 6.19693
O 6.03726 3.99802 6.69528
O 8.31346 7.74669 6.49841
O 7.95652 6.22287 8.68252
O 9.44341 2.51095 7.68818
O 6.35434 7.75559 9.99116
O 9.45445 3.19496 10.2594
Si 10.1549 4.44189 5.49519
Si 12.794 0.142262 5.925
Si 11.3203 6.74145 9.1214
Si 13.458 1.97066 9.20699
Si 11.1436 2.21473 7.17773
Si 13.9089 6.7698 7.25212
O 11.0243 5.5195 10.0598
O 13.3497 0.449549 9.92644
O 12.177 2.14173 8.27195
O 0.150576 7.22958 8.21079
O 11.1568 0.882555 6.36942
O 14.4474 5.40365 6.60431
O 11.3556 3.69994 6.31358
O 13.5307 7.84872 6.03573
O 12.7426 6.51907 8.39576
O 14.5957 1.97019 7.95971
O 11.3724 8.31949 9.81396
O 13.5961 3.34036 10.0768
Si 0.175408 13.0139 5.20183
Si 2.5586 8.86327 5.5365
Si 1.17943 15.3746 9.53853
Si 3.46315 11.2724 9.1687
Si 1.0778 10.993 7.41434
Si 3.40855 15.0396 7.58435
O 1.26949 14.0896 10.5934
O 2.63675 9.91561 9.859
O 2.20721 11.8851 8.52029
O 4.55499 15.3951 8.70347
O 1.632 9.76049 6.59595
O 4.22845 13.772 6.67467
O 0.902294 12.0674 6.26978
O 3.59355 16.2852 6.58674
O 2.03761 14.7231 8.30653
O 4.5679 10.79 8.01389
O 1.64704 16.8137 10.0196
O 4.16778 12.0711 10.3139
Si 5.22197 13.1006 5.49102
Si 7.31251 8.54451 5.71205
Si 6.10256 15.2451 9.33363
Si 8.41723 10.6853 9.17408
Si 5.98069 10.8351 7.28554
Si 8.34387 14.8119 7.14909
O 6.01313 14.4095 10.7679
O 8.29199 9.21435 9.78074
O 7.20063 11.3688 8.27859
O 9.64884 15.652 8.02177
O 6.31431 9.49423 6.559
O 8.72228 13.4542 6.44873
O 6.05904 11.8941 6.01057
O 8.00474 16.1412 6.35025
O 7.11198 14.6541 8.21976
O 9.62573 10.6649 8.04248
O 6.76002 16.6191 9.93752
O 8.93457 11.6182 10.4837
Si 9.98595 12.9597 5.69824
Si 12.3082 8.90409 5.49396
Si 10.9869 14.9717 8.73934
Si 13.7611 11.0346 9.27899
Si 11.1568 10.8761 7.666
Si 13.9347 15.0265 7.45652
O 10.6657 13.4432 9.52705
O 13.5609 10.0075 10.534
O 12.2223 10.9726 8.85963
O 14.8047 15.2945 8.80141
O 11.862 9.67381 6.82007
O 14.4327 13.8455 6.46791
O 11.015 12.0631 6.60151
O 13.8558 16.735 6.93364
O 12.3401 14.8627 7.86354
O 14.9401 10.4815 8.31875
O 11.4075 15.8983 10.2044
O 14.1178 12.4646 9.92063
Si 14.8504 4.11527 10.8143
Si 2.73662 0.167201 11.0712
Si 1.22415 6.27796 14.5758
Si 4.02332 2.48958 14.5935
Si 1.3658 1.99435 12.9088
Si 3.78123 6.58086 12.7275
O 1.01012 4.86172 15.2401
O 3.78417 1.22026 15.7593
O 2.74829 2.58877 13.5601
O 5.38529 6.80808 13.2936
O 1.70968 0.589777 12.2457
O 3.71102 5.18772 11.9548
O 0.78042 3.05571 11.7418
O 3.72114 7.73621 11.693
O 2.64805 6.1841 13.9455
O 5.11935 1.79601 13.506
O 1.34 7.65505 15.5464
O 4.7139 3.80562 15.0602
Si 4.86195 4.33962 11.0584
Si 7.76587 17.3837 10.9664
Si 6.38335 6.57578 14.5791
Si 9.06373 2.00113 14.8386
Si 6.60144 2.26193 12.9062
Si 8.71709 6.44086 12.7273
O 6.16842 5.64357 15.855
O 8.57087 0.423204 15.4578
O 7.77108 2.58239 13.9904
O 10.2849 6.97853 13.1294
O 6.93751 1.27459 11.7817
O 8.73199 5.17183 11.6849
O 5.92304 3.41275 11.6851
O 8.26227 7.63587 11.9123
O 7.75296 6.02049 13.7527
O 9.9467 1.84752 13.4484
O 6.95829 7.94708 14.9386
O 9.46783 3.14412 15.7998
Si 10.1501 4.5939 11.0365
Si 12.248 17.0183 10.9142
Si 11.1264 6.77313 14.4709
Si 13.9302 1.92254 14.7955
Si 11.4273 2.41899 12.6868
Si 13.8147 6.52578 12.6279
O 10.7583 5.54545 15.3279
O 13.5979 0.593998 15.6539
O 12.6297 2.24379 13.7357
O 0.224037 6.56194 13.3764
O 11.5212 1.31422 11.2254
O 14.1102 5.00088 11.8463
O 11.0694 4.01083 12.4089
O 13.2991 7.71709 11.5945
O 12.5736 6.6034 13.7158
O 0.126428 1.38484 13.644
O 11.1925 8.13296 15.5986
O 14.0601 3.02041 16.0036
Si 0.131016 13.0178 11.2233
Si 2.47413 8.62559 10.838
Si 1.39187 15.447 14.8315
Si 3.93296 10.7047 14.8895
Si 1.48959 10.8532 13.0755
Si 3.90553 15.168 12.96
O 0.866082 14.6974 16.1732
O 3.21877 9.40428 15.6119
O 2.73246 11.5518 14.0427
O 5.20536 15.4072 13.8242
O 1.92249 9.2772 12.3144
O 4.00333 13.8193 12.1281
O 0.636413 11.763 12.0259
O 3.61023 16.4333 11.911
O 2.75434 14.8498 14.1066
O 5.28256 10.4281 14.1459
O 1.83058 16.9096 15.3617
O 3.81281 12.0301 16.0825
Si 5.14159 13.0204 11.3031
Si 7.41824 8.50441 10.855
Si 6.47757 14.9325 14.747
Si 8.87559 10.8923 14.7683
Si 6.39432 10.7761 12.8446
Si 8.9977 15.1877 12.7632
O 6.11688 13.4622 15.3362
O 8.6192 9.49499 15.7944
O 7.62016 10.8376 13.8187
O 10.3167 15.4768 13.777
O 6.41244 9.7165 11.5499
O 9.25462 13.9301 11.7902
O 6.21747 12.2709 12.1653
O 8.58613 16.5588 12.0704
O 7.93748 14.7358 13.8565
O 10.1136 11.1954 13.8716
O 6.7839 15.6867 16.2942
O 8.64041 12.104 15.7798
Si 10.0213 12.8064 10.9976
Si 12.4725 8.92812 10.9541
Si 11.3807 14.996 14.8738
Si 13.9646 11.0378 14.9613
Si 11.5155 10.9982 12.9404
Si 13.7849 15.2401 12.9798
O 11.0536 13.638 15.572
O 13.4044 9.99964 15.9013
O 13.024 11.1986 13.5175
O 0.329909 15.5496 13.3876
O 11.6053 9.64865 12.1235
O 13.9498 13.9492 12.0015
O 11.2595 12.2041 11.7766
O 12.9625 16.6241 12.2358
O 12.8933 14.8179 14.2527
O 0.363352 10.5473 14.1982
O 11.4526 16.2327 16.0266
O 13.8767 12.5423 15.5891
324
 Atoms. Timestep: 23000
Si 0.185329 4.36302 16.461
Si 2.36253 17.3803 0.194164
Si 1.20439 6.68156 3.53867
Si 3.58309 2.27492 3.74794
Si 1.33169 2.51603 1.84353
Si 3.94075 6.66802 1.92568
O 1.0573 5.18988 4.27598
O 3.35763 0.698472 4.14989
O 2.18151 3.12786 3.14883
O 5.40449 7.0678 2.62898
O 1.59526 1.04126 1.21556
O 3.97161 5.10093 1.29847
O 1.41094 3.77485 0.894377
O 3.68561 7.68649 0.701025
O 2.72176 6.41174 3.03949
O 4.67904 2.05637 2.62195
O 1.31508 8.18482 4.55362
O 4.09912 3.07762 4.94955
Si 4.90577 4.43409 0.185261
Si 7.47206 17.3803 16.5004
Si 6.44468 6.34855 3.66109
Si 8.77735 1.89338 3.75965
Si 6.20197 2.14742 1.84868
Si 8.75059 6.62521 2.04565
O 5.44596 5.12947 4.29058
O 8.86029 0.70819 4.85262
O 7.41048 2.29219 2.82882
O 10.219 7.0513 2.61046
O 6.43561 1.03402 0.673271
O 9.0087 5.38019 1.03725
O 5.96582 3.49229 1.02667
O 8.4843 7.83151 0.91069
O 7.75942 5.7823 3.04586
O 9.77007 1.41333 2.52671
O 6.46443 7.32513 4.99181
O 8.80899 3.28853 4.48432
Si 10.0077 4.35678 0.306684
Si 12.4222 17.1865 16.3326
Si 11.3498 6.41174 3.5651
Si 13.7357 2.01045 3.70166
Si 11.151 1.92869 1.91332
Si 13.9796 6.45271 1.73797
O 10.6009 4.99641 4.09676
O 13.6239 0.503537 4.36534
O 12.3578 2.19664 2.87393
O 0.342522 6.89276 2.26992
O 11.4642 0.896992 0.697426
O 14.3308 4.89691 1.3027
O 11.0478 3.50345 1.26845
O 13.3831 7.3984 0.446807
O 12.9726 6.1906 2.99479
O 15.052 2.14044 2.67658
O 11.5606 7.38306 4.78259
O 13.7807 3.35835 4.71006
Si 0.24357 13.1006 16.2531
Si 2.41919 8.7104 16.4153
Si 1.32284 15.0681 3.66956
Si 3.93317 10.8249 3.73902
Si 1.31125 10.9553 1.90601
Si 3.90414 15.0541 1.75952
O 0.955196 13.7276 4.48264
O 3.31253 9.8369 4.76425
O 2.59377 11.3724 2.86348
O 5.16455 15.4858 2.86139
O 1.74248 9.78886 0.832121
O 4.32829 13.7291 0.977386
O 0.980286 12.3068 0.892386
O 3.50262 16.3174 0.708232
O 2.67258 14.7972 2.81339
O 5.06855 10.4424 2.53345
O 1.59491 16.3238 4.79113
O 4.45572 12.1463 4.50306
Si 5.28191 12.9917 16.4411
Si 7.81944 8.96154 16.4353
Si 6.40038 15.5242 3.7624
Si 8.85304 10.6575 3.90855
Si 6.5165 11.0388 1.95389
Si 9.01343 15.3835 2.09765
O 5.95436 14.2411 4.65198
O 8.41525 9.41863 4.57909
O 7.7387 11.365 2.91666
O 10.5179 15.7013 2.48024
O 6.72699 9.99857 0.76167
O 9.23662 14.1247 0.945348
O 6.27631 12.2714 0.974735
O 8.61325 16.4463 1.10222
O 7.89225 15.3155 3.28043
O 10.3401 10.3429 3.35223
O 6.44363 16.9405 4.73283
O 8.9865 11.8388 5.11886
Si 9.86548 12.9688 0.0595513
Si 12.4677 8.74757 16.4635
Si 11.4677 15.0584 3.69947
Si 13.6673 10.9208 3.84714
Si 11.2753 10.7839 2.08823
Si 13.8207 15.0613 1.63648
O 10.5909 13.666 4.3163
O 13.3179 9.48815 4.52992
O 12.493 11.6494 3.03125
O 0.0522296 15.5904 2.58946
O 12.0188 9.46632 1.45101
O 14.274 14.0108 0.448453
O 10.3565 11.6207 1.06336
O 13.4491 16.468 0.873234
O 12.7939 14.4543 2.67999
O 15.0229 10.5785 2.99104
O 11.8055 16.2663 4.76188
O 13.9488 12.0472 5.14408
Si 14.9927 4.35067 5.09823
Si 2.63967 17.3419 5.29669
Si 1.30663 6.50691 9.44026
Si 3.79265 2.29113 9.12067
Si 1.29593 2.12774 7.08183
Si 3.69321 6.3425 7.48395
O 0.630129 5.44748 10.246
O 3.63875 0.889629 9.76606
O 2.51764 2.55583 8.08071
O 5.24939 6.59517 7.86189
O 2.02775 0.989527 6.17734
O 3.66507 5.25034 6.1886
O 0.906372 3.49774 5.99068
O 3.05563 7.58919 6.50071
O 2.74508 5.90014 8.86039
O 4.84563 2.04422 7.89216
O 1.47424 7.8091 10.4267
O 4.62709 3.34693 10.0093
Si 4.81308 4.32953 5.56311
Si 7.7004 0.142396 5.68662
Si 6.37385 6.62518 9.12667
Si 8.94988 2.54207 9.14727
Si 6.38478 2.43446 7.38915
Si 8.70386 6.49403 7.12261
O 5.92573 5.47571 9.97887
O 8.48035 1.40069 10.1113
O 7.51308 2.80852 8.33901
O 10.0085 6.46479 8.07076
O 6.7259 1.32163 6.15061
O 8.61801 5.26916 5.84481
O 6.0309 3.93795 6.47477
O 8.60133 7.86079 6.34653
O 7.69779 6.18573 8.3457
O 9.85719 1.61276 7.94719
O 6.68265 8.12782 9.72014
O 9.2613 3.96949 9.53025
Si 9.75022 4.24113 5.3041
Si 12.5201 0.107549 5.48041
Si 11.3463 6.5323 9.16562
Si 13.7929 2.16892 9.17021
Si 11.3306 2.28818 7.19361
Si 13.9271 6.42548 7.34899
O 11.2822 5.36504 10.1988
O 13.6129 0.798354 9.87955
O 12.4472 2.69319 8.1712
O 0.207372 6.85047 8.17352
O 11.925 1.5146 5.80099
O 14.5137 5.54805 6.1435
O 10.4743 3.6097 6.6277
O 13.4917 8.02697 6.54691
O 12.723 5.88374 8.33432
O 15.0353 2.13144 8.07959
O 11.5696 8.00855 9.56913
O 14.0976 3.37083 10.1565
Si 14.9262 13.3248 5.79832
Si 2.40103 8.73158 5.62899
Si 1.17156 15.296 9.08829
Si 3.65998 10.5523 9.23965
Si 1.01575 11.108 7.46417
Si 3.7151 15.2251 7.38658
O 1.16239 13.8813 9.96969
O 3.53205 9.12043 9.88071
O 2.01645 10.9171 8.89182
O 4.66949 15.5525 8.66599
O 1.65514 9.8998 6.45597
O 3.93458 13.5992 6.76641
O 0.490628 12.7202 7.20431
O 3.75776 16.3157 6.15163
O 2.19745 15.152 7.91405
O 4.46716 10.7121 7.91082
O 1.37827 16.6718 10.0026
O 4.09862 11.6344 10.4681
Si 5.0118 13.2491 5.70206
Si 7.46015 8.5502 5.62439
Si 6.07893 15.3402 9.45363
Si 8.62058 10.5138 9.43412
Si 6.09138 10.8694 7.31744
Si 8.62528 15.2638 7.5682
O 5.7703 13.8774 10.102
O 8.75997 9.39972 10.6868
O 7.28643 10.7606 8.5864
O 9.57903 15.8679 8.91458
O 6.56786 9.42183 6.63483
O 9.72676 14.2116 6.74588
O 6.10077 12.2623 6.53307
O 8.61479 16.5383 6.55214
O 7.10351 14.873 8.17464
O 9.76109 10.1157 8.22047
O 6.53102 16.5123 10.4954
O 9.06919 12.1156 9.90323
Si 9.99121 13.0246 5.71356
Si 12.3674 8.52124 5.50504
Si 11.0152 15.3565 9.36395
Si 13.6886 10.8172 9.31395
Si 11.1436 10.8631 7.44814
Si 13.5652 15.6056 7.47385
O 10.9776 13.9961 10.245
O 13.7638 9.45338 10.352
O 12.2566 11.1443 8.66372
O 14.7107 15.5395 8.51429
O 11.701 9.53564 6.71573
O 13.7861 14.5305 6.14051
O 11.195 12.2036 6.63865
O 13.4299 17.0152 6.73876
O 12.0529 15.3889 8.02042
O 14.748 10.3247 8.10173
O 11.6388 16.4448 10.3411
O 14.1381 11.9524 10.4323
Si 0.127049 4.33818 11.219
Si 2.66781 17.3439 10.862
Si 0.893977 6.71288 14.6337
Si 3.66338 2.24968 14.9778
Si 1.37815 2.17055 12.7594
Si 3.56345 6.66757 12.7722
O 0.270556 5.38905 15.1853
O 3.3658 0.869114 15.8303
O 2.21521 2.47582 14.2626
O 5.03215 6.82339 13.6123
O 2.315 0.980801 11.9996
O 3.85787 5.44411 11.749
O 1.40891 3.54763 11.777
O 3.47738 8.4012 12.3896
O 2.26881 6.22529 13.6153
O 4.84474 2.26813 13.8475
O 1.19754 7.67914 15.93
O 3.91335 3.57761 15.6882
Si 5.01971 4.52193 11.0653
Si 7.74285 0.127191 11.2349
Si 6.18862 6.78893 14.8426
Si 8.85048 2.16809 14.8459
Si 6.24369 2.27875 12.9739
Si 8.68417 6.25751 13.085
O 5.86575 5.60899 16.1264
O 8.17628 0.691391 15.3312
O 7.685 2.7497 13.8153
O 9.85494 6.86387 13.9666
O 6.68177 0.92709 12.2734
O 9.27284 5.24774 12
O 5.94478 3.46605 11.7146
O 7.56504 7.15413 12.0995
O 7.7497 6.00895 14.3207
O 10.0317 1.94798 13.8642
O 6.65926 8.2127 15.1337
O 8.97721 3.37821 15.9715
Si 10.1307 4.52931 10.88
Si 12.6238 0.219849 10.9732
Si 11.1358 6.37724 14.8181
Si 13.8814 2.06579 14.457
Si 11.3747 2.19772 12.8376
Si 13.5387 6.41769 12.9537
O 11.0636 5.33215 16.1448
O 13.3203 0.67406 15.2733
O 12.5316 2.7193 13.805
O 14.7422 7.17848 13.647
O 11.4635 0.987629 11.8921
O 14.3429 4.97063 12.6466
O 10.9866 3.55708 11.9879
O 13.1264 7.62724 12.0026
O 12.3381 5.74717 13.7375
O 14.9917 1.55352 13.2681
O 11.2744 7.82566 15.5637
O 14.4708 2.97269 15.6173
Si 0.138988 13.304 11.0604
Si 2.47029 8.96758 11.0134
Si 1.35491 15.5527 14.607
Si 3.90242 10.8495 14.673
Si 1.49521 11.2027 12.6654
Si 4.00325 15.3543 12.8554
O 1.36878 14.1234 15.4363
O 3.07479 9.51579 15.1732
O 2.77856 11.5406 13.6705
O 5.35783 15.9993 13.4217
O 1.7981 10.2912 11.3334
O 4.25273 13.8633 12.2276
O 0.869961 12.5999 12.2431
O 3.5182 16.1221 11.4749
O 2.68091 15.5492 13.7086
O 5.46885 10.4896 14.2277
O 1.23841 16.723 15.7666
O 4.09232 12.0806 15.8013
Si 5.1345 12.7695 11.2014
Si 7.35891 8.30026 11.0937
Si 6.48627 15.187 14.4474
Si 9.13397 10.7965 14.6181
Si 6.42797 10.6936 12.8986
Si 9.07055 15.2455 12.7391
O 5.82269 13.9905 15.2636
O 9.02709 9.40397 15.6633
O 7.98018 10.7899 13.4666
O 10.2571 15.4186 13.7844
O 6.48205 9.49427 11.908
O 9.0851 13.7119 11.9038
O 6.5105 12.1602 11.913
O 8.8397 16.6149 11.9144
O 7.83726 14.8078 13.5832
O 10.6646 10.627 14.1801
O 6.79862 16.1716 15.57
O 8.96986 12.1751 15.3775
Si 10.1378 12.809 10.9064
Si 12.5108 8.63071 10.8471
Si 11.3937 14.9647 14.7346
Si 14.1246 10.7567 14.2588
Si 11.5525 10.6134 12.7521
Si 13.882 15.487 12.8374
O 11.2011 13.4587 15.7171
O 13.5734 9.74791 15.5487
O 13.0217 10.9785 13.0176
O 0.178876 15.7901 13.5058
O 11.3203 9.20523 11.8541
O 14.1927 14.4477 11.7205
O 10.9443 11.8282 11.88
O 13.4566 16.8051 12.1544
O 12.8996 14.729 13.9793
O 0.391475 10.2423 13.532
O 11.2662 16.1069 15.8841
O 14.3111 12.255 15.1692
324
 Atoms. Timestep: 23500
Si 14.8973 4.19592 16.4078
Si 2.85301 17.1281 0.330782
Si 1.06826 6.64084 3.81483
Si 3.55853 2.54504 3.67955
Si 1.19451 2.12787 1.56174
Si 3.76435 6.66952 1.95681
O 1.28435 4.97039 4.23532
O 2.97445 1.09678 4.41364
O 2.28153 2.90271 2.60179
O 5.0617 7.36992 2.77703
O 1.52118 0.655706 0.892305
O 4.31632 5.17488 1.50367
O 1.25857 3.15502 0.352157
O 3.70249 7.65317 0.795801
O 2.30068 6.48059 2.66335
O 4.71199 2.36094 2.44981
O 1.34837 7.68868 5.10479
O 4.02728 3.28062 5.11554
Si 5.01499 4.40005 0.33028
Si 7.29872 0.151568 16.4012
Si 6.01254 6.79135 4.03926
Si 9.10346 1.81266 3.53043
Si 6.23797 2.22126 1.87677
Si 8.63536 6.70137 2.20622
O 5.31466 5.31642 4.19268
O 8.75522 0.593009 4.6848
O 7.50052 2.05762 2.94795
O 10.0313 7.12468 3.03656
O 6.13151 1.17203 0.539712
O 8.98834 5.17159 1.58594
O 6.23809 3.71824 1.21698
O 8.53742 7.60574 0.696448
O 7.64735 6.46707 3.40486
O 10.0402 1.69974 2.26013
O 6.25802 7.73537 5.21623
O 9.34006 3.12122 4.32587
Si 9.77201 4.4813 0.231196
Si 12.7086 17.2746 16.3957
Si 11.4737 6.35157 3.64012
Si 13.8058 2.23135 3.55317
Si 11.4489 2.21647 1.67096
Si 13.7262 6.47878 1.78179
O 11.288 4.99295 4.5401
O 13.4665 1.09507 4.56221
O 12.5232 2.93529 2.68447
O 14.8212 7.18708 2.95825
O 12.0131 1.15912 0.627644
O 14.6364 5.27099 1.15202
O 11.065 3.50061 0.668565
O 13.6484 7.57874 0.580318
O 12.5264 5.74892 2.40689
O 14.9476 1.70411 2.47923
O 12.0229 7.45752 4.56619
O 14.428 3.14471 4.595
Si 0.259147 12.9445 16.5066
Si 2.47721 8.64512 0.0728285
Si 1.2065 14.9973 3.83851
Si 3.75496 10.9057 4.01996
Si 1.36842 10.8434 2.05382
Si 3.77525 15.2108 2.28226
O 0.591206 13.7373 4.45228
O 3.47395 9.32276 4.38164
O 2.51951 11.7234 3.2963
O 5.0302 15.361 3.13869
O 1.67072 9.42044 1.31643
O 3.74631 14.0107 1.23512
O 1.31947 12.2329 1.0804
O 3.92283 16.6217 1.57494
O 2.77939 14.9175 3.55499
O 4.85332 10.7154 2.61593
O 1.17372 16.3748 4.61615
O 4.60478 11.621 5.21029
Si 4.7017 13.2509 0.0575444
Si 7.55387 8.71312 16.5744
Si 6.37428 14.9984 3.94185
Si 8.63677 10.9911 3.68113
Si 6.1551 11.1119 1.76914
Si 8.70697 15.0437 1.75662
O 6.08051 13.5285 4.54561
O 8.27212 9.37165 4.38702
O 7.33894 11.5809 2.75638
O 10.0269 15.503 2.6671
O 6.46308 9.61355 0.75504
O 8.82913 14.0056 0.404192
O 5.99549 12.6849 0.957409
O 8.02164 16.2316 0.813144
O 7.5926 14.526 2.72436
O 9.81143 10.793 2.44491
O 6.69923 16.3091 4.97816
O 9.08037 12.0039 4.87683
Si 10.0407 13.237 16.4479
Si 12.514 8.67527 16.3796
Si 11.4597 15.1747 3.66566
Si 13.705 10.7577 3.79743
Si 11.241 11.0486 1.68658
Si 14.0013 15.1793 1.60216
O 11.1493 13.7942 4.52956
O 13.9576 9.21984 4.26489
O 12.3207 11.1683 3.05888
O 0.234066 15.2611 2.47665
O 11.7463 9.74115 0.77296
O 14.3168 13.8584 0.613928
O 11.0037 12.4581 0.980411
O 13.785 16.4563 0.755554
O 12.5869 14.8067 2.39388
O 15.067 10.7354 2.75673
O 11.7857 16.592 4.28017
O 13.9296 11.6852 5.17054
Si 0.226022 4.29728 5.29888
Si 2.26225 0.0216765 5.27567
Si 1.41356 6.62668 9.14307
Si 3.7459 2.28349 9.34323
Si 1.47413 2.23271 7.43031
Si 3.9181 6.93762 7.34151
O 0.832146 5.62541 10.3138
O 3.21184 1.06234 10.1029
O 2.80606 2.75816 8.0337
O 5.40952 7.27598 8.2166
O 1.41788 0.927504 6.3691
O 4.2422 5.98144 6.0887
O 0.894546 3.50186 6.46237
O 3.57598 8.43826 6.69553
O 3.02325 6.48151 8.73196
O 5.24538 2.12292 8.78228
O 1.56719 7.91621 9.86113
O 3.86839 3.59686 10.2894
Si 4.978 4.61403 5.62636
Si 7.51741 0.0847097 5.72825
Si 6.62666 6.57536 9.04864
Si 8.80848 1.98286 9.40591
Si 6.31625 2.32275 7.44228
Si 8.96691 6.44735 7.09853
O 5.78574 5.32956 9.8353
O 8.78389 0.518422 10.197
O 7.71365 2.31017 8.19758
O 10.3913 6.48708 7.77611
O 6.41697 1.16227 6.19505
O 9.21727 5.55164 5.72113
O 6.1152 3.79891 6.44451
O 8.43125 8.05052 6.57803
O 7.72727 5.81237 8.04423
O 10.3119 1.72987 8.69753
O 7.15015 7.60238 10.1891
O 8.90811 3.22389 10.5259
Si 9.96511 4.25292 5.29692
Si 12.6214 17.2718 5.33277
Si 11.3111 6.56981 9.07675
Si 13.8294 2.19706 9.14683
Si 11.2581 2.09431 7.426
Si 13.9617 6.30276 7.41563
O 10.6661 5.06659 9.77242
O 13.364 0.978589 10.0052
O 12.7928 2.48937 7.92945
O 0.452815 6.81506 7.84745
O 11.6208 0.836505 6.25832
O 14.4686 5.60569 6.07494
O 10.5307 3.37118 6.5877
O 13.1636 7.78797 6.67208
O 12.9169 6.13445 8.62782
O 0.104943 1.80455 8.27749
O 11.604 7.95932 9.70065
O 14.1085 3.6758 9.99706
Si 14.7449 13.0171 5.6832
Si 2.42806 8.87241 5.60216
Si 1.25942 15.1875 9.00946
Si 3.75061 10.7037 9.07118
Si 1.22518 11.0727 7.38222
Si 3.9257 15.476 7.15415
O 1.24991 13.9026 9.99409
O 3.76404 9.43575 10.0643
O 2.383 10.8327 8.52297
O 4.99772 15.9107 8.41402
O 1.53024 10.0088 6.02065
O 4.28049 13.9219 6.58634
O 0.937515 12.6868 6.85173
O 3.6019 16.4617 5.94406
O 2.28336 15.1899 7.79059
O 4.80689 10.6928 7.95686
O 1.44198 16.4836 10.0083
O 4.24676 11.9905 9.91317
Si 5.2765 13.1705 5.82145
Si 7.23719 8.94888 5.66233
Si 6.2417 15.1643 9.26603
Si 8.84387 10.9334 9.35559
Si 6.21546 11.2391 7.54701
Si 8.72152 15.2512 7.48935
O 5.82194 14.1088 10.3714
O 8.8866 9.92669 10.5142
O 7.17705 11.0887 8.88604
O 10.0079 15.39 8.5232
O 6.60333 10.2068 6.4779
O 9.22944 14.3754 6.22047
O 6.28161 12.8525 7.14817
O 8.26333 16.7202 6.90713
O 7.32013 14.5141 8.31484
O 9.67919 10.5453 8.03133
O 6.46347 16.5855 10.0587
O 9.41025 12.3537 9.77314
Si 10.0137 13.0745 5.51844
Si 12.8605 8.58392 5.43162
Si 11.2372 15.1365 9.29813
Si 13.8879 10.6741 9.15925
Si 11.2554 10.8054 7.17162
Si 13.6335 15.349 7.45737
O 11.1914 14.0651 10.5251
O 13.8642 9.48247 10.3901
O 12.4668 10.6557 8.36168
O 14.8582 15.5498 8.41642
O 11.7899 9.80143 6.06887
O 13.8442 13.9409 6.50351
O 10.9486 12.2123 6.54186
O 13.438 16.4106 6.25475
O 12.2672 14.8365 7.99961
O 15.0528 10.482 8.1364
O 12.1544 16.2371 10.2006
O 14.04 11.9912 10.0377
Si 0.236803 4.32314 10.9779
Si 2.42459 17.2357 11.144
Si 1.01372 6.55767 14.7713
Si 3.6102 2.17581 14.9381
Si 1.26809 2.18722 12.8925
Si 3.48129 6.58702 12.958
O 0.305591 5.2997 15.4417
O 3.40897 0.906265 15.8868
O 2.39472 2.80336 14.0797
O 4.55726 7.18413 14.1458
O 1.97565 0.743744 12.3132
O 3.94619 5.44925 11.8818
O 1.13243 3.05424 11.3641
O 3.05837 7.88532 12.087
O 2.61704 6.08539 14.1815
O 4.82698 1.31137 13.8711
O 1.24044 7.77043 15.9805
O 4.06054 3.33974 15.9008
Si 4.93719 4.47668 11.0209
Si 7.47507 17.2769 10.937
Si 6.02387 6.66703 14.7028
Si 8.56668 2.44727 14.5761
Si 5.94609 2.01825 12.83
Si 8.44833 6.81305 12.9512
O 5.97653 5.47532 15.8516
O 8.10137 1.03648 15.5351
O 7.18031 2.512 13.588
O 9.60935 6.67243 14.1318
O 6.44765 1.2555 11.4917
O 8.99411 5.79611 11.7684
O 5.57378 3.68382 12.3223
O 8.69264 8.14278 12.1456
O 6.8522 6.67663 13.2744
O 9.59478 2.07084 13.4783
O 6.6165 7.94893 15.3353
O 8.81713 3.75666 15.4895
Si 10.0067 4.63237 11.2518
Si 12.6379 0.096973 11.0782
Si 11.238 6.4957 14.8243
Si 13.802 1.99546 14.7244
Si 11.1387 2.31215 13.036
Si 13.9131 6.29561 12.7649
O 10.9684 5.27588 15.8155
O 13.7488 0.453102 15.2557
O 12.2692 2.4255 14.1427
O 0.338225 6.8635 13.3099
O 11.7259 0.97484 12.1952
O 14.2656 4.80058 12.2166
O 11.0487 3.91114 12.2637
O 13.2676 7.43055 11.7939
O 12.6505 6.27273 13.7719
O 0.0839479 2.05648 13.8237
O 11.4561 7.73711 15.6682
O 13.6944 3.31419 15.6423
Si 0.162887 13.1303 10.8341
Si 2.47428 8.78269 10.8457
Si 1.47777 15.1062 14.6738
Si 3.86954 10.8665 14.776
Si 1.54303 10.9285 12.8045
Si 3.89747 15.1695 12.6712
O 1.23735 13.676 15.4412
O 3.21536 9.48205 15.4334
O 2.99263 11.2111 13.4655
O 5.34858 15.4719 13.2445
O 1.79585 10.1585 11.4586
O 3.74559 13.6357 12.0359
O 0.992662 12.4654 12.1218
O 3.54216 16.3055 11.6158
O 2.77995 14.9753 13.887
O 5.52131 10.5897 14.2405
O 1.90222 16.0493 15.9107
O 3.96024 12.0464 15.8631
Si 4.86089 12.9658 11.0213
Si 7.61204 8.7509 11.109
Si 6.27226 15.1612 14.6353
Si 9.01911 10.7552 14.7527
Si 6.43125 10.9312 12.8755
Si 8.65863 15.1093 12.8542
O 5.33545 14.2953 15.4604
O 8.6621 9.55834 15.9037
O 7.91463 10.9446 13.6436
O 10.0962 15.5022 13.506
O 6.33835 9.64144 11.7014
O 8.80523 13.8658 11.7929
O 5.81606 12.1515 11.9637
O 7.67509 16.3385 12.2185
O 7.79997 14.5651 14.2493
O 10.5419 10.2337 14.2218
O 6.30265 16.6749 15.2407
O 9.27737 12.0057 15.6774
Si 10.1002 12.8596 11.1075
Si 12.6583 8.61885 10.8955
Si 11.3846 15.1984 14.5228
Si 14.1336 10.6901 14.5279
Si 11.4976 10.6771 12.9459
Si 14.0076 15.0873 12.8349
O 11.0689 13.6842 15.2822
O 13.7997 9.30369 15.3785
O 13.068 11.1781 13.4328
O 0.384266 15.5592 13.5731
O 11.6279 9.15734 12.0645
O 14.1775 14.103 11.5594
O 10.978 11.915 12.1756
O 13.6688 16.6339 12.0472
O 12.7718 14.7679 13.7371
O 0.371959 10.1565 13.7198
O 11.6829 16.3516 15.5477
O 14.3855 11.8174 15.6706
324
 Atoms. Timestep: 24000
Si 14.8506 4.34861 16.4805
Si 2.48562 17.2974 16.4686
Si 1.26329 6.38148 3.81881
Si 3.78453 2.29707 3.76212
Si 1.19597 2.23287 1.88759
Si 3.75618 6.3539 1.7311
O 1.02498 5.07452 4.84491
O 3.36592 0.974731 4.64395
O 2.49979 2.72095 2.81466
O 4.8589 6.41856 2.97132
O 1.65863 0.880481 0.977394
O 3.96616 5.12161 0.805342
O 0.760111 3.24537 0.843371
O 3.66075 7.78873 0.949751
O 2.29113 6.14166 2.55001
O 4.941 2.05901 2.66465
O 2.16148 7.4613 4.6608
O 3.87764 3.54737 4.76747
Si 4.92056 4.14982 -0.014574
Si 7.39222 0.0457347 0.127061
Si 6.3686 6.27824 3.69578
Si 8.71172 2.27681 3.69924
Si 6.2514 2.28637 1.72706
Si 8.59112 6.46353 1.85206
O 6.37772 5.08506 4.94676
O 8.50839 0.732497 4.69782
O 7.72998 2.43367 2.45102
O 9.67572 6.47832 3.15862
O 6.27267 0.763417 1.05562
O 8.74286 5.30878 0.713557
O 6.28631 3.73109 1.00071
O 8.65439 7.86669 1.12984
O 7.29034 5.77708 2.34648
O 9.95124 1.46063 3.0412
O 6.72874 7.7871 4.10668
O 9.01096 3.2795 4.87708
Si 9.9629 4.35045 0.122529
Si 12.6274 17.1967 0.0845947
Si 11.1471 6.40202 3.86762
Si 13.6167 2.29993 3.60636
Si 11.0652 1.84674 1.93536
Si 13.7249 6.63975 2.1138
O 11.0017 5.20174 4.79993
O 13.037 1.19998 4.81244
O 12.1104 2.82073 2.84544
O 14.9201 7.06219 3.11318
O 11.7964 0.435844 1.33571
O 14.1835 5.45461 0.989709
O 10.4121 2.91096 0.927575
O 14.0135 8.00956 0.993534
O 12.3036 6.24376 2.76684
O 14.8458 1.81748 2.59443
O 11.4222 7.6943 4.99418
O 14.0517 3.67628 4.42524
Si 0.141093 12.8514 0.125048
Si 2.65977 8.69776 16.3603
Si 1.20934 15.3254 3.75481
Si 3.69791 10.6647 3.68167
Si 1.34624 10.7193 1.81397
Si 3.89389 15.231 1.96084
O 0.932332 13.8423 4.38744
O 3.87045 9.32818 4.61254
O 2.25392 11.076 3.27207
O 5.38055 15.6273 2.61263
O 1.79741 9.27212 1.16754
O 3.92965 13.5778 1.36596
O 1.39853 11.941 0.796104
O 3.65011 16.3232 0.671483
O 2.73388 15.2181 3.15781
O 4.98033 10.8247 2.69166
O 1.26674 16.4872 4.98505
O 3.97668 11.8118 4.70302
Si 4.92589 13.0816 16.5237
Si 7.47406 8.65036 0.210371
Si 6.51497 14.8869 3.76713
Si 8.99669 10.9178 3.39205
Si 6.24803 11.061 1.85295
Si 8.9376 15.2486 1.74998
O 5.67967 13.6926 4.35709
O 8.85887 9.47517 4.41753
O 7.48429 11.2268 2.7672
O 10.4191 15.6985 2.30338
O 6.64503 9.74493 0.996924
O 8.92099 13.9454 0.681868
O 6.13687 12.3472 0.824208
O 8.20087 16.3837 0.988117
O 8.00834 14.5037 2.86651
O 9.96799 10.3764 2.09774
O 6.89809 15.8524 4.92229
O 9.29872 11.9461 4.48776
Si 10.0759 13.1039 16.4584
Si 12.8664 8.57643 16.4755
Si 11.4351 15.4603 3.63343
Si 13.9075 10.7526 3.48047
Si 11.452 11.0103 1.6028
Si 14.0019 15.1104 1.83106
O 10.6004 14.3282 4.42627
O 13.4813 9.44375 4.34483
O 12.451 11.3515 2.95839
O 0.177774 15.8717 2.55743
O 11.9728 9.8874 0.648714
O 14.5514 13.5999 1.43174
O 11.1464 12.6083 1.1085
O 13.37 15.777 0.346441
O 12.8794 15.04 2.95535
O 14.8803 10.4827 2.23377
O 11.5491 16.7027 4.4961
O 14.407 11.8429 4.54722
Si 14.8548 4.38785 5.6044
Si 2.29742 0.228414 5.52715
Si 1.44964 6.54655 9.19779
Si 3.91196 2.25251 9.24733
Si 1.31879 2.29998 7.43538
Si 4.04612 6.49834 7.71095
O 1.33071 5.34195 10.3018
O 3.2501 1.19731 10.2495
O 2.84154 2.67029 7.8094
O 5.52527 7.15946 8.33506
O 1.1793 1.33268 6.10118
O 4.20033 5.40485 6.47758
O 0.431091 3.58011 6.85813
O 3.70066 7.96168 7.00023
O 2.92242 6.15809 8.90443
O 5.42841 1.60053 8.90925
O 1.30867 7.78095 10.2871
O 4.26857 3.59526 9.89034
Si 5.08163 4.42569 5.59314
Si 7.65172 17.0877 5.70687
Si 6.68455 6.69141 9.29404
Si 8.84219 2.05245 8.99047
Si 6.30047 1.96044 7.50191
Si 9.0326 6.34028 7.43608
O 6.34345 5.28826 10.0153
O 8.24696 0.890127 10.0445
O 7.94859 2.38732 7.84655
O 10.4493 6.87842 7.83434
O 6.47119 0.580682 6.74052
O 9.13499 4.91502 6.68491
O 5.54878 3.07997 6.47962
O 8.30548 7.38358 6.32051
O 8.05539 6.08685 8.61157
O 10.3385 1.75823 8.7005
O 6.94058 7.90116 10.3382
O 9.0333 3.455 9.85556
Si 10.1692 4.2189 5.72299
Si 12.2187 0.146276 5.69154
Si 11.3916 6.56767 9.08908
Si 13.9621 2.39565 9.04924
Si 11.4518 2.08953 7.51108
Si 13.8477 6.49615 7.48956
O 11.0269 5.09688 9.78262
O 13.2042 1.70824 10.2728
O 13.005 2.07381 7.89807
O 0.389044 6.51109 7.99475
O 10.9033 0.876785 6.45403
O 13.7838 5.66693 6.10229
O 11.1178 3.27355 6.47007
O 13.3718 8.1325 6.71845
O 12.8736 6.18322 8.65255
O 0.4463 1.91222 8.70289
O 11.3448 7.91611 9.88352
O 14.1662 3.75532 9.96979
Si 14.9628 13.0977 5.41876
Si 2.71413 8.43235 5.68056
Si 1.28453 15.285 9.15239
Si 3.92102 10.5691 9.1931
Si 1.31193 10.8197 7.16529
Si 3.7761 15.3493 7.20747
O 1.08121 13.9149 10.1605
O 3.6426 9.23223 10.2121
O 2.75141 10.9497 8.08606
O 5.18493 15.1218 7.78896
O 1.70203 9.4922 6.20115
O 3.66518 14.1266 5.96204
O 1.21122 12.2987 6.33274
O 3.1616 16.9127 6.92864
O 2.75609 14.9075 8.41852
O 5.25441 10.0526 8.30676
O 1.45915 16.5504 10.1608
O 4.67057 11.7406 10.061
Si 4.72789 13.0156 5.43123
Si 7.81177 8.53418 5.23281
Si 6.26653 15.061 9.03876
Si 8.87507 11.0619 9.26588
Si 6.32491 10.8741 7.2909
Si 8.95393 15.0119 7.44688
O 6.08493 13.881 10.106
O 8.91849 10.0077 10.481
O 7.48852 11.3945 8.45055
O 10.0109 15.1061 8.5749
O 6.85571 9.71105 6.19173
O 9.02753 13.9609 6.27884
O 5.56203 12.1725 6.66693
O 8.75889 16.4497 6.58067
O 7.51732 14.7557 8.04628
O 9.83993 10.6244 8.08834
O 6.25536 16.5206 9.91837
O 9.49546 12.522 9.8543
Si 10.0107 13.0982 5.30272
Si 12.5049 8.76232 5.51515
Si 11.4639 15.2598 9.56239
Si 13.7542 10.943 9.03543
Si 11.1894 11.0441 7.20957
Si 13.7368 15.2199 7.5023
O 11.1372 14.4519 10.7989
O 13.3261 9.4908 9.52539
O 12.5051 11.3991 8.26059
O 0.16676 15.8345 8.11124
O 11.7304 9.90678 6.23081
O 14.1524 13.9904 6.47859
O 11.1049 12.3461 6.27312
O 12.9342 16.2295 6.39166
O 12.772 14.4207 8.74793
O 14.965 10.6575 7.8768
O 12.0034 16.832 9.66939
O 14.0785 12.1651 10.0732
Si 0.170345 4.47798 11.0731
Si 2.28928 0.0658477 11.2661
Si 1.06835 6.5377 14.8655
Si 3.51985 2.06655 14.6318
Si 1.03651 2.45508 13.0621
Si 3.7561 6.85966 12.8581
O 0.751192 4.965 15.3632
O 3.21323 0.659896 15.2616
O 2.13406 2.78913 14.2266
O 5.24207 7.31807 13.5353
O 1.31676 0.99789 11.9982
O 4.12051 5.72808 11.6666
O 1.18398 3.35727 11.6998
O 2.92352 8.18682 12.357
O 2.67458 6.46218 13.9449
O 4.56941 1.74462 13.4635
O 1.42664 7.82473 15.8555
O 4.25936 2.93399 15.6047
Si 5.01372 4.64169 10.8445
Si 7.25532 17.3434 10.9238
Si 6.20072 6.50031 14.7467
Si 8.62948 2.28153 14.7109
Si 6.07236 2.31199 12.8692
Si 8.89264 6.46048 12.9081
O 5.28073 5.16947 15.1458
O 8.22819 1.36564 16.0773
O 7.16083 2.57074 14.0725
O 10.3821 6.40992 13.5519
O 6.67592 0.827372 12.2605
O 8.72665 5.34546 11.7406
O 5.97197 3.64117 11.9649
O 8.98915 7.81665 12.0321
O 7.6901 6.316 13.9276
O 9.73831 1.67972 13.7909
O 6.74118 7.2568 16.1236
O 9.60567 3.54634 15.169
Si 9.97228 4.3432 10.9473
Si 12.4006 0.505513 10.9917
Si 11.4049 6.39966 14.9203
Si 13.4844 2.26179 14.8914
Si 10.8469 2.38098 12.9462
Si 13.7516 6.65351 12.8105
O 11.3774 5.06235 15.7662
O 13.6623 0.856615 15.7789
O 12.3191 2.72851 13.7394
O 14.9411 7.16873 13.9475
O 11.1658 1.21462 11.8655
O 14.222 5.42107 12.0726
O 10.7613 3.78947 12.1584
O 13.4345 7.63152 11.5866
O 12.6269 6.44292 13.7706
O 14.7557 2.35028 14.0242
O 11.8361 7.45769 15.9833
O 13.5212 3.67725 15.8035
Si 14.8375 13.2856 10.8755
Si 2.17383 8.77266 11.1898
Si 1.17113 15.1211 14.7095
Si 3.6488 11.189 14.4254
Si 1.25838 11.1447 12.7701
Si 3.83658 15.1416 12.8544
O 0.487529 13.7175 15.2716
O 3.16105 9.75559 15.2276
O 2.72566 11.5217 13.1975
O 5.2721 15.3662 13.4679
O 1.29498 10.0927 11.5317
O 3.97059 13.9324 11.7575
O 0.404386 12.5403 12.2197
O 3.39142 16.5612 12.0116
O 2.68638 14.6412 14.0268
O 5.13043 10.7378 13.8301
O 1.38988 16.2969 15.8806
O 3.99448 12.2196 15.4406
Si 5.01738 12.9879 10.9836
Si 7.90274 8.72358 11.3062
Si 6.34115 15.325 14.8198
Si 8.98152 10.594 14.7359
Si 6.46133 11.0171 13.0188
Si 8.79878 15.2671 12.9356
O 5.60302 14.0828 15.5669
O 8.36475 9.35836 15.536
O 7.62046 11.2484 14.0551
O 10.1019 15.8197 13.8464
O 6.73748 9.79793 11.7484
O 8.97242 14.0417 11.8727
O 5.85403 12.2692 12.1174
O 7.88794 16.19 11.8817
O 7.92385 14.987 14.3076
O 10.1502 10.2133 13.841
O 6.36487 16.8023 15.4648
O 9.40854 11.6434 15.8474
Si 10.1144 13.2558 11.0848
Si 12.5096 8.75085 10.8388
Si 11.5958 15.4111 14.5532
Si 13.8373 10.756 14.7844
Si 11.246 10.8954 12.8409
Si 13.8991 15.4445 12.6431
O 11.1689 14.0322 15.4544
O 13.6921 9.16234 15.1861
O 12.6188 11.2919 13.8278
O 0.3131 15.7024 13.4039
O 11.9277 9.64977 12.0853
O 14.0399 14.5814 11.3031
O 11.1582 12.2536 11.7338
O 13.1819 16.9911 12.2832
O 12.8277 15.0021 13.8203
O 0.131891 10.7102 13.7646
O 11.6737 16.9069 15.2397
O 13.9992 11.7064 16.0022
324
 Atoms. Timestep: 24500
Si 14.806 4.29459 16.3642
Si 2.24507 17.2265 16.3486
Si 1.36315 6.48661 3.6631
Si 3.6693 2.54185 4.01789
Si 1.24578 2.31121 2.00932
Si 3.77992 6.3436 1.70317
O 1.05205 5.30563 4.88821
O 3.81162 0.890346 4.76512
O 2.40391 2.86934 3.00193
O 5.00423 6.00728 2.80027
O 1.72311 1.05482 0.957741
O 4.10324 5.03748 0.651971
O 0.28155 3.22204 1.08915
O 3.64981 7.80803 1.12485
O 2.20081 6.02085 2.44399
O 4.70846 2.21232 2.52322
O 1.97311 7.7836 4.2109
O 3.67124 3.81038 4.86345
Si 5.11937 3.93375 16.2686
Si 7.62141 -0.0110222 0.237789
Si 6.30659 6.27843 3.67239
Si 8.48773 2.12549 3.97749
Si 6.34305 2.3143 2.12059
Si 8.65726 6.42617 1.76526
O 6.17879 5.23202 4.87171
O 7.96695 0.72403 4.69053
O 7.31994 2.98548 3.13805
O 9.61708 6.9525 3.13241
O 6.92043 0.804643 1.55851
O 9.48042 5.36293 0.679296
O 6.29845 3.42247 0.863595
O 8.37034 7.76223 0.805903
O 7.4212 5.70949 2.51322
O 9.59273 1.82571 2.85688
O 6.75194 7.79353 4.18153
O 9.21578 3.23109 5.0142
Si 10.1602 4.11475 16.3819
Si 12.2256 0.189868 0.15044
Si 10.9392 6.53769 3.94302
Si 13.6616 2.13994 3.90232
Si 10.9774 1.96183 2.02875
Si 13.7241 6.66215 2.05611
O 10.973 5.25982 4.75308
O 13.6913 0.537682 4.59459
O 12.1694 2.17467 3.16238
O 14.7537 6.8562 3.36517
O 11.0906 0.531891 1.34775
O 14.1377 5.58954 0.882363
O 10.9835 3.00651 0.878766
O 13.3757 8.18328 1.46435
O 12.2942 6.23233 2.91857
O -0.00186212 1.68157 2.90534
O 11.3199 7.79658 5.18451
O 14.2925 3.23668 5.00227
Si 14.909 12.8122 0.0996065
Si 2.64248 8.51718 0.094105
Si 1.74673 15.3187 3.52682
Si 3.67238 10.9229 3.63885
Si 1.0945 10.8491 1.75886
Si 4.1015 15.1854 1.6806
O 1.28932 13.951 4.06532
O 3.64578 9.73633 4.69902
O 2.01517 11.1507 2.99544
O 5.57944 15.6431 2.26119
O 1.46421 9.34796 1.08657
O 4.37447 13.6776 1.1634
O 1.23549 12.0979 0.718377
O 3.39439 16.257 0.629367
O 3.03242 15.0801 2.83332
O 4.69997 10.4272 2.37518
O 1.56862 16.5819 4.62527
O 4.1138 12.4497 4.0172
Si 5.36841 12.9502 16.4593
Si 7.32006 8.53462 16.34
Si 6.432 15.0849 3.63281
Si 8.81268 10.7247 3.59155
Si 6.18169 10.6825 1.87913
Si 8.92874 15.0559 1.80988
O 6.26333 13.6252 4.3172
O 8.72863 9.32636 4.34303
O 7.29582 10.8798 2.96707
O 10.4766 15.132 2.22538
O 6.42512 9.29109 1.00829
O 8.72228 13.5887 1.18506
O 6.34665 11.9508 0.729778
O 8.21904 15.9235 0.673904
O 7.93715 15.2784 3.19641
O 9.69367 10.6063 2.31517
O 5.95116 16.1516 4.77553
O 8.98606 11.9916 4.59987
Si 9.9707 12.8673 16.4025
Si 12.5714 8.70215 0.261076
Si 11.4499 15.1114 3.55629
Si 13.8163 10.7357 3.78169
Si 11.1957 11.0749 1.98343
Si 14.0801 15.3492 1.95068
O 10.4682 13.9493 4.43788
O 13.5844 9.33556 4.43915
O 12.2898 11.1707 3.22052
O 0.524097 15.8394 2.47456
O 11.5368 9.99365 0.886428
O 14.1646 14.0526 0.835993
O 11.0006 12.5794 1.25595
O 13.2909 16.4288 1.02483
O 13.086 14.7327 3.07377
O 14.5336 10.8375 2.291
O 11.2834 16.3764 4.65899
O 14.3099 11.7059 4.81157
Si 15.0646 4.44998 5.82902
Si 2.6044 0.122079 5.64005
Si 1.55793 6.91015 9.21326
Si 3.91342 2.36784 9.54867
Si 1.41832 2.39928 7.69135
Si 4.11629 6.70142 7.48
O 1.13997 5.48351 10.0988
O 3.28446 0.993299 10.1554
O 2.65609 3.15699 8.6529
O 5.62377 7.13369 8.10263
O 1.78356 1.21819 6.61605
O 4.01331 5.14337 6.67779
O 0.924905 3.83607 7.08769
O 3.71183 7.6835 6.41955
O 3.0286 6.65451 8.84995
O 5.11331 1.82497 8.32153
O 1.18862 8.30737 10.2044
O 4.91717 3.66197 9.86051
Si 5.05655 4.28698 5.72454
Si 7.13612 16.9975 5.49321
Si 6.62119 6.99428 9.48575
Si 8.77657 2.30998 9.28021
Si 6.34451 2.12981 7.45253
Si 9.02479 6.60721 7.45594
O 6.22404 5.70939 10.3458
O 8.61154 0.986482 10.2041
O 7.67666 2.81168 8.2532
O 10.3682 6.9291 8.2368
O 6.49176 0.571466 6.87878
O 8.75389 5.21082 6.55292
O 5.91422 3.0602 5.97613
O 8.36423 7.81735 6.40132
O 8.08019 6.49646 8.86821
O 10.3479 2.13326 8.90197
O 6.57885 8.25717 10.6441
O 8.62328 3.55351 10.3199
Si 10.0217 4.47977 5.70085
Si 12.4871 17.2173 5.60309
Si 11.6238 6.46872 9.31396
Si 13.9932 2.32446 9.46493
Si 11.4404 2.21273 7.53421
Si 14.0534 6.8797 7.41109
O 10.8806 5.1502 9.85397
O 13.6516 1.26694 10.6183
O 12.8513 2.29557 8.32831
O 0.729204 7.04562 7.86738
O 11.4025 0.854477 6.57311
O 14.0286 5.57883 6.37228
O 10.9964 3.73673 6.92712
O 13.5722 8.30122 6.64575
O 13.1097 6.14178 8.74738
O 0.442515 1.77061 8.84863
O 11.5647 7.64293 10.6167
O 13.8842 3.88249 9.94211
Si 0.431089 13.0864 5.13949
Si 2.65695 8.54932 5.59745
Si 1.35437 15.1803 9.00387
Si 4.07585 10.8338 8.9813
Si 1.54994 11.2158 7.23434
Si 4.03415 15.1947 7.36061
O 0.427694 13.9342 9.80567
O 3.70354 9.47745 9.94568
O 2.9418 11.5626 7.99193
O 5.47007 15.7728 8.04622
O 1.64 9.5198 6.45774
O 4.22 13.9565 6.06721
O 1.40653 12.397 6.23566
O 3.63637 16.6501 6.81502
O 2.83507 14.8234 8.29238
O 5.62441 10.6802 8.55412
O 1.31826 16.3845 10.0182
O 3.95777 12.0923 10.0856
Si 5.12282 12.8628 5.19713
Si 7.61858 8.67605 5.29194
Si 6.42129 15.2718 9.41323
Si 8.8527 10.8864 8.82152
Si 6.47008 10.7348 7.11647
Si 8.8329 15.2155 7.28621
O 6.01672 13.8297 9.81398
O 8.57298 9.76988 9.89755
O 7.93711 11.1916 7.52525
O 10.5648 15.64 7.63331
O 6.53585 9.32734 6.31118
O 8.83344 13.6583 6.5624
O 5.73059 11.8067 6.18404
O 8.14264 15.9581 6.0467
O 8.02267 15.4921 8.63128
O 10.4939 10.7191 8.34132
O 6.40175 16.3927 10.4063
O 8.7816 12.1772 9.8155
Si 10.0739 12.9579 5.53539
Si 12.48 8.80387 5.46354
Si 11.5956 15.151 8.7888
Si 14.0039 10.8958 9.28917
Si 11.5701 11.2943 7.3038
Si 14.0461 15.001 7.19229
O 10.8201 14.1114 9.88629
O 13.5994 9.39764 9.75707
O 12.9817 11.4345 8.12958
O 0.494144 15.7649 7.7175
O 11.565 10.1978 6.11149
O 14.2744 13.9494 6.08368
O 11.3712 12.7333 6.55465
O 13.2483 15.8891 6.15984
O 13.1132 14.437 8.42762
O 0.487561 10.8269 8.41792
O 11.9495 16.5876 9.65295
O 13.863 11.9447 10.7141
Si 0.0332482 4.5726 10.8464
Si 2.37143 17.1052 11.0574
Si 1.62066 6.22279 14.5861
Si 3.36442 2.00462 14.3817
Si 0.828564 2.06791 12.6058
Si 3.69721 6.52676 12.771
O 0.877733 5.22529 15.5526
O 2.92506 0.487098 14.9385
O 1.88719 2.68929 13.8623
O 5.11201 6.96169 13.1828
O 1.35408 0.807102 11.8788
O 3.89517 5.5474 11.3997
O 0.780704 3.24618 11.6295
O 3.08005 8.05596 12.2492
O 3.02221 5.76091 13.8712
O 4.54402 1.7407 13.2498
O 1.97646 7.55986 15.3044
O 4.16813 2.67545 15.6376
Si 5.2209 4.6056 10.9686
Si 7.45524 0.211659 11.0012
Si 6.21321 6.30215 14.399
Si 8.5974 2.1058 14.8625
Si 6.2269 2.30166 12.9541
Si 8.97656 6.71528 13.053
O 5.67208 4.88903 14.7835
O 8.81625 1.01105 16.0118
O 6.99898 2.00078 14.4332
O 10.4148 6.98546 13.6596
O 6.82909 1.48355 11.6741
O 9.29345 5.57712 11.897
O 6.03727 3.74547 12.2058
O 8.73679 8.15313 12.4206
O 7.82727 5.88619 13.8225
O 9.38219 1.65252 13.6015
O 6.43449 7.4254 15.505
O 8.91814 3.50961 15.6221
Si 9.92722 4.40128 10.9623
Si 12.3965 0.167826 11.0432
Si 11.5581 6.47403 14.7627
Si 13.1368 2.19111 14.6177
Si 10.7156 2.09283 12.6404
Si 13.9264 6.73082 12.8955
O 11.0432 5.07416 15.2763
O 13.2485 1.16786 15.7798
O 11.8676 2.17265 13.8907
O 0.556247 6.39263 13.3943
O 11.0696 0.928598 11.5812
O 13.7487 5.55428 11.625
O 10.7076 3.44704 11.9561
O 13.7631 8.18558 12.2555
O 13.1071 6.64359 14.3664
O 14.2505 1.95508 13.3579
O 11.3974 7.50672 16.1187
O 13.7243 3.54172 15.479
Si 14.7785 13.1464 11.2257
Si 2.46884 8.94324 11.0541
Si 1.14139 14.857 14.646
Si 3.90626 10.8719 14.7451
Si 1.36664 11.2742 13.0454
Si 3.79432 15.0901 12.7688
O 0.684552 13.4141 15.205
O 3.75355 9.53515 15.7479
O 2.45068 11.448 14.2159
O 4.9522 15.536 13.8033
O 1.94042 10.2338 11.9038
O 4.11511 13.7341 12.0161
O 1.09626 12.827 12.3705
O 3.60031 16.1945 11.64
O 2.58833 14.7746 13.9164
O 4.93705 10.2009 13.7237
O 1.06304 16.1118 15.9353
O 4.28131 12.2918 15.3791
Si 4.97509 13.0454 10.9043
Si 7.85101 8.98437 11.3332
Si 6.18423 15.4688 14.8129
Si 8.71567 10.7891 14.5977
Si 6.1992 10.9924 12.973
Si 8.66027 15.1953 12.7605
O 6.00287 14.0773 15.6371
O 8.26165 9.3432 15.1714
O 7.17713 11.6043 14.2783
O 9.99009 15.8686 13.7288
O 7.05731 10.0117 12.2344
O 8.7275 13.9461 11.5692
O 5.91443 12.0873 11.7824
O 8.44462 16.4682 11.8992
O 7.34073 15.1701 13.7769
O 9.68102 10.5997 13.3937
O 6.35726 16.8309 15.6267
O 9.43595 11.5562 15.7616
Si 10.0073 13.2043 10.8188
Si 12.738 8.73063 11.1951
Si 11.1371 15.2605 14.6748
Si 13.6183 10.7949 14.8536
Si 11.2251 10.9723 12.7693
Si 13.5582 15.3273 12.898
O 10.093 14.0064 15.2452
O 13.3556 9.32725 15.4579
O 12.2512 11.1357 13.9646
O 0.0944723 15.2614 13.363
O 11.6653 9.86685 11.7619
O 13.616 14.1993 11.7352
O 11.0874 12.4893 11.7888
O 13.0108 16.6975 12.3597
O 12.649 14.6386 14.1897
O 14.7219 10.8514 13.5588
O 11.4425 16.6454 15.3751
O 13.8058 11.709 16.0557
324
 Atoms. Timestep: 25000
Si 0.251464 4.23848 16.2058
Si 2.54049 17.2061 16.3977
Si 1.42028 6.14888 3.62502
Si 3.39058 2.42029 3.66851
Si 1.14378 1.95008 1.91667
Si 3.79461 6.49332 1.89574
O 1.18191 5.33768 5.00037
O 3.24652 1.09545 4.4904
O 2.05619 2.82343 2.92369
O 5.04686 6.89591 2.85449
O 1.57651 0.69189 1.19109
O 4.34595 5.26143 1.09087
O 0.591562 3.02501 0.91958
O 3.48668 7.85367 1.17075
O 2.58352 5.68941 2.59654
O 4.60485 2.0376 2.51323
O 2.0459 7.68837 3.99312
O 4.04647 3.70109 4.39352
Si 5.14162 4.32924 16.4002
Si 7.60004 0.258446 16.3289
Si 6.22276 6.6097 3.78653
Si 8.67046 2.58705 3.78397
Si 6.06813 2.21639 1.99871
Si 8.68093 6.60216 1.88322
O 6.4047 5.07126 4.43993
O 8.91494 1.006 4.27076
O 7.19564 2.78805 2.93887
O 10.0353 7.25525 2.79145
O 7.01675 1.09398 1.21636
O 9.14552 5.16077 1.25663
O 5.95017 3.3173 0.76463
O 8.68264 7.67317 0.683814
O 7.49318 6.31653 2.83712
O 9.99749 2.8434 2.89005
O 6.39641 7.60232 5.05795
O 8.81469 3.33601 5.39265
Si 9.9998 4.46442 0.117533
Si 12.4281 0.0906935 0.340167
Si 11.2158 6.36305 3.54487
Si 13.7178 2.2558 3.67257
Si 11.3382 2.7956 1.94257
Si 13.7913 6.42906 1.80285
O 10.3817 5.26875 4.50903
O 13.2925 1.26014 4.86929
O 12.4438 3.031 3.07638
O 14.7955 6.44151 3.02414
O 11.4967 1.3596 1.13538
O 14.0098 5.20065 0.702163
O 11.5437 4.00809 0.851298
O 13.3583 7.86103 0.97686
O 12.4218 5.96111 2.58262
O 14.5802 1.53142 2.62784
O 11.8806 7.5561 4.6102
O 14.5159 3.64098 4.08861
Si 14.6343 12.8826 16.4279
Si 2.71287 8.75146 0.0242662
Si 1.54156 15.2129 3.93121
Si 3.63029 10.959 3.70059
Si 0.990727 10.8486 1.74889
Si 4.01666 15.1784 1.90543
O 1.64493 13.8047 5.03541
O 3.51565 9.75409 4.6683
O 1.9784 10.9512 3.05706
O 5.54117 15.2847 2.30665
O 1.54033 9.53151 0.879786
O 3.90381 13.8583 0.991858
O 1.00583 12.121 0.698789
O 3.69478 16.4729 1.07491
O 3.0018 15.2375 3.37829
O 4.5661 10.3577 2.4036
O 1.32073 16.4408 5.01088
O 4.51089 12.2553 4.27701
Si 5.01774 12.9794 16.3838
Si 7.48817 8.5555 16.3968
Si 6.43376 15.5189 3.60503
Si 8.47876 10.8922 4.00692
Si 6.11633 10.7735 2.03871
Si 8.99468 15.2384 2.05945
O 5.99262 14.4248 4.80971
O 8.48986 9.38705 4.6384
O 6.88334 10.8948 3.43645
O 10.4878 15.3168 2.54191
O 6.89376 9.58029 1.19117
O 8.71812 13.659 1.36165
O 5.84976 12.3643 1.24269
O 8.43944 16.3047 0.834181
O 8.02793 15.2687 3.27575
O 9.52993 10.5858 2.79899
O 6.67343 17.1188 4.25517
O 8.78123 12.3061 4.68054
Si 9.90764 12.784 0.465794
Si 12.4152 8.75897 0.197047
Si 11.4653 14.941 3.81302
Si 13.7046 10.531 3.73886
Si 11.0462 10.6871 2.25004
Si 13.9057 15.1122 2.12229
O 10.9315 13.9654 4.84511
O 13.9672 9.14095 4.63651
O 12.1743 10.5479 3.4321
O 0.503207 15.3088 2.70803
O 11.2276 9.22498 1.23562
O 13.7988 13.852 1.0494
O 11.1058 12.128 1.42222
O 13.4231 16.4609 1.37561
O 12.9027 14.4863 3.32666
O 14.2541 10.517 2.1141
O 11.6096 16.2383 4.55841
O 14.3343 12.1693 4.26782
Si 14.9679 4.36861 5.5361
Si 2.45256 0.139005 5.60431
Si 1.4372 6.64638 9.1578
Si 4.05521 2.16022 9.21899
Si 1.42562 2.31704 7.49771
Si 3.92125 6.62311 7.29664
O 0.895837 5.23661 9.94873
O 3.43321 0.954299 10.1168
O 2.80848 2.69896 8.35558
O 5.19988 7.08863 8.18577
O 1.71973 1.0049 6.67565
O 4.40581 5.21701 6.52768
O 0.655313 3.38471 6.6549
O 3.62758 7.86168 6.33686
O 2.79982 6.2463 8.43424
O 5.18411 1.35161 8.3229
O 1.86977 7.94367 9.99118
O 4.82776 3.29964 10.0387
Si 5.12556 4.27331 5.40092
Si 7.89555 0.299231 5.27044
Si 6.45864 6.93292 9.41649
Si 8.67004 2.41985 8.9489
Si 6.36142 2.06113 7.45305
Si 9.10545 6.85437 7.65947
O 5.95254 5.51325 10.0031
O 8.08036 1.13217 9.99737
O 7.2908 3.17823 8.36508
O 10.6677 7.2144 8.0833
O 7.59601 1.34586 6.52792
O 9.14086 5.25081 7.03245
O 5.5161 2.89787 6.30125
O 8.44025 7.87157 6.59261
O 8.06136 6.85726 8.99337
O 9.74542 2.20547 7.85004
O 6.41119 8.14808 10.4754
O 9.43331 3.06174 10.4655
Si 9.92449 4.56917 5.7327
Si 12.4889 17.1976 5.52505
Si 11.6402 6.39894 9.27304
Si 13.6518 1.98511 9.12999
Si 11.1507 2.21745 7.1418
Si 13.994 6.50932 7.20996
O 10.6993 5.25081 9.67112
O 13.3767 0.849992 10.3419
O 12.3078 1.79892 8.28746
O 0.617561 6.99854 7.74753
O 11.3965 1.03806 6.07249
O 13.7558 5.23063 6.20776
O 11.4407 3.77547 6.45624
O 13.7964 7.89876 6.57055
O 13.0593 6.14756 8.5811
O 0.35903 1.82516 8.6382
O 11.5897 7.42102 10.4934
O 13.7007 3.46006 9.89174
Si 0.231625 12.8452 5.49078
Si 2.74358 8.41611 5.21173
Si 1.48025 15.0291 9.02691
Si 4.23129 10.8855 9.26184
Si 1.69744 10.6233 7.30407
Si 4.03715 15.1715 7.24846
O 0.899417 13.9684 10.1351
O 3.81471 9.81584 10.261
O 3.0015 10.8312 8.14002
O 5.391 15.6146 8.09753
O 1.57425 9.34679 6.27722
O 4.20796 13.5513 6.39995
O 0.766058 11.8109 6.58683
O 3.4942 16.3964 6.33539
O 2.72659 14.5979 8.02362
O 5.89415 10.9056 8.71458
O 1.7966 16.3858 9.80299
O 4.2699 12.3178 10.0772
Si 5.30038 13.0349 5.45413
Si 7.40224 8.62149 5.68961
Si 6.54477 15.3544 9.51216
Si 9.11646 10.8198 9.03792
Si 6.80861 10.9445 7.22799
Si 8.79577 15.094 7.38351
O 5.985 13.9827 10.2523
O 8.61755 9.68414 9.91748
O 8.48212 10.8096 7.45258
O 10.3179 15.811 7.80396
O 6.25722 9.63488 6.33089
O 8.98906 13.6694 6.66816
O 6.49712 12.3672 6.34533
O 8.34553 16.1366 6.09038
O 7.9103 15.1947 8.64892
O 10.8062 10.6987 8.73527
O 6.09876 16.5281 10.4791
O 8.57914 12.0719 10.021
Si 9.96029 12.8877 5.59266
Si 12.7763 8.48544 5.49863
Si 11.1893 15.0198 8.94977
Si 14.2692 10.5588 9.26943
Si 11.7766 10.8443 7.38122
Si 13.6083 14.9846 7.27765
O 10.376 13.8729 9.5622
O 13.5455 9.18578 9.87041
O 13.3381 10.9903 7.93536
O 0.163459 15.1144 7.98631
O 11.6451 9.446 6.37334
O 13.5181 13.7711 6.04855
O 10.9399 12.0844 6.58834
O 13.1625 16.2781 6.65807
O 12.5788 14.4946 8.37404
O 0.847321 10.0934 8.65264
O 11.3517 16.4649 9.80378
O 14.3906 11.6844 10.4875
Si 14.5694 4.4964 10.7874
Si 2.28482 0.141992 11.0196
Si 1.51062 6.66461 14.5368
Si 3.47396 2.36837 14.6984
Si 1.01737 2.2686 12.829
Si 4.11523 6.65704 12.7594
O 1.30227 5.59139 15.8218
O 3.15219 0.878132 15.2792
O 2.04962 2.73276 13.8714
O 5.50907 6.94863 13.3484
O 1.2926 1.2577 11.6384
O 3.87651 5.52242 11.6072
O 0.664577 3.72947 12.0921
O 3.55371 8.10496 12.1408
O 3.10478 6.38979 14.0978
O 4.60803 2.00609 13.6289
O 1.66368 8.11763 15.3395
O 4.07739 3.69819 15.4733
Si 5.22477 4.47246 11.0089
Si 7.3258 0.345869 11.105
Si 6.54059 6.44436 14.6105
Si 8.54435 2.50156 14.5945
Si 6.05031 2.3959 12.9917
Si 9.17332 6.69705 12.6584
O 6.15825 5.05118 15.1614
O 8.68027 0.873206 14.9909
O 6.88091 2.76996 14.2719
O 10.4001 7.53624 13.4053
O 6.41371 1.59878 11.6389
O 9.71842 5.27111 12.0511
O 5.9582 3.78323 12.1731
O 8.50632 7.77077 11.6693
O 7.98002 6.28649 13.6809
O 9.40943 2.85973 13.1625
O 6.24902 7.81532 15.7435
O 9.17678 3.16379 15.9692
Si 10.2752 4.3291 10.9133
Si 12.1792 17.0793 11.1557
Si 11.1501 6.5525 14.6652
Si 13.523 2.04898 14.6494
Si 11.0833 2.26202 12.9188
Si 13.5591 6.56191 13.0416
O 10.2748 5.47165 15.1914
O 13.443 1.01836 15.9252
O 11.9233 2.4525 14.3209
O 0.251831 7.05935 13.6587
O 11.4723 0.868458 12.097
O 13.6467 5.36899 11.7929
O 11.5831 3.47554 11.7405
O 13.2779 7.85903 12.1672
O 12.4942 5.86286 14.1065
O 14.5931 1.37931 13.6002
O 11.5417 7.69674 15.6717
O 14.3843 3.53379 14.9761
Si 0.297769 12.9143 11.2481
Si 2.64622 8.87877 10.9638
Si 0.998121 15.2128 14.6516
Si 3.96229 10.7267 14.5782
Si 1.3205 10.8229 12.877
Si 3.81317 15.3348 12.9954
O 0.510185 13.9856 15.4798
O 3.89048 9.42802 15.466
O 2.37573 11.204 14.1302
O 5.14131 15.4874 13.7713
O 1.396 9.57664 11.765
O 3.92243 13.9216 12.1217
O 1.39884 12.2374 12.2088
O 3.30393 16.7726 12.2217
O 2.46379 15.1604 13.9089
O 4.83112 10.398 13.1262
O 1.33453 16.1448 15.9748
O 4.11311 12.2389 15.3347
Si 5.12497 13.2006 11.2501
Si 7.66004 8.97012 11.1312
Si 6.50414 15.2463 14.6866
Si 8.56039 10.701 14.8146
Si 6.2764 11.1048 12.9164
Si 8.97662 15.4072 12.6876
O 6.04792 14.0614 15.7337
O 8.3059 9.14099 15.174
O 7.10601 11.291 14.2754
O 10.3704 15.6008 13.5664
O 6.95069 9.99153 12.0383
O 8.68071 14.4206 11.4198
O 6.28803 12.5927 12.1845
O 8.47821 16.6941 11.9338
O 7.66169 15.1352 13.7167
O 9.69978 10.6672 13.6292
O 6.45125 16.6464 15.4449
O 9.05625 11.6056 16.1124
Si 9.67176 13.3158 10.7096
Si 12.3844 8.69283 10.9424
Si 11.1364 14.8404 14.8524
Si 13.4719 10.923 14.3921
Si 11.0373 11.0074 12.5837
Si 13.4627 14.8642 12.9437
O 9.95807 13.853 15.4719
O 12.8221 9.90532 15.5086
O 12.2104 11.43 13.5548
O 14.6956 15.6688 13.4688
O 11.3218 9.71247 11.4859
O 14.1589 13.9298 11.9968
O 10.3475 12.3388 11.8291
O 12.7064 15.8711 11.8561
O 12.5493 14.1961 14.1942
O 14.6552 10.4982 13.2988
O 11.6602 16.306 15.685
O 13.8163 11.9011 15.502
324
 Atoms. Timestep: 25500
Si 0.185973 4.1331 16.4019
Si 2.97075 0.0779611 16.3698
Si 1.41085 6.59959 3.78105
Si 3.65615 2.14092 3.55672
Si 1.20533 1.99498 1.84254
Si 3.84746 6.32503 2.02769
O 1.42318 5.49008 5.10418
O 3.41737 0.950841 4.62747
O 2.26489 2.52498 3.04724
O 4.82842 7.40991 3.09758
O 1.85011 0.694344 0.981922
O 4.79792 5.45852 1.1095
O 1.27902 3.26681 0.903075
O 3.29391 7.5044 0.997605
O 2.75455 5.70267 3.01245
O 4.48454 1.64116 2.06588
O 1.80046 8.17269 4.13399
O 4.59198 3.32299 3.99981
Si 5.32199 4.45114 16.3705
Si 7.5882 17.199 0.134098
Si 6.1597 6.90522 3.84011
Si 8.59356 2.30234 3.44482
Si 6.05566 1.89784 1.96183
Si 8.8805 6.78684 2.04885
O 6.14953 5.34572 4.12159
O 8.78933 1.06188 4.54444
O 6.99649 2.56044 3.10454
O 10.0576 7.10776 3.11261
O 7.18271 1.09084 1.17969
O 9.3327 5.23162 1.52244
O 5.78411 3.23957 0.798836
O 8.54769 7.8457 0.817293
O 7.33014 6.73514 2.5852
O 9.59256 2.07677 2.26938
O 6.14125 7.5476 5.40268
O 9.0828 3.60838 4.17798
Si 9.91808 4.3733 0.196177
Si 12.7938 0.054163 0.421456
Si 11.5321 6.64067 3.64681
Si 13.5295 2.63401 3.61267
Si 11.2045 2.40119 1.88918
Si 13.9415 6.27911 1.75495
O 11.1863 5.48764 4.67321
O 13.2167 1.52011 4.88598
O 11.8854 2.94804 3.18601
O 0.32818 6.71733 2.65287
O 11.7288 1.01729 1.30773
O 13.939 4.84016 0.994474
O 11.1848 3.65069 0.776244
O 13.7365 7.64526 0.539219
O 12.7411 5.98042 2.71604
O 14.5741 2.25553 2.5491
O 11.9325 8.07016 4.38843
O 14.347 3.90743 4.29816
Si 14.7958 13.1436 16.3992
Si 2.42142 8.56127 0.110892
Si 1.31018 14.8723 3.6823
Si 3.92511 11.16 3.83871
Si 1.29939 10.9631 1.91501
Si 4.12186 14.8964 1.85714
O 0.901521 14.0054 4.98156
O 3.72526 9.77978 4.91399
O 2.36864 11.3415 3.19624
O 5.37701 15.7105 2.57321
O 1.97952 9.83357 1.00252
O 4.17839 13.3581 1.4388
O 0.964047 12.339 0.95791
O 3.49413 16.0845 0.855969
O 2.80399 14.5642 3.22601
O 5.02438 10.7791 2.70954
O 1.41192 16.4088 4.18049
O 4.39918 12.2572 4.67144
Si 4.78579 12.9337 16.3543
Si 7.40505 8.62788 16.3016
Si 6.4538 15.3698 3.73978
Si 8.67964 10.7144 3.74748
Si 6.39358 10.962 1.80235
Si 8.96309 15.0125 2.11083
O 5.87765 14.3332 4.78803
O 7.86743 9.43271 4.49618
O 7.20513 11.5263 3.23685
O 10.5962 15.4254 2.44159
O 6.8923 9.76144 1.00901
O 9.14545 13.6707 1.3172
O 6.13443 12.0185 0.358004
O 8.55748 16.1206 0.84665
O 8.05242 14.9125 3.28882
O 9.9596 10.543 2.57441
O 6.66748 16.6623 4.66371
O 9.4996 11.9286 4.5191
Si 10.0425 13.0037 0.178535
Si 12.5216 8.50346 0.138571
Si 11.6004 15.2791 3.85287
Si 13.8255 10.9391 3.9142
Si 11.4914 10.8227 2.0973
Si 13.7374 14.7597 1.98845
O 10.7792 14.3868 4.94157
O 13.5772 9.60902 4.81507
O 12.5398 11.2825 3.11014
O 0.212132 14.9434 2.53177
O 12.0423 9.42575 1.36932
O 13.503 13.6608 0.837717
O 11.2963 12.0107 0.980807
O 13.3974 16.155 1.34604
O 12.9056 14.4306 3.51638
O 14.9825 10.7749 2.78395
O 11.78 16.7912 4.27986
O 13.9687 12.2471 4.8206
Si 0.23053 4.40231 5.55875
Si 2.32208 17.151 5.21426
Si 1.71371 5.75325 9.37983
Si 3.75121 2.01623 9.295
Si 1.27288 1.94608 7.41631
Si 4.02149 6.22191 7.25999
O 1.16928 4.44746 10.0576
O 3.43793 0.601211 9.89041
O 2.52207 2.24302 8.37859
O 5.35719 6.88104 7.79535
O 1.22718 0.704812 6.20452
O 4.19134 4.95667 6.14726
O 0.859682 3.0682 6.23306
O 3.2258 7.6336 6.55409
O 2.97537 5.69148 8.41139
O 4.91284 1.96421 8.03354
O 1.73664 7.16121 10.1079
O 3.89364 3.17013 10.4892
Si 5.43773 4.30764 5.1438
Si 7.86276 0.199005 5.60978
Si 6.30961 6.48541 9.03169
Si 8.54265 2.37778 9.09141
Si 6.31204 2.1787 7.25785
Si 9.14461 6.60047 7.39902
O 5.63215 5.37567 9.85861
O 8.43044 0.946931 10.0745
O 7.2677 3.0011 8.18859
O 10.5584 6.8829 8.08861
O 7.25781 0.961229 6.73412
O 9.25685 5.41151 6.2824
O 6.45241 3.18151 5.93937
O 8.77976 7.90462 6.56593
O 7.74677 6.05806 8.49056
O 9.85329 2.31554 8.3018
O 6.13232 8.04439 9.8391
O 9.04249 3.32965 10.4584
Si 9.9883 4.38729 5.37192
Si 12.5352 0.355087 5.62364
Si 11.5125 6.42082 9.40797
Si 13.7256 2.27259 9.19614
Si 11.2623 2.21914 7.3834
Si 14.0154 6.31608 7.48968
O 10.803 5.16148 9.97729
O 13.0222 1.28552 10.2268
O 12.637 2.69935 7.91605
O 0.630714 6.33857 8.11838
O 11.586 0.799942 6.72212
O 13.9285 5.09789 6.32135
O 11.0454 3.1909 6.06141
O 13.7011 7.84219 6.84797
O 13.0748 6.24246 8.79862
O 15.0089 1.52233 8.37828
O 11.598 7.55576 10.5777
O 13.9595 3.55824 10.148
Si 14.8043 13.0691 5.85571
Si 2.72512 8.72693 5.43424
Si 1.29621 15.0996 9.50525
Si 3.71742 10.8346 9.22571
Si 1.3608 10.8004 7.44402
Si 3.6154 15.2297 7.43269
O 1.12325 13.525 9.92568
O 3.1865 9.32351 9.5073
O 2.86788 11.1139 7.87194
O 5.03539 15.7861 7.89154
O 1.31782 9.66882 6.38248
O 3.78345 13.6118 6.75643
O 0.76696 12.2268 6.98273
O 3.22481 16.03 6.02229
O 2.72154 15.0079 8.82284
O 5.30015 11.1104 8.75456
O 1.44885 16.2833 10.739
O 3.65434 12.0243 10.2877
Si 4.96943 13.3005 5.63678
Si 7.4343 8.63361 5.8653
Si 6.23797 15.2866 8.99059
Si 8.77103 10.8116 9.31444
Si 6.25622 11.0092 7.44688
Si 8.74412 15.0904 7.07308
O 5.7783 13.7832 9.44554
O 8.48808 9.46369 9.95274
O 7.70571 11.2453 8.144
O 9.75155 15.7303 8.1892
O 6.37812 9.55008 6.61149
O 8.77288 13.4873 6.48033
O 6.03504 12.0352 6.26861
O 8.96432 16.3154 5.86693
O 7.31361 14.8796 7.73998
O 10.1559 10.5434 8.19639
O 6.50851 16.2569 10.2673
O 9.02064 11.7434 10.5391
Si 10.1526 12.9978 5.61496
Si 12.7636 8.7519 5.7578
Si 10.9462 15.4358 9.23049
Si 13.8628 10.6351 9.23034
Si 11.3608 10.8962 7.28844
Si 13.7667 15.5391 7.47035
O 10.6081 14.1844 10.0774
O 13.2879 9.46822 10.085
O 12.7933 10.7259 8.09539
O 0.143494 15.8108 8.59302
O 11.6422 9.60742 6.35992
O 13.9416 14.0423 6.86811
O 11.2229 12.4182 6.70112
O 13.5308 16.4728 6.28237
O 12.5502 15.2846 8.68286
O 0.375031 10.4778 8.64728
O 11.2069 16.7111 10.1611
O 13.909 11.8954 10.2921
Si 14.9299 4.51452 11.105
Si 2.41239 0.348375 11.1593
Si 1.5449 6.53282 14.6423
Si 3.80541 2.53146 14.7751
Si 1.10839 2.42987 12.9493
Si 3.95864 6.84839 12.4467
O 0.990756 5.43873 15.8298
O 3.86739 1.22567 15.7493
O 2.33665 2.48828 13.9354
O 5.356 6.73971 13.2536
O 1.6877 1.88355 11.4084
O 3.88573 5.50285 11.5785
O 0.270842 3.88573 12.5752
O 3.56942 8.20748 11.7315
O 2.88207 6.36143 13.6969
O 4.79881 2.4688 13.6029
O 1.56074 8.01239 15.2945
O 3.98436 3.83538 15.695
Si 4.86007 4.42504 10.8549
Si 7.44927 0.261116 11.0615
Si 6.38655 6.624 14.5253
Si 8.51618 2.16551 14.8177
Si 6.13756 2.51527 12.6686
Si 8.85653 6.82355 12.7842
O 5.95516 5.21751 15.137
O 8.37054 0.670771 15.1861
O 7.29531 2.54767 13.7631
O 10.2231 7.20454 13.5193
O 6.26023 1.11107 11.8171
O 9.17192 5.51258 11.9577
O 6.08061 3.96823 11.7849
O 7.89988 7.71809 11.6773
O 7.96131 6.7636 14.1519
O 9.65527 2.26707 13.7129
O 6.25785 7.66827 15.8114
O 8.73787 3.23628 16.0788
Si 10.0584 4.29478 11.1914
Si 12.3171 0.21586 11.1672
Si 11.1051 6.4056 14.6829
Si 13.8056 1.87333 14.6846
Si 11.0912 2.31219 13.1106
Si 13.7962 6.65856 12.8192
O 10.4315 5.04927 15.1918
O 13.7824 1.04019 16.1578
O 12.2713 2.41949 14.2259
O 0.465464 6.84881 13.4948
O 11.5031 0.776278 12.557
O 13.9924 5.75192 11.3798
O 11.3173 3.5413 12.0655
O 13.0984 8.11389 12.3397
O 12.5557 5.93472 13.9659
O 0.139614 1.3404 13.5757
O 11.2981 7.70451 15.83
O 14.5836 3.24852 15.2597
Si 0.125655 12.8611 11.0387
Si 2.43684 8.46192 10.7279
Si 1.49173 15.3915 14.6288
Si 3.83639 10.5183 14.6654
Si 1.30575 10.2998 12.691
Si 3.81175 15.4814 12.7002
O 0.829068 14.4386 15.9152
O 3.78156 9.19923 15.6297
O 2.63823 10.637 13.5987
O 5.19243 15.7702 13.2881
O 1.40282 9.12755 11.6289
O 3.90783 14.2429 11.5692
O 0.532656 11.5968 12.1744
O 3.16573 17.0639 12.4688
O 2.73474 14.7349 13.7332
O 5.31173 10.5213 13.7188
O 2.07569 16.7133 15.1473
O 3.78316 11.9136 15.4551
Si 4.81693 13.2049 10.6056
Si 7.19011 8.75498 10.7216
Si 6.07012 15.4215 14.5857
Si 8.59387 11.0854 14.661
Si 6.32231 11.1509 12.6264
Si 8.70772 15.2067 13.0897
O 5.37456 14.128 15.3147
O 8.14486 9.60589 15.2096
O 7.50121 11.7583 13.5215
O 10.0144 15.3824 14.1048
O 6.53565 10.0195 11.5483
O 9.14094 14.0026 12.1806
O 5.73725 12.5734 11.762
O 8.51021 16.5092 12.0539
O 7.46659 14.7685 14.0155
O 10.0337 10.8263 13.891
O 6.31905 16.3413 15.9054
O 9.20161 12.3581 15.3487
Si 9.9639 13.0434 11.0175
Si 12.184 8.87808 11.0604
Si 11.4757 15.1258 14.893
Si 13.8491 10.6648 14.4053
Si 11.1928 11.1274 12.7985
Si 13.9452 15.1488 12.7565
O 11.1705 13.9767 15.9124
O 13.0635 9.64299 15.379
O 12.6853 11.2751 13.4723
O 0.246778 15.7918 13.5731
O 11.0399 9.68802 11.7598
O 14.2988 13.9951 11.7972
O 11.04 12.5853 12.2455
O 13.1476 16.0991 11.5532
O 12.8135 14.7978 13.8898
O 0.239861 9.71719 13.8283
O 11.8227 16.7514 15.639
O 14.2363 12.0822 15.3613
324
 Atoms. Timestep: 26000
Si 0.555595 4.25085 16.6135
Si 2.41144 17.2635 0.217291
Si 1.20564 6.68645 3.94244
Si 3.79397 1.93333 3.97496
Si 1.26614 2.05382 1.94524
Si 3.81266 6.40704 2.02004
O 0.899501 5.55537 4.9317
O 3.82371 0.712233 5.05299
O 2.26796 1.91919 3.29624
O 4.99186 7.098 3.14061
O 1.2364 0.539095 1.16999
O 4.15805 5.01921 1.1833
O 1.63811 3.2557 0.852135
O 3.5396 7.78752 1.10136
O 2.37884 5.93391 2.85499
O 4.67035 1.86856 2.54568
O 1.94669 8.11432 4.41165
O 4.19715 3.27559 4.8703
Si 5.23698 4.23204 -0.0407805
Si 7.25654 16.7869 0.27361
Si 6.49252 6.60131 3.63119
Si 8.79749 2.28462 3.56017
Si 6.04985 1.86869 1.98025
Si 8.95437 6.74005 1.61023
O 6.22459 5.26693 4.39833
O 7.98008 1.72028 4.92793
O 7.42245 2.52586 2.54276
O 10.2481 7.26667 2.49031
O 6.54254 0.395974 1.49686
O 9.13089 5.44834 0.674716
O 5.97467 2.958 0.548733
O 8.99221 7.96634 0.496512
O 7.56484 6.35045 2.3174
O 9.96201 1.55534 2.74344
O 6.87941 7.85252 4.56178
O 8.91892 3.88242 3.97283
Si 9.72756 4.36861 16.233
Si 12.6451 17.1506 0.148113
Si 11.4897 6.71127 3.34762
Si 13.7105 2.12568 3.59082
Si 11.1134 2.05066 1.71135
Si 14.0862 6.51883 1.6614
O 10.9625 5.44681 4.40727
O 13.9083 0.882719 4.68474
O 12.1975 2.28757 2.87966
O 15.0404 7.07344 3.05191
O 11.742 0.677101 1.13869
O 14.3585 5.07214 1.00203
O 10.5647 3.33091 0.803623
O 14.3523 7.84455 0.60668
O 12.5721 6.10094 2.34968
O 14.7155 2.16387 2.1997
O 12.0981 7.85659 4.44358
O 13.9879 3.52029 4.41092
Si 0.388375 12.926 16.3334
Si 2.52651 8.66471 0.250234
Si 1.19624 15.2684 3.72373
Si 4.1737 11.0685 3.98402
Si 1.48727 10.9778 2.03808
Si 3.76021 15.0378 1.90376
O 0.676227 14.3736 4.96162
O 3.97589 9.74261 4.83785
O 2.74123 11.0042 3.03329
O 5.27595 15.444 2.53525
O 1.57269 9.8984 0.882278
O 3.85543 13.8659 0.74065
O 1.29981 12.5342 1.14763
O 3.47167 16.5856 1.22542
O 2.80385 14.6117 3.39663
O 5.52237 10.8888 3.18497
O 1.28792 16.7461 4.27389
O 4.18536 12.3305 4.86305
Si 4.86815 12.906 16.3233
Si 7.65903 8.84328 16.4235
Si 6.54933 15.0087 3.70146
Si 8.925 11.1281 3.68413
Si 6.42632 10.9118 1.8883
Si 9.04791 14.9282 2.01485
O 6.35428 14.1217 5.12995
O 8.53021 10.025 4.76705
O 7.68952 11.5351 2.6219
O 9.9471 15.8607 2.97165
O 6.66192 9.45591 1.10797
O 9.47001 13.4759 1.26945
O 5.71612 11.6334 0.546332
O 8.46835 15.8236 0.673181
O 7.75235 14.4952 2.75737
O 9.98897 10.1821 2.65209
O 6.50032 16.7686 4.26109
O 9.43247 12.6618 4.1268
Si 10.2091 12.9477 16.2807
Si 13.0533 8.61804 0.0456016
Si 11.4258 15.4116 3.70671
Si 13.4983 11.1704 3.64619
Si 11.2514 10.4533 1.76425
Si 14.0159 14.9691 1.47946
O 11.2439 13.9349 4.59595
O 13.35 9.98358 4.71794
O 12.2095 11.5415 2.71799
O 0.199862 15.2705 2.49087
O 12.156 9.03412 1.48388
O 14.1372 13.7131 0.655254
O 10.9135 11.5727 0.620817
O 13.7547 16.0646 0.316472
O 12.4894 14.94 2.53211
O 14.8585 10.9513 2.69723
O 12.0494 16.5854 4.51135
O 13.8497 12.6891 4.23132
Si 14.6278 4.59609 5.48175
Si 2.29197 17.479 5.39866
Si 1.61797 6.31171 8.73067
Si 3.48917 2.26893 8.8438
Si 0.930688 2.35595 7.14304
Si 4.07009 6.44347 7.2452
O 0.970915 5.36161 9.83522
O 3.02171 0.814953 9.59707
O 2.49914 2.87317 7.74167
O 5.43986 6.62197 7.85652
O 1.18096 1.23357 5.98191
O 3.97142 5.71877 5.85919
O 0.367164 3.87284 6.75872
O 3.55201 7.94753 6.47949
O 3.08873 5.61279 8.2711
O 4.95867 1.90979 8.26846
O 1.9922 7.90452 9.43486
O 3.67683 3.48079 9.99493
Si 5.05545 4.64168 5.23405
Si 7.33996 0.24143 5.43282
Si 6.51807 6.29212 9.13907
Si 8.60552 1.9498 9.53027
Si 6.24773 2.40928 7.22976
Si 8.97738 6.42429 7.32864
O 6.03515 4.77817 9.72084
O 8.50558 0.437388 10.2264
O 7.60748 2.39872 8.25313
O 10.3002 6.59423 7.99688
O 6.31432 0.721903 6.59688
O 8.86384 5.45243 5.92475
O 5.93295 3.81059 6.48929
O 8.85573 7.7695 6.202
O 7.91785 5.72143 8.42974
O 10.2451 1.53229 8.78212
O 6.61924 7.37458 10.5247
O 8.86513 3.0627 10.7411
Si 9.94634 4.49922 5.29133
Si 12.6722 0.26422 5.6508
Si 11.1472 6.34564 9.37092
Si 13.4657 2.55752 9.28844
Si 11.1236 2.50016 7.55418
Si 13.5702 6.54686 7.49187
O 10.6448 4.86373 9.96478
O 12.8871 1.16954 9.84886
O 12.2477 3.26288 8.44719
O 0.0841954 6.47643 8.02041
O 11.687 0.918874 6.84063
O 13.5352 5.58123 6.03909
O 10.2599 3.21973 6.47185
O 13.51 8.07044 6.74586
O 12.7206 6.20482 8.92512
O 14.7251 2.15969 8.24829
O 11.2221 7.75991 10.1848
O 14.1275 3.50061 10.3788
Si 14.8159 13.2889 5.53621
Si 2.76739 8.92133 5.42718
Si 0.933726 15.2937 9.43091
Si 3.71506 11.0821 9.24658
Si 1.56232 11.0079 7.17783
Si 3.40399 15.304 7.63783
O 0.602266 13.7439 10.0276
O 3.72327 9.57408 10.1342
O 2.703 11.7046 8.07712
O 4.70859 15.6873 8.29281
O 1.51042 9.77106 6.25017
O 4.05047 14.1358 6.67594
O 0.79936 12.3223 6.32301
O 2.86092 16.1001 6.35809
O 2.3137 14.8748 8.69453
O 5.32422 10.6345 8.64315
O 1.42839 16.3384 10.546
O 3.48083 12.0708 10.6322
Si 4.99074 13.323 5.72634
Si 7.85968 8.85237 5.61127
Si 5.92796 15.1409 9.12315
Si 8.84101 11.0007 9.41644
Si 6.45969 11.0008 7.60257
Si 8.57137 15.2973 7.52513
O 5.51186 13.5156 9.3333
O 8.46248 9.41284 9.82273
O 7.77867 11.5172 8.43593
O 9.48453 15.6891 8.86864
O 7.09704 9.6249 6.81368
O 9.4434 14.2028 6.62446
O 5.93068 12.088 6.56397
O 8.23219 16.4062 6.27698
O 7.02455 14.963 7.85437
O 10.2028 10.3898 8.46437
O 6.49273 15.9964 10.3741
O 9.51476 12.0834 10.346
Si 10.1777 13.309 5.49327
Si 12.5567 8.80164 5.63394
Si 10.992 15.523 9.48996
Si 14.0124 10.58 9.17822
Si 11.2971 10.8166 7.46889
Si 13.6601 15.4272 7.5415
O 11.3046 13.9588 10.0608
O 13.4526 9.12074 9.66739
O 12.6807 11.0584 8.25427
O 14.6465 15.9364 8.7589
O 11.3803 9.33308 6.67412
O 14.099 14.0632 6.75108
O 10.8089 12.1745 6.49088
O 13.9211 16.6607 6.37438
O 12.055 15.591 8.13142
O 0.385368 10.6191 8.30478
O 11.1906 16.4576 10.6704
O 13.9937 11.5336 10.702
Si 0.322476 4.42895 10.9852
Si 2.59878 0.0176617 11.0006
Si 1.29652 6.5402 14.8459
Si 3.67263 2.14561 14.783
Si 0.979686 2.23904 12.8044
Si 3.82869 6.60994 12.9252
O 1.42832 5.14346 15.8122
O 3.53073 1.16435 16.1404
O 2.12308 2.07049 14.1345
O 5.28046 6.59552 13.687
O 1.66968 1.35527 11.6465
O 4.29775 5.18114 11.9347
O 0.973905 3.76027 12.2393
O 3.60503 7.80895 11.9261
O 2.4975 6.19887 13.8295
O 4.67818 1.70495 13.5656
O 1.45091 7.82541 15.7497
O 4.15859 3.72508 15.3016
Si 4.95174 4.14439 10.8827
Si 7.27853 17.2172 11.2477
Si 6.43477 6.53618 14.9275
Si 8.43776 1.94099 14.9476
Si 6.09339 1.99615 12.807
Si 8.98653 6.76653 12.9148
O 6.33099 5.41328 16.1354
O 8.18556 0.807549 15.9949
O 7.40055 1.87302 13.6687
O 10.2612 7.24931 13.8742
O 5.98446 0.783779 11.7727
O 8.95226 5.66568 11.759
O 6.231 3.37529 11.819
O 8.39517 7.99796 12.0633
O 7.87324 6.36271 14.1206
O 9.84566 1.53225 14.0831
O 6.72465 8.03625 15.2823
O 8.65277 3.51822 15.358
Si 9.90432 4.25199 11.4236
Si 12.4395 0.173222 11.0786
Si 11.3993 6.50027 14.7462
Si 13.6738 2.23773 14.9158
Si 11.058 2.27642 13.2984
Si 13.828 6.65725 12.7371
O 10.7306 5.0945 15.1357
O 13.6696 1.16003 16.1617
O 12.2164 2.68627 14.3846
O 15.0655 6.90364 13.7918
O 11.4975 1.2931 12.1288
O 14.3019 5.52109 11.7734
O 10.7903 3.70209 12.6772
O 13.2151 7.98753 12.1045
O 12.6242 5.92484 13.6906
O 14.4835 1.7303 13.3691
O 11.9694 7.8274 15.7085
O 14.2476 3.47789 15.715
Si 14.8623 12.905 11.1694
Si 2.54728 8.69453 10.7454
Si 1.4531 15.1765 14.4882
Si 3.81653 10.6017 14.5904
Si 1.50439 10.6924 12.6963
Si 3.86956 15.2469 12.6982
O 1.31811 13.9375 15.5908
O 3.38193 9.48009 15.5148
O 3.01957 11.0286 13.3337
O 5.22744 15.4268 13.5225
O 1.37179 9.39074 11.457
O 4.02674 14.3531 11.3501
O 0.988419 12.2721 12.351
O 3.4377 16.7762 12.2175
O 2.56482 14.6341 13.54
O 5.40312 10.602 13.8649
O 1.80204 16.4819 15.4237
O 3.72115 12.0056 15.4192
Si 4.82162 13.1048 10.7533
Si 7.48982 8.76944 11.1321
Si 6.33472 14.7793 14.5235
Si 9.09308 11.0518 14.3229
Si 6.25226 10.9298 12.6733
Si 8.72317 15.0547 13.0047
O 6.03379 13.3556 15.3045
O 8.37353 10.0081 15.4853
O 7.93366 11.0662 13.0979
O 10.1308 15.8443 13.4545
O 6.25658 9.76162 11.6077
O 9.10642 14.1255 11.7127
O 5.86503 12.5357 11.9614
O 7.90902 16.4836 12.498
O 7.96217 14.4967 14.3432
O 10.5247 10.2004 13.9306
O 6.22768 15.8563 15.8498
O 9.09135 12.4233 15.1981
Si 10.4014 13.1493 11.1794
Si 12.1962 8.74949 10.9048
Si 11.0769 15.3163 14.6844
Si 14.1844 10.5738 14.6133
Si 11.588 11.0449 12.8536
Si 13.7357 15.3725 12.8974
O 11.1834 13.8403 15.254
O 13.9063 9.70616 15.8265
O 13.04 10.9168 13.6562
O 0.212654 15.6788 13.5555
O 11.5906 10.0674 11.5393
O 13.7266 13.8457 12.0303
O 11.1291 12.5251 12.5956
O 13.6231 16.6505 11.7267
O 12.628 15.6718 13.9901
O 0.555839 10.0542 13.8427
O 11.4337 16.5249 15.8771
O 14.527 11.9409 15.5213
324
 Atoms. Timestep: 26500
Si 0.00576507 4.23888 0.0104747
Si 2.54744 0.183719 0.418265
Si 1.47888 6.55208 3.916
Si 3.84055 2.48875 3.87779
Si 1.31791 2.35549 1.83893
Si 3.97452 6.43394 2.0454
O 1.33713 5.47926 5.00065
O 3.66489 1.39212 5.19472
O 2.47065 2.74478 2.94926
O 4.87176 6.82916 3.35858
O 1.52367 0.715783 1.53016
O 3.84311 4.93101 1.41888
O 1.27487 3.32054 0.513452
O 4.07727 7.47524 0.718506
O 2.43065 6.77315 2.51026
O 4.95304 1.76483 2.96289
O 2.54206 7.57578 4.79181
O 4.07956 3.96426 4.62491
Si 4.65555 4.30683 16.443
Si 7.52142 17.2331 0.114051
Si 6.34505 6.47992 3.8051
Si 8.86238 2.1365 3.66584
Si 6.11668 2.06647 1.75601
Si 8.63744 6.2056 1.75455
O 6.51027 5.10667 4.63902
O 8.5977 1.01771 4.73878
O 7.48101 2.13493 2.69095
O 10.0041 6.21654 2.75757
O 6.39705 0.721125 1.04864
O 8.74833 4.5834 1.0866
O 5.57627 3.19619 0.695498
O 8.66022 7.64475 0.830275
O 7.33499 6.0672 2.61761
O 9.95197 1.47553 2.31688
O 6.434 7.74333 4.73429
O 9.1552 3.53862 4.4686
Si 9.78564 4.14988 16.3748
Si 12.6973 0.0139283 16.3469
Si 11.359 6.4383 3.65989
Si 13.6085 2.491 3.52378
Si 11.4328 2.05867 1.67509
Si 13.901 6.42646 2.011
O 11.277 5.37873 5.02831
O 13.5944 1.20914 4.49544
O 12.043 2.93699 3.10229
O 15.0713 7.17596 3.21786
O 12.6561 1.02975 1.20774
O 14.406 5.17895 1.2062
O 10.7251 2.8906 0.3867
O 13.5981 7.46335 0.746803
O 12.708 5.73864 2.84663
O 14.6015 2.48567 2.30348
O 11.5463 7.79762 4.44423
O 14.1698 3.95202 4.28583
Si 0.370483 12.9771 16.4688
Si 2.80156 8.50446 0.0428384
Si 1.21733 15.4967 3.671
Si 4.05473 10.7974 3.83307
Si 1.48212 10.6636 1.96172
Si 3.64581 15.2364 1.8153
O 0.880648 14.4212 4.74433
O 3.71204 10.0484 5.15786
O 2.86189 10.9822 2.80862
O 4.82498 15.4657 2.93769
O 1.80983 9.10555 1.19432
O 3.76137 14.2814 0.511207
O 1.00755 11.7157 0.801257
O 3.68918 16.5925 0.883338
O 2.3656 15.0218 2.59002
O 5.16994 10.0967 2.6952
O 1.79746 16.714 4.55965
O 4.41713 12.3214 4.31788
Si 4.85953 13.1227 0.108594
Si 7.67943 8.76937 0.0833544
Si 6.30715 15.2506 3.7432
Si 8.92532 11.1253 3.49608
Si 6.23263 10.8397 1.85054
Si 8.70527 15.1493 2.04497
O 6.14206 14.4057 5.04145
O 8.49955 9.66176 4.33191
O 7.4842 11.4826 2.68694
O 9.65905 15.4101 3.2907
O 6.44083 9.76879 0.580518
O 9.6687 14.0822 1.03313
O 5.58799 12.2328 1.32065
O 8.40085 16.4006 1.04934
O 7.19606 14.4982 2.57453
O 10.2567 10.7073 2.64524
O 6.85712 16.6151 4.3848
O 9.51436 12.4023 4.27275
Si 10.4724 12.9982 16.5698
Si 12.5505 8.36357 16.4006
Si 11.3542 15.2928 3.82883
Si 13.9229 11.0653 3.49701
Si 11.6386 10.7332 1.62734
Si 13.9295 15.3064 1.89914
O 11.5356 13.9093 4.74143
O 13.2658 9.7631 4.24851
O 13.0184 11.4079 2.18267
O 15.118 16.2268 2.78286
O 11.8797 9.16051 1.29345
O 14.3897 14.1182 1.03112
O 11.3885 11.8435 0.428724
O 13.6105 16.2457 0.650694
O 12.6512 14.9696 2.86399
O 0.398744 10.4313 3.11437
O 11.4505 16.9627 4.33057
O 14.3053 12.2253 4.52893
Si 15.0181 4.70698 5.51148
Si 2.53056 0.28097 5.73888
Si 1.28336 6.51491 8.83946
Si 3.53724 2.17429 9.34944
Si 1.11334 2.41255 7.361
Si 3.94136 6.59389 7.65788
O 0.418326 5.21233 9.45839
O 2.7222 0.741117 9.89989
O 2.28407 2.83486 8.51825
O 5.01684 6.97114 8.83348
O 1.57709 1.41985 6.28887
O 4.53346 5.95678 6.22472
O 0.453768 3.80929 6.86304
O 3.36158 8.06144 6.95954
O 2.71482 5.92737 8.30834
O 4.69995 1.71684 8.29995
O 1.68016 7.37162 10.364
O 4.14132 2.96426 10.5196
Si 5.24886 4.59315 5.56699
Si 7.43739 0.109822 5.5794
Si 6.31169 6.26441 9.57262
Si 8.78208 2.18664 8.91786
Si 6.02109 2.12008 7.37369
Si 8.65585 6.57239 7.39987
O 6.0778 4.6629 10.1133
O 8.35688 0.972778 9.83906
O 7.39433 2.68946 8.29485
O 10.2344 6.64244 8.05738
O 6.39167 0.999097 6.49468
O 8.79794 5.40289 6.08086
O 5.75774 3.51736 6.61852
O 8.39266 7.98451 6.37038
O 7.4664 6.24666 8.47181
O 10.1713 1.67966 8.13847
O 6.52246 7.36121 10.76
O 9.2391 3.65698 9.52566
Si 10.0659 4.40154 5.55165
Si 12.4159 0.398212 5.33929
Si 11.552 6.27445 9.32012
Si 13.9194 2.01146 9.22292
Si 11.4076 2.40586 7.35849
Si 13.8801 7.09138 7.3655
O 11.3795 4.61036 9.94137
O 13.3423 0.571218 9.91379
O 12.6932 2.62209 8.24589
O 0.292709 7.46649 8.01258
O 11.3729 1.15294 6.33359
O 14.0029 5.79619 6.28246
O 10.8236 3.73424 6.86658
O 13.5437 8.26972 6.10841
O 12.9151 6.47841 8.58032
O 0.113276 1.47725 8.31668
O 11.5654 7.54237 10.298
O 14.0564 3.2414 10.1884
Si 0.067507 13.2316 5.60965
Si 2.61567 8.95617 5.77892
Si 0.968003 14.8465 9.09547
Si 3.97367 10.7365 8.99016
Si 1.29422 10.9746 7.37229
Si 3.56368 14.9942 7.41355
O 0.67617 13.4929 10.0374
O 3.53007 9.27869 9.77648
O 2.71055 11.1787 8.15312
O 4.57763 14.8458 8.68829
O 1.20957 9.788 6.28238
O 3.7821 13.9899 6.08589
O 1.09294 12.5443 6.60869
O 3.43881 16.5401 6.89068
O 2.16522 14.5966 8.14191
O 5.39611 10.6584 8.28626
O 1.42891 15.9797 10.2184
O 3.89831 11.8977 10.3139
Si 5.18355 13.2127 5.50057
Si 7.46856 8.816 5.39348
Si 6.08802 15.0372 9.14244
Si 8.97722 10.611 9.26128
Si 6.73466 11.0527 7.32654
Si 8.47011 15.1858 7.39228
O 6.21403 13.4226 9.89517
O 8.2773 9.26635 9.99675
O 8.22159 11.1253 7.92404
O 9.45191 15.4742 8.69811
O 6.74532 9.91857 6.20586
O 9.13895 14.4052 6.15983
O 6.1288 12.3268 6.58092
O 8.32657 16.7274 6.74964
O 7.11793 14.7085 7.86977
O 10.5733 10.491 8.64352
O 6.60567 16.4396 9.88596
O 9.12968 11.9092 10.333
Si 10.0992 13.2983 5.56986
Si 12.4075 8.89347 5.20776
Si 11.0104 15.2994 9.22387
Si 13.689 10.7908 9.11722
Si 11.333 10.9266 7.2397
Si 13.5078 15.4187 7.25555
O 10.8693 13.6543 9.68293
O 13.3543 9.28792 9.75533
O 12.9565 11.1862 7.64864
O 14.769 15.658 8.33056
O 11.2265 9.78638 6.11614
O 14.0679 14.0378 6.62554
O 10.7518 12.4119 6.69808
O 13.3974 16.6516 6.12495
O 12.1883 14.9895 8.0317
O 0.156581 10.5005 8.61612
O 11.2973 16.1195 10.6163
O 13.5388 11.933 10.3408
Si 15.0292 4.42171 10.8344
Si 2.2135 17.1529 11.1011
Si 1.18582 6.56625 14.6598
Si 3.38625 2.0049 14.7612
Si 0.958485 2.15304 12.7976
Si 3.61669 6.83934 12.7655
O 0.817279 5.26211 15.625
O 3.31122 1.37278 16.2698
O 2.25388 2.41665 13.7003
O 5.03579 7.34781 13.6079
O 1.33034 0.808453 12.0424
O 4.18432 5.61757 11.8372
O 0.92508 3.67029 11.9471
O 3.32704 8.17997 12.0878
O 2.39712 6.2272 13.6527
O 4.68315 1.40637 13.8665
O 1.78374 7.60056 15.6649
O 3.79178 3.53484 15.4175
Si 4.97712 4.22455 11.2752
Si 7.4974 0.173498 10.8684
Si 6.10759 6.61676 14.7544
Si 8.72566 2.11168 14.54
Si 6.05513 2.02062 13.0618
Si 8.52423 6.32771 12.823
O 5.70404 5.37244 15.6914
O 8.34986 1.11802 15.8102
O 7.50268 2.31335 13.5422
O 9.84563 5.75784 13.8566
O 6.48564 0.965046 11.8913
O 9.00029 5.4834 11.4766
O 5.46625 3.40216 12.5159
O 8.6913 7.99203 12.348
O 7.33669 5.90119 13.8034
O 10.0631 1.59273 13.8575
O 6.5337 7.75384 15.8174
O 9.05392 3.68505 14.9181
Si 10.0052 4.26558 10.8505
Si 12.5988 17.0391 11.1441
Si 11.2138 6.19037 14.7414
Si 13.565 2.60934 14.7802
Si 11.2329 2.25205 12.8509
Si 13.7147 6.63244 12.8281
O 11.0554 5.3505 16.1714
O 13.1408 1.11566 15.3305
O 12.5771 2.92858 13.6221
O 14.8516 6.84389 13.8939
O 11.8086 0.933572 12.0746
O 14.13 5.45365 11.7071
O 10.5346 3.4297 12.129
O 13.5484 8.14238 12.1957
O 12.5912 5.93826 13.7703
O 14.705 2.20225 13.5797
O 11.636 7.59496 15.3243
O 13.8953 3.22427 16.1815
Si 14.8161 12.7187 11.1656
Si 2.49991 8.7703 10.7294
Si 1.33077 15.581 14.8104
Si 3.87688 10.8611 14.7278
Si 1.31051 10.8518 12.7336
Si 3.93017 15.2147 12.9677
O 1.14245 14.119 15.6426
O 3.59123 9.4133 15.5498
O 3.0463 11.0748 13.334
O 5.29531 15.7133 13.7432
O 1.78119 10.0158 11.2723
O 4.24091 14.218 11.5509
O 0.734359 12.2637 12.2595
O 3.46569 16.5869 12.1846
O 2.8371 14.8308 14.1496
O 5.70903 10.713 14.3552
O 1.68891 16.9309 15.589
O 3.84227 12.0903 15.6736
Si 5.07424 12.9285 10.9075
Si 7.42139 8.68865 11.4208
Si 6.48833 14.9389 14.6466
Si 9.03257 10.9565 14.5084
Si 6.38168 11.047 13.0402
Si 8.72747 15.2668 12.7335
O 6.05299 13.6862 15.7007
O 8.66659 9.78129 15.6545
O 8.11855 10.8773 13.2804
O 10.0048 15.3208 13.7838
O 6.40013 9.79586 11.9444
O 8.91921 14.0823 11.5852
O 5.6497 12.255 12.2036
O 8.18654 16.8069 12.1699
O 7.68034 14.405 13.7034
O 10.4983 10.4718 14.0113
O 7.00009 16.1201 15.5826
O 9.53466 12.1484 15.4494
Si 10.025 13.1068 11.0261
Si 12.5583 8.5451 10.995
Si 11.2762 15.4211 14.6704
Si 14.0823 10.7212 14.6947
Si 11.527 10.9494 12.8353
Si 13.9795 15.1479 12.9719
O 11.2273 14.0774 15.4959
O 13.5708 9.39659 15.5368
O 13.0751 11.2055 13.4594
O 0.451586 15.4736 13.4415
O 11.6594 9.74625 11.7558
O 13.8666 13.8354 11.8462
O 11.0331 12.3728 12.1282
O 13.7812 16.476 11.9268
O 12.7169 15.2585 14.0476
O 0.45521 10.2363 13.8642
O 11.3596 16.5376 15.8835
O 14.4093 12.0563 15.5776
324
 Atoms. Timestep: 27000
Si 14.8015 4.20045 16.4107
Si 2.65248 0.0350837 0.123927
Si 1.16052 6.55213 3.5804
Si 3.74943 2.46312 3.52745
Si 1.16618 2.11204 1.91002
Si 3.71359 6.34564 1.90155
O 1.07437 5.14448 4.51418
O 3.32943 1.42074 4.78434
O 2.45048 2.57238 2.67739
O 4.84291 6.74328 3.18499
O 1.60537 0.994058 1.0187
O 4.45873 5.02763 1.11727
O 0.869673 3.21277 0.645767
O 3.70994 7.28892 0.65374
O 2.26504 6.2665 2.45774
O 4.79512 2.27167 2.3333
O 1.54456 7.59502 4.68487
O 4.03772 3.89026 4.36603
Si 5.37195 4.44439 16.2509
Si 7.96075 0.14026 0.130468
Si 6.2955 6.31023 3.77742
Si 8.73832 2.54349 3.81021
Si 6.46503 2.39042 1.72591
Si 8.67469 6.39126 1.90471
O 6.25383 5.40189 5.13224
O 8.60378 1.30742 4.84825
O 7.24123 2.73765 3.14304
O 9.46625 6.95012 3.30773
O 7.08921 0.906757 1.34035
O 9.18594 5.12781 0.987445
O 6.43365 3.47919 0.476339
O 8.84844 7.60039 0.795921
O 7.21797 6.08923 2.39178
O 9.87691 1.87186 2.75035
O 6.86296 7.6485 4.50234
O 8.95823 4.02069 4.47786
Si 10.252 4.36074 0.107271
Si 12.4551 17.3186 0.108437
Si 11.1269 6.77165 3.94971
Si 13.6734 2.66174 3.71812
Si 11.3358 2.28903 1.95565
Si 13.5028 6.57971 1.9215
O 11.3625 5.50617 5.16065
O 13.378 1.44782 4.75556
O 12.2494 2.7068 3.13384
O 14.7609 6.88768 2.88511
O 12.1471 1.00363 1.34177
O 13.9669 5.44385 0.726196
O 11.0389 3.47986 1.04854
O 13.382 7.88954 1.00631
O 12.0366 6.24951 2.58739
O 14.6834 2.12704 2.5747
O 11.3233 7.98512 4.89028
O 14.086 3.83196 4.77301
Si 0.0848791 12.7792 0.401977
Si 2.60542 8.57239 16.3496
Si 1.14366 15.267 3.65861
Si 4.15192 10.7781 3.6941
Si 1.64531 10.6683 2.07643
Si 3.81327 15.1851 2.08957
O 1.2439 14.0977 4.77632
O 3.56586 9.49265 4.48526
O 2.88119 11.2399 2.83398
O 4.6628 15.7612 3.31859
O 2.13444 9.25748 1.30021
O 4.56263 13.9188 1.24278
O 1.06927 11.5323 0.864758
O 3.87587 16.4168 0.821035
O 2.25744 14.9741 2.52307
O 5.43471 10.3888 2.65761
O 1.71108 16.6474 4.50351
O 4.4799 12.2843 4.45746
Si 5.30155 13.0641 0.0658042
Si 7.94027 8.52816 16.2123
Si 6.21084 15.5303 3.75922
Si 9.24877 10.9551 3.84413
Si 6.81708 10.5369 1.73468
Si 8.5283 15.2099 1.83072
O 6.04978 14.3265 4.84439
O 8.96141 9.39633 4.60741
O 8.13958 10.8995 2.62483
O 9.6722 15.3511 3.10699
O 6.91872 9.28357 0.796966
O 8.50738 14.0124 0.854828
O 6.54684 12.0215 1.01061
O 8.96471 16.3245 0.648169
O 6.94302 15.0868 2.44175
O 10.8479 10.9367 3.32418
O 7.40425 16.5953 4.29079
O 9.20978 11.9892 5.04609
Si 9.6169 13.1147 0.270653
Si 12.5958 8.82677 16.4668
Si 11.1583 14.8541 3.73882
Si 13.931 10.9336 3.52555
Si 11.4923 11.129 1.85393
Si 13.5826 15.0987 1.95873
O 10.9296 13.5981 4.57238
O 13.5317 9.6858 4.41404
O 13.0967 11.2907 2.23081
O 14.6122 15.5952 3.16225
O 11.6417 9.95458 0.837138
O 14.1833 13.7695 1.39929
O 10.9128 12.6992 1.1564
O 13.4578 16.1093 0.806332
O 12.1696 14.4153 2.52949
O 0.409839 10.3726 2.94421
O 11.9346 16.1741 4.44939
O 14.2687 12.1626 4.45072
Si 0.266978 4.45337 5.82713
Si 2.71254 0.110751 5.45929
Si 0.922526 6.49042 9.34904
Si 3.97113 2.15416 9.41123
Si 1.51639 2.09409 7.41502
Si 3.54057 6.71865 7.50594
O 0.433115 5.11655 9.97224
O 3.33737 0.78775 10.0793
O 2.72962 2.63494 8.37312
O 4.65273 6.94304 8.71245
O 1.91241 0.626527 6.7599
O 3.82013 5.38228 6.50439
O 1.12484 3.15278 6.30681
O 3.48252 7.91867 6.40488
O 2.15928 6.65883 8.43535
O 5.28012 1.68939 8.78863
O 1.35613 7.44512 10.6099
O 3.91989 3.31063 10.4823
Si 4.88401 4.42891 5.76021
Si 7.51252 0.315673 5.53055
Si 6.01898 6.46992 9.17113
Si 8.75997 1.95838 9.00836
Si 6.03974 2.03564 7.41643
Si 8.54393 6.6959 7.42393
O 5.92148 5.17236 9.9814
O 8.11515 1.3551 10.4592
O 7.55212 1.69508 7.99048
O 10.0047 7.09509 8.0406
O 6.20616 1.34374 6.01951
O 8.96067 5.54546 6.27852
O 5.64251 3.61816 6.96273
O 8.28767 8.29748 6.78639
O 7.14865 6.3155 8.09828
O 10.0464 1.41256 8.35009
O 6.43221 7.5422 10.3298
O 8.85866 3.52539 9.60601
Si 10.0321 4.55922 5.48367
Si 12.7191 0.124016 5.14997
Si 11.2528 6.55019 9.16139
Si 13.626 2.0654 9.20361
Si 11.1315 1.95098 7.24862
Si 13.6215 6.80116 7.49525
O 10.8777 5.25285 9.9634
O 13.0821 0.584908 9.7053
O 12.5843 2.41291 7.86905
O 14.4695 7.30015 8.72882
O 11.5482 0.634358 6.42778
O 14.5781 5.66903 6.59106
O 10.5577 3.3203 6.46561
O 13.4975 8.16764 6.48409
O 12.305 5.93627 8.18128
O 0.227239 1.90919 8.5975
O 11.4663 7.99778 9.85976
O 13.559 3.42648 10.3073
Si 0.165887 13.0384 5.5829
Si 2.44197 8.83012 5.53661
Si 1.16168 15.1686 9.07429
Si 3.87868 10.7414 9.05438
Si 1.36844 11.0601 7.6367
Si 3.91703 15.2449 7.19052
O 0.691504 13.695 9.69666
O 2.99262 9.75089 10.1627
O 2.85239 11.6162 8.29875
O 4.92718 15.5843 8.46092
O 1.85947 10.0528 6.27525
O 4.16695 13.8317 6.68026
O 0.904647 12.3387 6.77743
O 4.0133 16.4146 6.0248
O 2.4241 15.2899 8.02988
O 5.23335 10.1402 8.40907
O 1.42528 16.356 10.117
O 4.49973 11.8204 10.2492
Si 5.33588 13.079 5.67587
Si 7.60239 8.69825 5.39938
Si 6.15443 15.4807 9.47593
Si 8.84956 10.5482 9.18597
Si 6.41392 10.5771 7.30837
Si 8.52998 15.1173 7.38568
O 5.85014 14.182 10.3576
O 8.35937 9.08553 9.6333
O 7.76367 11.1014 8.18856
O 9.92812 15.3582 8.27124
O 6.28537 9.52715 6.05427
O 8.77043 14.0237 6.23573
O 6.27714 12.1006 6.64642
O 8.12332 16.6375 6.75174
O 7.52577 14.8865 8.70153
O 10.1098 10.3507 8.39888
O 6.33368 16.8543 10.0185
O 9.06162 11.608 10.4067
Si 10.0803 13.1211 5.88969
Si 12.4783 8.87044 5.51637
Si 11.4314 14.8198 8.91193
Si 13.6538 10.9361 9.40534
Si 11.2584 10.9469 7.47875
Si 13.7117 15.2685 7.08743
O 10.9072 13.3892 9.54254
O 13.5603 9.45529 10.0882
O 12.6685 11.2283 8.24514
O 14.7066 15.6052 8.42675
O 11.5406 10.0042 6.24691
O 13.9555 13.9554 6.1742
O 11.1404 12.4229 6.87298
O 13.7222 16.6861 6.23023
O 12.3318 14.6258 7.70861
O 0.256349 10.7516 8.82699
O 11.8507 15.5207 10.321
O 13.7939 11.8846 10.681
Si 14.8197 4.23226 11.1766
Si 2.26112 17.2986 11.0532
Si 1.17684 6.48917 14.5439
Si 3.83705 2.19861 14.4943
Si 1.42677 2.24781 12.5978
Si 3.6457 6.49909 12.5561
O 0.722631 4.95944 15.2019
O 3.10234 0.86555 15.1763
O 3.05834 2.60154 12.9537
O 4.95905 6.35795 13.7882
O 1.10817 0.849598 11.7439
O 4.02801 5.54051 11.431
O 1.19484 3.53787 11.7063
O 3.51187 7.93098 11.9475
O 2.3418 6.06183 13.4856
O 5.39722 1.65433 14.3612
O 1.66619 7.54611 15.6328
O 4.14815 3.57379 15.4353
Si 5.03259 4.42953 10.9767
Si 7.2455 0.163699 11.1769
Si 6.40003 6.4291 14.4395
Si 9.03257 2.27879 14.4249
Si 6.26851 2.24853 13.0122
Si 8.83655 6.49798 12.9296
O 6.35541 5.6008 15.7597
O 8.9089 1.25993 15.7274
O 7.67959 2.34709 13.5648
O 9.79716 6.75979 14.1246
O 6.00632 0.912992 12.0276
O 9.21814 5.24196 11.9811
O 5.85557 3.60915 12.1362
O 8.66667 7.79902 11.9181
O 7.48177 5.99672 13.4066
O 9.94304 1.86704 13.2855
O 6.92548 8.02331 14.9102
O 9.55879 3.66268 15.1791
Si 9.8576 4.36445 10.7459
Si 12.4185 16.9588 10.8545
Si 11.3075 6.60715 14.7452
Si 13.7899 2.09036 14.4847
Si 11.1659 1.88893 12.2491
Si 13.647 6.58592 12.8339
O 11.2662 5.43703 15.905
O 13.5129 0.901834 15.588
O 12.7705 2.10728 13.1132
O 15.0174 7.12454 13.56
O 11.1466 0.46248 11.4
O 14.0033 4.96926 12.3513
O 10.8745 3.35693 11.4007
O 13.204 7.75791 11.9161
O 12.5697 6.19437 13.8406
O 0.314634 2.40702 13.8039
O 11.6507 8.02462 15.4393
O 13.8692 3.20665 15.5731
Si 14.9456 13.0362 11.0788
Si 2.24581 8.66546 11.0954
Si 1.27558 15.0861 14.9877
Si 3.88519 10.8893 14.6921
Si 1.3961 11.0853 12.8839
Si 3.76163 15.3447 13.1626
O 0.777192 13.7204 15.6518
O 3.18902 9.40109 15.1476
O 3.03135 11.3486 13.2878
O 5.22384 15.4443 13.4669
O 1.34858 9.59945 12.0699
O 4.12551 13.9924 12.1398
O 1.13622 12.4242 11.8937
O 2.96226 16.2912 12.1883
O 2.77511 14.7589 14.3739
O 5.17511 10.1718 14.002
O 1.4633 16.3383 15.9064
O 4.22737 12.1641 15.6066
Si 5.00145 13.0686 11.2618
Si 7.52871 8.53852 11.0545
Si 6.39693 15.379 14.6397
Si 9.00701 10.9351 14.7661
Si 6.37463 10.8725 12.9578
Si 8.83721 15.2383 12.7347
O 5.84523 14.3153 15.6942
O 9.01508 9.39448 15.5129
O 7.91867 11.1416 13.7346
O 10.3212 15.5523 13.2738
O 6.93475 9.87642 11.8052
O 9.00177 14.1226 11.3973
O 5.93779 12.1235 12.2099
O 8.23441 16.6878 12.2568
O 7.73964 14.7369 13.8552
O 10.5191 11.1709 14.2129
O 6.78329 16.604 15.5038
O 8.95707 11.7142 16.2935
Si 9.9678 12.9094 10.9146
Si 12.3855 8.79773 10.9857
Si 11.2559 15.1617 14.5947
Si 13.8104 11.0045 14.8835
Si 11.4711 11.1066 12.8917
Si 13.8988 15.3834 12.9827
O 10.4279 13.9808 15.3888
O 13.7002 9.50342 15.258
O 12.9639 11.2172 13.5883
O 0.266136 15.4692 13.6833
O 11.567 9.72611 12.0182
O 14.0097 14.2566 11.6514
O 10.97 12.306 11.9502
O 13.4318 16.7714 12.1164
O 12.848 14.8568 14.1139
O 0.402747 11.4838 14.1653
O 11.4837 16.425 15.676
O 13.5866 12.0529 16.043
324
 Atoms. Timestep: 27500
Si 14.6538 4.29385 16.2546
Si 2.47056 0.195693 0.260098
Si 1.03055 6.63761 3.60778
Si 3.48976 2.26693 3.57082
Si 1.15299 2.37605 2.0265
Si 3.65115 6.53537 1.86921
O 1.02645 5.42679 4.77797
O 2.92521 0.774307 3.9532
O 2.24607 3.17415 3.05856
O 4.86057 7.11101 2.81522
O 1.62407 1.00448 1.46379
O 4.35236 5.07915 1.47247
O 0.242266 3.27552 1.06155
O 3.91511 7.57828 0.731358
O 2.16017 6.10261 2.30821
O 4.523 1.85215 2.36821
O 1.5045 7.98609 4.12878
O 4.03883 3.14664 4.84666
Si 4.95723 4.24248 0.341223
Si 7.71135 0.21149 16.5859
Si 6.05605 6.71199 3.82567
Si 8.59841 2.30678 3.57799
Si 6.07747 1.99347 1.85954
Si 8.43745 6.16433 2.04321
O 5.3805 5.72218 4.91461
O 8.12214 1.22648 4.62475
O 7.05416 2.63182 2.95947
O 9.55876 6.65761 3.10795
O 6.5328 0.420325 1.37149
O 9.01072 4.83305 1.37357
O 6.02474 3.38116 0.957258
O 8.39421 7.41348 1.10669
O 7.09982 5.8816 2.8846
O 9.58722 1.50444 2.52567
O 6.31645 8.09978 4.51757
O 9.54143 3.5222 4.19595
Si 10.202 4.54558 0.100545
Si 12.5443 16.9787 16.4012
Si 11.1615 6.52059 3.83637
Si 13.6025 2.38908 3.80258
Si 11.1674 1.75188 1.77782
Si 13.5428 6.44132 1.66744
O 11.0839 5.32577 4.89796
O 13.2962 0.750272 4.59192
O 12.5287 2.41032 2.51871
O 14.4881 6.63613 2.92011
O 11.4882 0.167995 1.31641
O 13.78 5.59811 0.390002
O 11.2095 3.30406 0.784198
O 13.3992 8.22189 1.21672
O 12.2144 6.04093 2.64544
O 15.0743 1.98468 3.2418
O 11.2131 8.09606 4.62575
O 14.1402 3.50835 4.85819
Si 14.9853 12.879 0.120586
Si 2.68157 8.5775 0.148985
Si 0.996433 14.9484 3.52159
Si 4.21323 10.9874 3.37359
Si 1.72472 10.8345 1.73288
Si 3.58189 15.1661 1.77895
O 1.21624 13.5711 4.3144
O 3.47888 9.66323 4.21502
O 3.18958 11.0841 2.15023
O 4.47891 15.6455 3.08297
O 1.76669 9.32038 1.25599
O 4.13875 13.719 1.27114
O 1.14963 11.6107 0.305934
O 3.65473 16.4988 0.828786
O 2.01576 14.9991 2.19192
O 5.65435 10.5885 3.05201
O 1.51141 15.9073 4.61421
O 4.11421 12.2002 4.52657
Si 5.41603 13.1409 0.45653
Si 7.6001 8.43022 16.4184
Si 6.03637 15.3759 3.57296
Si 9.11132 11.0288 3.73793
Si 6.714 10.9688 1.96756
Si 8.78416 15.2783 1.7923
O 5.93277 13.8022 4.30104
O 8.58762 9.62681 4.34033
O 8.33469 11.3666 2.33482
O 9.60944 15.7757 3.07418
O 6.92967 9.62281 0.971144
O 8.90579 13.9053 0.935356
O 6.48596 12.6137 1.34663
O 8.8768 16.5886 0.754834
O 7.2652 15.1012 2.56863
O 10.5728 10.799 3.30287
O 6.53087 16.48 4.5942
O 9.001 12.1334 4.7444
Si 10.1913 12.9898 0.291264
Si 12.5658 9.02181 16.4499
Si 10.9586 15.2321 3.76694
Si 14.1887 10.8329 3.73652
Si 11.6859 11.0893 1.97201
Si 13.5725 15.1787 1.88003
O 11.0745 13.8228 4.55729
O 13.8965 9.38801 4.32429
O 13.0422 11.2367 2.71784
O 14.501 15.3456 3.22339
O 11.5245 9.90216 0.90488
O 14.3943 13.8149 1.1856
O 11.1319 12.6014 1.52411
O 13.8238 16.0813 0.558895
O 12.0146 14.9673 2.59288
O 0.640162 10.9271 2.93657
O 11.2854 16.3783 4.78577
O 14.0767 11.8938 5.00206
Si 0.160302 4.39445 5.76823
Si 2.55666 17.1103 5.17324
Si 1.0529 6.65427 9.29261
Si 3.8478 1.79414 9.25768
Si 1.34124 2.02635 7.15526
Si 3.55238 6.47131 7.15701
O 1.19903 5.49215 10.3314
O 3.84183 0.328897 9.86051
O 2.46919 2.03899 8.36026
O 4.60197 6.7154 8.52014
O 1.54742 1.02804 5.94485
O 3.52215 4.8184 6.47603
O 1.26025 3.36971 6.30967
O 3.22143 7.52519 5.91362
O 2.05391 6.79175 8.00326
O 5.23578 2.23495 8.66541
O 1.4726 8.05251 10.1712
O 3.67456 3.11576 10.5651
Si 4.84983 4.39314 5.60891
Si 7.28632 0.305728 5.60272
Si 5.99691 6.21599 9.16393
Si 8.77889 2.45593 9.37889
Si 6.39054 2.59493 7.6086
Si 8.5579 6.39114 7.32333
O 5.58211 4.92574 9.95017
O 8.2412 0.956949 9.93586
O 7.56016 2.96569 8.54889
O 9.65507 6.76717 8.46577
O 6.39893 1.24927 6.73971
O 8.93437 5.17237 6.31669
O 5.96952 3.76489 6.53367
O 8.18029 7.58976 6.30424
O 7.14798 5.93368 8.06884
O 9.8839 1.77075 8.5505
O 6.34103 7.49175 10.2049
O 9.37202 3.82497 10.2725
Si 10.1076 4.33656 5.56519
Si 12.255 17.354 5.66551
Si 11.0698 6.89877 9.20017
Si 14.0992 1.97384 9.28164
Si 11.2826 2.26005 7.59784
Si 13.4833 6.64988 7.22258
O 11.349 5.82208 10.3865
O 13.5686 0.675871 10.0746
O 12.623 2.32455 8.48098
O 14.5336 7.02107 8.55395
O 11.3777 1.34679 6.30653
O 13.9136 5.35495 6.42819
O 10.7163 3.60653 6.81121
O 13.5387 7.76105 6.04889
O 12.0802 6.44612 7.98958
O -0.0304425 1.60228 7.90068
O 11.5456 8.36757 9.5129
O 14.5487 3.51089 9.77321
Si 0.225354 12.9708 5.45033
Si 2.43486 8.76337 5.12482
Si 1.33649 15.299 9.3504
Si 3.89545 10.8621 9.33597
Si 1.45163 10.7207 7.29725
Si 3.93638 15.2793 7.2124
O 1.64954 13.9937 10.1997
O 3.58412 9.60035 10.2708
O 2.58155 11.4804 8.48388
O 5.35881 15.3306 7.85301
O 2.06937 9.72128 6.27558
O 3.75453 14.151 6.00003
O 1.32679 12.0003 6.44007
O 3.84191 16.7271 6.32167
O 2.619 15.393 8.29448
O 5.14951 10.3998 8.39827
O 1.41567 16.5443 10.3183
O 4.33739 11.8936 10.3853
Si 4.97051 13.1582 5.43955
Si 7.54685 8.71617 5.28985
Si 6.29012 15.259 9.21051
Si 8.87089 10.6859 9.26264
Si 6.25605 10.916 7.35674
Si 8.78598 15.4702 7.3148
O 5.83005 13.86 9.94442
O 8.37763 9.04769 9.67189
O 7.61082 11.0952 8.24208
O 10.2042 15.7758 7.99236
O 6.67399 9.85575 6.22337
O 9.00069 14.2224 6.20258
O 5.73015 12.4555 6.77125
O 8.61121 16.8142 6.36683
O 7.58386 14.927 8.38037
O 10.2634 10.3159 8.67609
O 6.52963 16.6655 9.87952
O 8.84504 11.7442 10.4354
Si 9.88881 13.1719 5.50226
Si 12.5671 8.81064 5.23505
Si 11.3257 15.0781 8.95225
Si 14.0675 10.9456 9.09496
Si 11.3893 10.7917 7.40534
Si 13.5618 15.0492 7.35062
O 10.3844 14.0256 9.76079
O 13.7522 9.71535 10.1117
O 12.7072 11.4437 8.2314
O 14.7715 15.1598 8.4708
O 11.8915 9.61295 6.39126
O 14.4825 14.2722 6.20648
O 10.7808 11.9406 6.36198
O 12.5447 16.1592 6.82413
O 12.3734 14.1196 8.06698
O 0.173115 10.2312 8.00389
O 11.886 15.9035 10.1879
O 15.0712 12.0317 9.91726
Si 0.0773452 4.41451 11.1253
Si 2.73353 17.1632 11.1369
Si 1.13328 6.53753 14.5607
Si 3.8115 2.54705 15.0696
Si 1.6587 2.2452 13.0818
Si 3.61993 6.65292 13.0806
O 0.788606 5.14447 15.2864
O 3.19702 1.08838 15.5313
O 2.83028 3.06009 13.8364
O 4.8633 6.86624 13.9856
O 2.12404 1.0189 12.0666
O 3.96516 5.68815 11.8207
O 1.14306 3.44131 11.9836
O 3.37734 8.07953 12.3342
O 2.44638 5.9624 13.7803
O 5.21548 2.44736 14.4655
O 1.78414 7.70022 15.4127
O 3.50655 3.47544 16.328
Si 4.66557 4.42963 11.133
Si 7.38198 0.134239 11.0215
Si 6.11375 6.26114 14.7261
Si 9.13424 2.417 14.7058
Si 6.37074 2.48732 12.9429
Si 8.65825 6.412 12.9948
O 5.55419 4.9436 15.4651
O 8.33237 1.64419 16.1443
O 7.80593 2.5789 13.6792
O 9.941 7.17007 13.74
O 6.72672 1.27228 11.911
O 9.29579 5.07009 12.3632
O 5.73097 3.91688 12.3271
O 8.44226 7.26648 11.508
O 7.30842 5.88542 13.6317
O 10.5004 2.29849 13.9117
O 6.53234 7.42233 15.8181
O 9.37782 3.86747 15.3125
Si 10.4014 4.66604 11.2593
Si 12.6058 17.1984 11.0223
Si 11.1806 6.81565 14.6246
Si 13.8915 2.04481 14.5678
Si 11.4774 2.15669 12.6306
Si 13.6117 6.45661 12.8128
O 10.5764 6.0064 16.0156
O 13.1342 1.1486 15.775
O 13.1041 1.97101 13.0816
O 15.0006 7.12516 13.4549
O 11.3631 0.935383 11.586
O 13.7544 5.09825 11.7726
O 11.501 3.66429 11.8765
O 13.0312 7.68561 11.8508
O 12.4289 5.9103 13.9098
O 0.48045 1.75328 14.2564
O 11.489 8.33152 15.3889
O 13.488 3.48962 15.2949
Si 0.575806 13.0614 11.0336
Si 2.41006 8.91968 11.16
Si 1.27813 15.2236 14.9206
Si 4.24725 10.7938 14.742
Si 1.74922 11.1265 13.0843
Si 3.83391 15.1458 13.0234
O 0.924712 13.7368 15.4624
O 3.59011 9.86615 15.7653
O 3.15498 11.4033 13.8744
O 5.26303 15.107 13.6333
O 1.4716 9.80386 12.1304
O 4.08115 13.7373 12.0586
O 1.52057 12.592 12.5063
O 3.85441 16.5605 12.2722
O 2.47017 14.8758 13.802
O 5.43888 10.2667 13.9249
O 1.44424 16.5944 15.7923
O 4.65639 12.2345 15.6134
Si 5.15113 13.0419 11.1335
Si 7.56034 8.36059 10.8803
Si 6.55157 15.2893 14.6869
Si 9.07697 10.6005 14.6187
Si 6.50566 10.6159 12.813
Si 8.99187 15.1517 12.7322
O 6.13883 14.3886 16.0527
O 8.58953 9.13771 15.485
O 7.75672 11.1906 13.6995
O 10.3853 15.6104 13.3053
O 7.07793 9.65519 11.7758
O 8.86503 13.6032 12.057
O 6.08301 11.9384 12.0758
O 8.46374 16.4308 11.9292
O 7.90816 14.6197 13.9556
O 10.4835 10.5309 13.7413
O 6.53825 16.8365 15.2272
O 9.55034 11.5895 16.0063
Si 9.83953 13.0148 10.8432
Si 12.5994 8.91359 10.8133
Si 11.4602 14.8967 14.5353
Si 13.7833 11.1926 14.5779
Si 11.4489 10.9222 12.5363
Si 13.8921 15.1345 12.772
O 11.012 13.7097 15.4104
O 13.5515 9.78643 15.3287
O 13.0174 11.1156 13.2765
O -0.0895923 15.918 13.9485
O 11.3957 9.68317 11.5826
O 14.2298 14.0243 11.6399
O 11.1043 12.1562 11.5623
O 13.2009 16.5019 12.2544
O 12.8909 14.4371 13.9328
O 0.559822 10.8971 14.2849
O 11.4607 16.224 15.5574
O 13.5657 12.4663 15.4408
324
 Atoms. Timestep: 28000
Si 14.8178 4.5465 0.222543
Si 2.50629 0.125519 16.2864
Si 0.798106 6.50602 3.66347
Si 3.75668 2.2441 3.65852
Si 1.33921 2.17234 1.93615
Si 3.49827 6.38668 1.88224
O 0.723675 5.30676 4.88392
O 3.16436 0.714957 4.08581
O 2.42932 2.79452 3.02505
O 4.48575 7.23171 2.82184
O 2.07132 1.4436 0.608219
O 4.18682 5.13866 1.18582
O 0.687399 3.52593 1.04771
O 3.08414 7.46879 0.837517
O 2.19817 5.76994 2.80362
O 5.21315 2.09369 2.80506
O 1.43459 7.79307 4.38495
O 3.9276 3.03159 4.98804
Si 5.19033 4.3396 0.119906
Si 7.8879 0.321144 16.4393
Si 5.76971 6.81667 3.70043
Si 8.86966 2.16912 3.80352
Si 6.56533 2.47632 2.00832
Si 8.45478 6.70739 2.19026
O 5.45299 5.20555 4.30756
O 8.64026 0.704758 4.6653
O 7.58806 2.82601 3.15461
O 9.5295 7.02002 3.37285
O 7.22247 1.18617 1.25226
O 9.16815 5.56463 1.26328
O 6.44936 3.73643 0.909664
O 8.20533 8.10581 1.38563
O 6.92746 6.36007 2.52893
O 9.94167 1.80117 2.7141
O 6.64345 7.52779 4.94236
O 9.1838 3.13527 4.98809
Si 9.88051 4.58815 0.208751
Si 12.6235 0.0763078 16.2475
Si 10.9552 6.51492 3.80076
Si 13.7544 1.98452 3.42886
Si 11.1076 2.02535 1.7166
Si 13.3545 6.26083 1.98634
O 10.8168 5.07382 4.52247
O 13.869 0.818069 4.79141
O 12.446 2.24435 2.5898
O 14.3152 6.85472 3.01863
O 11.6134 0.971244 0.655833
O 13.5184 5.0168 1.09104
O 10.8042 3.42311 1.04218
O 13.3914 7.65842 0.922975
O 11.7043 6.18797 2.4149
O 14.8961 1.43409 2.42995
O 12.0263 7.48536 4.61482
O 14.0232 3.2579 4.35162
Si 0.100416 13.1016 0.215746
Si 2.37837 8.67034 16.3456
Si 1.23758 15.3168 3.75037
Si 3.90537 11.0309 3.69351
Si 1.52466 10.6648 1.79086
Si 3.58968 15.3098 1.69969
O 0.973852 13.9224 4.61618
O 3.55424 9.65896 4.53895
O 3.16987 10.813 2.1906
O 4.56967 15.2564 2.97062
O 1.2628 9.41744 0.862041
O 3.94184 13.8908 0.845793
O 0.956731 12.2198 1.24498
O 3.47127 16.7636 1.12613
O 2.11995 14.8418 2.38273
O 5.4353 10.6793 3.23771
O 1.3694 16.2406 5.01783
O 3.96374 12.5614 4.40294
Si 5.19667 13.2355 0.120692
Si 7.45618 8.79412 0.174539
Si 6.01521 15.348 3.69465
Si 9.28173 10.7044 3.75291
Si 6.52489 10.9983 1.91144
Si 8.53949 15.0944 1.88879
O 6.05885 14.0538 4.85054
O 8.92956 9.41169 4.63183
O 7.93926 10.7081 2.64938
O 9.68664 15.7129 3.13733
O 6.36945 9.85458 0.855133
O 9.0984 13.6934 1.1097
O 6.04854 12.4602 1.03862
O 8.47709 16.3527 0.775788
O 7.1648 14.853 2.7004
O 10.6025 10.5986 2.98246
O 6.32259 16.7894 4.49676
O 9.21503 11.8943 4.76906
Si 10.0331 12.9331 16.363
Si 12.5389 8.79904 0.23959
Si 11.0572 15.2271 3.69258
Si 14.1813 10.6667 3.90196
Si 11.8711 10.9746 1.79444
Si 13.6186 15.4753 2.01932
O 11.0603 13.8973 4.62575
O 13.856 9.20116 4.50625
O 13.1717 10.9727 2.6159
O 14.8042 15.9246 3.17025
O 11.5452 9.45935 1.17076
O 14.2543 14.0712 1.29302
O 11.0651 12.223 0.988494
O 13.6259 16.4205 0.762448
O 12.0795 15.063 2.4199
O 0.753075 10.1878 3.21161
O 11.847 16.3033 4.80945
O 13.9133 12.0211 4.91622
Si 14.7353 4.16681 5.45443
Si 2.68893 17.2521 5.48532
Si 1.06383 6.61965 9.14211
Si 3.58946 2.46544 8.86353
Si 1.01767 2.05203 7.33164
Si 3.6162 6.40198 7.19114
O 1.27459 5.53729 10.2589
O 3.61227 1.10183 9.95754
O 2.18568 2.67558 8.26991
O 4.52311 6.9573 8.28519
O 1.70357 0.777757 6.58666
O 3.91967 4.92347 6.67501
O 0.804749 3.22358 6.28197
O 3.51337 7.30965 5.92669
O 2.15088 6.53811 7.88473
O 5.03094 2.31301 7.93499
O 1.31149 8.18124 9.95729
O 3.58412 3.76379 9.8663
Si 4.93908 4.22132 5.42747
Si 7.46399 17.3177 5.65616
Si 5.96598 6.58844 9.01496
Si 8.75203 2.27983 9.42552
Si 6.57103 2.59587 7.33519
Si 8.60682 6.6602 7.32186
O 5.75009 5.10036 9.56467
O 7.86949 1.28131 10.4947
O 7.63145 2.8772 8.62944
O 9.74657 6.77967 8.45281
O 6.95112 1.12366 6.79751
O 8.94064 5.72004 6.06942
O 6.40673 3.63628 6.14941
O 8.26511 8.15564 6.88316
O 7.26581 6.15847 8.10219
O 10.0851 1.58987 8.89065
O 6.2164 7.57225 10.2696
O 9.28358 3.55199 10.4002
Si 9.90191 4.32149 5.78188
Si 12.7933 17.241 5.66173
Si 11.1538 6.47015 9.2744
Si 13.7823 2.45559 9.3917
Si 11.3003 2.14824 7.60123
Si 13.5545 6.14041 7.55056
O 11.0742 5.53211 10.5916
O 13.1325 1.48687 10.5478
O 12.4045 2.97218 8.56472
O 14.6007 6.67956 8.73495
O 11.8131 0.961411 6.69865
O 13.7186 4.82648 6.55405
O 10.8271 3.42413 6.7784
O 13.6506 7.47542 6.54631
O 12.1557 5.76639 8.2385
O 14.7978 1.54892 8.41611
O 11.6525 7.96823 9.73292
O 14.3577 3.88292 9.72263
Si 0.187393 12.977 5.61528
Si 2.538 8.46604 5.31569
Si 1.58815 15.2268 9.21342
Si 4.25713 10.6363 9.08342
Si 1.55195 10.7324 7.33628
Si 3.96994 15.4232 7.33994
O 1.50695 13.895 9.82456
O 3.85509 9.27354 9.93749
O 2.79114 11.0597 8.27349
O 5.30194 15.6728 8.15878
O 1.77397 9.43069 6.23822
O 3.92511 14.008 6.4309
O 1.27468 11.871 6.22376
O 3.92657 16.7742 6.39035
O 2.66262 15.2604 8.11537
O 5.24765 9.9698 8.02585
O 1.88409 16.4103 10.2812
O 4.43056 11.952 9.97205
Si 4.89672 13.1053 5.55253
Si 7.62568 8.77408 5.46619
Si 6.48277 15.1613 9.18464
Si 8.69423 10.7583 9.05667
Si 6.34151 10.9601 7.25984
Si 8.94051 15.0914 7.47229
O 6.07341 13.8536 9.9829
O 7.99091 9.36491 9.81397
O 7.48275 11.3067 8.16641
O 10.3193 15.7284 8.11614
O 6.79971 10.0789 5.95607
O 9.29597 13.764 6.5938
O 5.76453 12.2772 6.48849
O 8.14631 16.0239 6.46648
O 7.8826 14.5109 8.69714
O 9.89097 10.4747 7.85376
O 6.76516 16.5377 10.0372
O 9.37794 11.6795 10.2462
Si 10.3216 13.0055 5.56256
Si 12.8617 8.41932 5.44188
Si 11.2603 15.1088 9.21853
Si 13.7734 10.892 9.09256
Si 11.3442 10.688 7.14197
Si 14.0202 15.3499 7.68766
O 10.86 13.9696 10.4482
O 13.6684 9.66755 10.109
O 12.3248 11.1811 8.46018
O 0.332006 15.9002 8.31257
O 12.0405 9.41015 6.48967
O 14.4557 13.871 6.81493
O 11.3596 11.9292 6.17344
O 13.1922 16.2993 6.85327
O 12.9177 14.6855 8.88566
O 0.0854025 10.2117 8.04274
O 11.5967 16.5213 9.9716
O 14.4599 12.1967 9.75983
Si 14.9548 4.79753 11.0551
Si 2.94844 0.134418 11.1004
Si 1.01637 6.60062 14.7205
Si 3.91495 2.26649 14.8384
Si 1.61736 2.44351 12.8379
Si 3.60706 6.74004 12.9293
O 0.596197 5.90653 16.156
O 3.35847 0.691261 15.0316
O 2.88178 2.88454 13.7197
O 4.82312 7.55073 13.6677
O 1.98697 1.19537 11.9685
O 4.51248 5.72912 11.885
O 0.719822 3.66396 12.1397
O 2.70776 7.95254 12.0737
O 2.47834 6.03466 13.9321
O 5.36624 2.38265 14.2688
O 1.50986 8.15585 14.9722
O 3.93892 3.43193 15.8383
Si 4.77907 4.62424 10.7415
Si 7.25321 0.121851 11.3
Si 5.97321 6.8196 14.6811
Si 8.86744 2.61439 14.5529
Si 6.11568 2.39385 12.7074
Si 8.49935 6.22916 12.9887
O 5.14013 5.4618 14.9958
O 8.62031 1.31952 15.5005
O 7.58745 2.32789 13.3617
O 9.78884 7.17512 13.7396
O 6.18571 0.825293 12.3221
O 9.13957 4.94971 12.3679
O 5.59616 3.50218 11.5865
O 8.37903 7.36543 11.6527
O 7.23917 6.09707 13.8624
O 10.3098 2.33426 14.0324
O 6.44968 7.80407 15.7712
O 8.83885 3.84341 15.5801
Si 10.1639 4.37101 11.3419
Si 12.2658 0.171056 11.0847
Si 10.9721 6.73662 14.6462
Si 14.1489 2.31461 14.9116
Si 11.5245 2.16742 12.8642
Si 13.4528 6.41744 12.7044
O 10.7117 5.53084 15.6256
O 13.9653 1.08165 16.0418
O 12.8384 2.06545 13.8212
O 14.643 6.43953 13.8166
O 11.1727 0.871551 12.0554
O 13.6375 5.50437 11.4699
O 11.4972 3.513 11.9358
O 13.3686 7.87651 11.9265
O 11.9652 6.16227 13.4223
O 0.617378 2.08855 14.2028
O 11.4886 7.81358 15.6138
O 14.0463 3.84792 15.3185
Si 0.356643 13.1483 10.6479
Si 2.58319 8.76079 10.7
Si 1.42634 15.0788 14.6484
Si 4.0079 10.8594 14.6384
Si 1.61535 11.117 12.5644
Si 4.11205 15.0928 12.9939
O 1.08301 13.8371 15.6153
O 3.75029 9.71823 15.5424
O 3.07805 11.2395 13.2894
O 5.53018 15.503 13.5267
O 1.77416 10.1161 11.2512
O 4.41149 13.6756 12.0693
O 0.874078 12.4805 12.2565
O 3.81547 16.5325 12.0421
O 2.76649 14.8671 13.8858
O 5.5017 10.4295 14.1927
O 1.35326 16.4407 15.6006
O 4.27606 12.4041 15.3768
Si 5.22115 12.8453 11.0164
Si 7.40329 8.4063 10.8324
Si 6.55613 15.3789 14.7524
Si 8.97604 10.5906 14.6726
Si 6.6171 10.5302 13.0014
Si 8.78721 15.0252 12.8121
O 6.25426 14.45 16.0002
O 8.44981 9.23602 15.3999
O 8.08271 11.1476 13.4217
O 10.1361 15.4359 13.4512
O 6.65946 9.26683 11.9716
O 8.57521 13.8874 11.7286
O 6.35271 11.7202 11.9096
O 8.16232 16.4716 12.3265
O 7.86378 14.6359 14.0671
O 10.4478 10.344 14.1805
O 6.79063 16.8944 15.4156
O 8.98131 11.8473 15.7944
Si 9.82826 12.8851 11.192
Si 12.454 8.85171 10.8295
Si 11.464 14.9968 14.4202
Si 14.0756 10.6678 14.5242
Si 11.2589 10.7353 12.861
Si 13.8548 15.0691 12.5992
O 10.7962 13.8597 15.2503
O 13.3522 9.91425 15.8701
O 12.8671 10.8638 13.4956
O 0.373071 15.2707 13.2828
O 11.4455 9.66759 11.824
O 14.2953 14.2797 11.2564
O 10.6792 12.1731 12.4126
O 13.1827 16.6058 12.1679
O 12.6467 14.5713 13.5296
O 0.480465 10.4534 13.7635
O 11.8927 16.3231 15.3679
O 14.4782 12.0862 15.411
324
 Atoms. Timestep: 28500
Si 15.0376 4.44201 16.2942
Si 2.77988 0.123194 15.9878
Si 1.06096 6.49539 3.79573
Si 3.87094 2.20865 3.49553
Si 1.47662 2.29177 1.64219
Si 3.4229 6.79451 1.65443
O 1.25462 5.11302 4.91645
O 3.3276 0.814678 4.3485
O 2.87628 2.59836 2.36229
O 4.63047 7.26328 2.85876
O 1.90987 1.10603 0.630583
O 3.7983 5.56014 0.736499
O 1.20307 3.56197 0.580419
O 3.3038 8.33277 0.923076
O 2.07457 6.3054 2.47378
O 5.25225 1.63006 2.77171
O 1.4677 7.83103 4.57467
O 4.07222 3.44692 4.4249
Si 4.96888 4.43241 -0.020565
Si 7.4274 17.2645 16.2808
Si 5.94352 6.68292 3.55787
Si 8.86137 2.39696 3.87185
Si 6.28385 2.08147 1.68701
Si 8.37715 6.74438 1.84214
O 6.17013 5.07877 4.36276
O 8.67219 1.05884 5.03832
O 7.74508 2.22169 2.59703
O 9.51738 6.49283 3.11683
O 6.38224 1.25217 0.30157
O 8.8941 5.73759 0.644711
O 5.93904 3.74001 1.16533
O 8.30406 8.40341 1.36762
O 6.95815 6.09685 2.25639
O 10.2984 2.19161 3.25696
O 6.48762 7.56623 4.74554
O 8.65095 3.8813 4.71348
Si 9.73414 4.57771 16.4847
Si 12.505 0.33725 16.4769
Si 11.0258 6.46021 3.74419
Si 13.8751 2.3238 3.57992
Si 11.1625 2.33643 1.88079
Si 13.7727 6.43787 1.86738
O 11.1904 5.12863 4.75915
O 13.7489 1.13038 4.6239
O 12.6822 2.33676 2.55196
O 14.6302 6.77446 3.16154
O 11.2445 1.08233 0.826882
O 13.9453 5.23167 0.890098
O 10.6381 3.61499 1.05344
O 13.7833 7.70017 0.777227
O 12.2403 6.54002 2.58671
O 0.135307 1.76956 2.47649
O 11.1206 7.7756 4.82497
O 13.8178 3.75846 4.46977
Si 14.9668 13.2242 0.325372
Si 2.3468 9.10654 16.3368
Si 1.26834 15.2331 3.86243
Si 3.99054 10.7257 3.77596
Si 1.20138 11.1675 2.13408
Si 3.72553 15.405 1.84822
O 1.14125 13.8554 5.00712
O 3.36716 9.75502 4.83955
O 2.89062 10.9482 2.53969
O 4.9527 15.9664 2.82895
O 1.31385 10.0422 1.03072
O 3.83757 13.9165 1.19405
O 0.700195 12.6707 1.69863
O 3.6159 16.5826 0.69783
O 2.47492 15.5225 2.83895
O 5.4135 10.1846 3.1755
O 1.32934 16.5197 4.81797
O 4.36134 12.1221 4.57115
Si 4.70969 12.9023 0.161229
Si 7.38047 8.79612 16.5357
Si 6.24494 15.2369 3.50689
Si 8.85426 10.8337 3.29613
Si 6.33664 10.8583 1.79138
Si 8.70231 15.3932 1.92538
O 5.93036 14.097 4.47045
O 7.9748 9.55664 3.85871
O 7.76808 11.4407 2.0301
O 9.6558 15.6995 3.27914
O 6.34605 9.81 0.653927
O 9.57206 14.0635 1.44584
O 5.66001 12.1445 1.15419
O 8.37629 16.5678 0.878795
O 7.17663 15.0181 2.19334
O 10.3758 10.2283 2.82571
O 6.79912 16.2854 4.53841
O 8.93053 11.9246 4.60451
Si 10.3288 13.1852 0.129271
Si 12.5839 8.49435 16.4189
Si 10.9934 14.9655 3.82903
Si 13.8522 10.4854 3.84726
Si 11.5891 10.8909 1.76634
Si 13.5676 15.2561 1.87288
O 11.0099 13.6077 4.92846
O 12.8105 9.54841 4.65764
O 12.9048 10.9313 2.5643
O 14.9638 15.2904 2.89232
O 11.599 9.50649 0.621605
O 13.9434 14.4303 0.620739
O 11.2316 12.1932 0.965538
O 12.8766 16.6485 1.30207
O 11.9505 14.6552 2.51827
O 0.332628 10.3198 3.21611
O 11.8044 16.3137 4.47469
O 13.9957 11.7987 4.79932
Si 15.0639 4.23628 5.52363
Si 2.57135 -0.026926 5.53352
Si 1.14184 6.48697 8.9907
Si 3.56771 2.42393 9.14836
Si 1.18498 1.88326 7.51816
Si 3.76899 6.29077 7.4496
O 1.38746 5.41338 10.299
O 3.59567 0.938058 9.93748
O 2.28275 2.63897 8.38732
O 4.75686 7.01714 8.4851
O 2.08507 0.782372 6.76256
O 4.2405 4.89458 6.7385
O 0.860635 3.08196 6.37079
O 3.81972 7.53288 6.21761
O 2.37258 5.84033 8.1158
O 4.92096 1.88761 8.16746
O 1.51835 8.03578 9.69832
O 4.10933 3.62813 10.0655
Si 5.15776 4.21792 5.46331
Si 7.72344 17.0956 5.62206
Si 6.29614 6.92886 9.20382
Si 8.62431 2.09973 9.20349
Si 6.23673 1.84105 7.34573
Si 8.57827 6.93245 7.52486
O 5.94724 5.91736 10.489
O 8.885 1.12756 10.5183
O 7.28561 2.14641 8.6218
O 9.51788 7.45606 8.79271
O 6.59768 0.506753 6.56007
O 9.15084 5.53291 6.6089
O 6.1079 3.10169 6.30274
O 8.55812 7.751 6.12403
O 7.31531 6.1505 8.17129
O 9.84527 1.19498 8.16581
O 7.16891 8.44258 9.50396
O 9.14997 3.55582 9.70644
Si 9.94687 4.43758 5.68707
Si 12.5953 0.0314343 5.37446
Si 10.9154 6.85544 9.31402
Si 13.7507 2.11705 9.29166
Si 11.1574 1.95769 7.46769
Si 13.3413 6.05548 7.41123
O 10.7501 5.5725 10.3001
O 13.5834 1.21559 10.6654
O 12.1711 2.45798 8.68583
O 14.6561 6.38727 8.36351
O 11.6533 0.856558 6.49419
O 13.9671 4.73996 6.665
O 10.8329 3.4085 6.69324
O 13.4506 7.22163 6.28657
O 11.7703 6.19515 7.96088
O 14.8985 1.44693 8.14946
O 11.7839 8.19695 10.0057
O 14.6737 3.47077 9.68818
Si 0.0246722 12.7404 5.57887
Si 2.61163 8.47159 5.60475
Si 1.24874 15.3249 9.14104
Si 3.96057 10.484 9.20158
Si 1.29178 10.6341 7.41301
Si 3.84873 15.3103 7.48614
O 1.14355 14.06 10.0479
O 3.71472 9.16195 10.2628
O 2.23999 10.6134 8.7747
O 5.4376 15.2934 7.99378
O 1.39608 9.14291 6.64816
O 3.79074 13.7608 6.63641
O 0.935816 11.5824 6.17932
O 3.76497 16.4665 6.38232
O 2.77777 15.1446 8.63161
O 4.86319 10.2254 7.86922
O 1.39003 16.6189 10.0169
O 4.31843 12.0496 9.78824
Si 5.06804 13.2042 5.62782
Si 7.51882 8.67982 5.21023
Si 6.49806 15.0207 9.13891
Si 8.9588 11.0073 9.19356
Si 6.29956 10.8298 7.32044
Si 9.0055 14.8872 7.66349
O 5.79904 13.9106 9.98906
O 8.79322 10.2094 10.722
O 7.61621 11.2142 8.34851
O 10.0879 15.657 8.60989
O 6.81379 9.71314 6.23437
O 9.32417 13.5173 6.97081
O 6.1632 12.3118 6.55152
O 8.6421 16.0093 6.64487
O 8.03348 14.4002 8.91284
O 10.1242 10.2439 8.41077
O 6.91079 16.3896 9.89984
O 9.45384 12.4799 9.70571
Si 10.063 12.5745 5.61604
Si 12.3678 8.3616 5.70469
Si 11.5387 15.1234 9.34228
Si 13.7393 10.842 9.42584
Si 11.441 10.5526 7.55402
Si 13.9163 15.2015 7.13706
O 11.3572 13.9009 10.2809
O 13.8533 9.69973 10.5208
O 12.335 11.2414 8.68572
O 0.477532 15.5953 7.6903
O 11.6552 9.00999 7.14736
O 14.3356 13.6777 6.65074
O 10.8657 11.4199 6.30648
O 13.6854 16.3622 6.05228
O 12.7267 14.9919 8.26415
O 14.708 10.7793 8.22297
O 11.925 16.293 10.408
O 14.0196 12.1271 10.5003
Si 0.383261 4.40094 11.0229
Si 2.46616 -0.0161596 10.9443
Si 1.13851 6.55576 14.6644
Si 4.03025 2.2895 14.8021
Si 1.56494 2.35241 12.8598
Si 3.36913 6.30692 12.6438
O 0.887865 5.78074 15.9528
O 3.92154 0.639356 15.0667
O 2.96523 2.57863 13.5371
O 4.57966 6.98486 13.7583
O 1.74807 1.10171 11.9007
O 4.06323 5.14408 11.87
O 1.07434 3.67385 12.1802
O 2.44921 7.40614 11.9485
O 2.33652 5.77061 13.744
O 5.69129 2.13279 14.3146
O 1.46426 8.07293 15.3639
O 3.95136 3.55943 15.6297
Si 5.16077 4.45569 10.8906
Si 7.64274 17.3594 11.0522
Si 6.05998 6.56568 14.6732
Si 8.86224 2.2079 14.8064
Si 6.54731 2.2212 12.9424
Si 8.68837 6.52168 12.8171
O 5.94084 4.9821 15.2611
O 8.33766 0.785852 15.1743
O 8.08918 2.4508 13.2527
O 9.81182 6.82203 13.8997
O 6.45866 0.712237 12.2269
O 8.56719 5.08513 11.9767
O 6.3673 3.71209 11.8862
O 8.55098 7.82011 11.7121
O 7.38681 6.43062 13.7591
O 10.4703 2.22095 14.59
O 6.70857 7.68783 15.6612
O 8.43043 3.51175 15.8103
Si 9.84528 4.53083 11.0468
Si 12.5045 0.139056 11.3636
Si 11.1584 6.27715 14.5732
Si 13.9553 2.35278 14.3052
Si 11.2373 2.29305 12.9666
Si 13.6143 6.39021 12.8168
O 11.0089 4.97815 15.4127
O 13.499 1.29316 15.55
O 12.708 2.85153 13.3205
O -0.050669 6.96419 13.6993
O 11.5065 0.990444 12.247
O 14.1071 5.49833 11.4814
O 10.6891 3.34632 11.9126
O 13.0905 7.83429 12.2488
O 12.4013 5.82955 13.7529
O 0.399513 1.63722 13.8698
O 11.7094 7.35526 15.4842
O 14.3237 3.70082 15.112
Si 15.0104 13.2127 10.9977
Si 2.30088 8.59104 10.8285
Si 1.49221 14.9941 14.7362
Si 3.88749 11.0096 14.5295
Si 1.4722 11.1122 12.5312
Si 3.95489 15.1581 12.7393
O 1.08611 13.8754 15.829
O 3.48531 9.499 15.2305
O 3.00791 11.5832 13.0974
O 5.5083 15.3361 13.3972
O 1.33876 9.86411 11.4881
O 3.77788 13.8011 11.6343
O 0.934602 12.4784 12.0363
O 3.45735 16.2883 11.6944
O 2.94879 14.8994 13.9848
O 5.38303 10.7364 14.0838
O 1.42601 16.4455 15.4141
O 3.65145 11.9226 15.952
Si 5.01331 13.045 10.964
Si 7.80415 8.93279 10.9265
Si 6.30476 14.9027 14.7002
Si 8.98972 11.2449 14.7302
Si 6.55458 11.0663 12.9066
Si 8.88589 15.1492 12.9563
O 5.76485 13.7614 15.5913
O 8.35137 9.8641 15.5003
O 8.02653 11.5944 13.4679
O 10.4016 15.2895 13.7268
O 6.40076 9.67027 11.7742
O 9.00493 14.3228 11.6097
O 5.9551 12.5826 12.1524
O 8.56955 16.5509 12.0905
O 8.0047 14.7166 14.2737
O 10.5442 10.7965 14.3241
O 6.47594 16.0373 15.8436
O 9.15449 12.7247 15.5111
Si 10.1554 13.2822 11.0082
Si 12.6394 8.9037 11.15
Si 11.593 15.2612 14.7681
Si 14.0271 10.8498 14.7399
Si 11.4993 11.3223 13.0262
Si 13.8757 15.239 12.9501
O 11.2267 14.4462 16.0386
O 13.4658 9.39645 15.5114
O 12.97 11.6861 13.6744
O 0.454349 15.0468 13.5096
O 11.8739 10.1192 12.0905
O 14.0172 14.4113 11.4698
O 10.745 12.5826 12.396
O 13.3669 16.7037 12.5595
O 12.8407 14.2772 13.994
O 0.476644 10.9931 13.9822
O 11.9561 16.795 15.1809
O 14.357 11.8871 16.0008
324
 Atoms. Timestep: 29000
Si 14.7941 4.56981 0.263515
Si 2.58968 0.0874505 0.125247
Si 1.10733 6.46491 3.59388
Si 3.73927 2.41041 3.87247
Si 1.26989 2.19712 2.03328
Si 3.53664 6.3091 1.97513
O 0.874419 5.12267 4.50465
O 2.97312 0.921541 4.31045
O 2.76443 2.51265 2.58523
O 4.5876 6.65502 3.17256
O 1.47197 0.801377 1.07249
O 3.99589 5.31602 0.935226
O 0.545191 3.37361 1.04655
O 3.07972 7.6199 1.09296
O 2.11952 5.75525 2.51824
O 5.20345 1.8445 3.12376
O 1.89282 7.5195 4.4711
O 3.97064 3.52707 4.94739
Si 5.13792 4.40451 0.138521
Si 7.22349 17.2516 16.3921
Si 6.14065 6.61143 3.67187
Si 8.75394 2.27769 3.89756
Si 6.25153 2.09651 2.10103
Si 8.45722 6.46246 1.68319
O 6.24996 5.21308 4.69882
O 8.57818 1.09562 5.00108
O 7.78923 2.63471 2.62499
O 9.76368 6.70436 2.70193
O 6.62695 1.34364 0.680882
O 8.31818 5.09179 0.693787
O 6.05382 3.66825 1.32048
O 8.40206 7.74283 0.660099
O 7.20211 6.35313 2.48017
O 10.1688 1.94615 3.27296
O 6.34705 8.10222 4.53193
O 9.24687 3.6265 4.51637
Si 9.66368 4.09658 0.258199
Si 12.2754 0.418439 0.160857
Si 10.9543 6.70705 3.68208
Si 13.6379 2.2461 3.69854
Si 11.2028 2.44312 2.06183
Si 13.5844 6.81206 1.95612
O 11.1394 5.51138 4.69942
O 13.0561 0.837016 4.06659
O 12.7604 2.84128 2.50571
O 14.6922 7.24547 3.18895
O 11.1434 1.26226 0.99793
O 13.7757 5.35609 1.29134
O 10.585 3.88734 1.56781
O 13.639 7.9942 0.780341
O 12.1356 6.48076 2.71712
O 0.286215 1.97426 3.2849
O 11.4265 8.23419 4.1798
O 13.8408 3.23573 4.88663
Si 14.9606 12.9692 0.109582
Si 2.41352 8.74325 0.149233
Si 0.982707 15.1598 3.64665
Si 3.91598 10.7521 3.8325
Si 1.47035 11.0724 1.77197
Si 3.50287 15.3294 2.01017
O 0.908369 13.6218 4.14731
O 2.854 9.79322 4.71285
O 2.78402 11.308 2.70708
O 4.49644 15.4263 3.25664
O 1.27309 9.95677 0.605404
O 4.10312 14.333 0.869372
O 0.670934 12.3922 1.51986
O 3.49152 16.9173 1.29168
O 2.05935 15.1326 2.35924
O 5.13359 10.1971 3.08929
O 1.4166 16.1573 4.84669
O 4.31823 11.8406 4.9942
Si 4.85428 12.9698 0.121559
Si 7.58362 8.73087 16.2687
Si 6.0199 15.0086 3.71979
Si 8.58409 10.8448 3.8059
Si 6.16796 10.815 2.00791
Si 8.57755 15.0346 1.87638
O 5.91971 13.9479 4.89051
O 8.47444 9.86202 5.0514
O 7.49188 11.4156 2.8473
O 9.81429 15.7552 3.01328
O 6.5065 9.48925 0.84181
O 9.29694 14.029 0.847916
O 5.85959 11.9209 0.904439
O 7.91301 16.2024 1.02201
O 7.44937 14.4155 2.79
O 10.0943 10.2878 2.93137
O 6.63227 16.2577 4.56992
O 8.76653 12.5213 4.62236
Si 10.2604 13.0079 16.3511
Si 12.3606 8.56203 16.1166
Si 11.136 15.1069 3.64106
Si 13.8248 10.5997 3.46296
Si 11.1042 10.5849 1.84457
Si 13.7489 15.4429 1.75868
O 11.2326 13.8323 4.68019
O 13.6046 9.70378 4.73399
O 12.6188 11.0184 2.42501
O 14.6255 15.8951 3.10313
O 11.1617 9.41366 0.524883
O 14.3579 14.2626 0.894339
O 10.9107 12.0877 1.06979
O 13.3555 16.8784 1.07716
O 12.0911 15.0413 2.28422
O 0.177341 10.2264 2.59217
O 11.2145 16.3854 4.713
O 14.0311 11.9367 4.34006
Si 0.0907129 4.07256 5.58508
Si 2.44802 17.2393 5.50221
Si 1.37515 6.608 9.01698
Si 3.79687 2.30943 9.30973
Si 1.54939 2.12753 7.45632
Si 3.96447 6.44077 7.48276
O 1.07506 5.04201 9.92872
O 3.40115 1.47385 10.8226
O 2.6401 2.93723 8.45405
O 4.70814 7.11452 8.82785
O 2.13603 0.777886 6.86913
O 4.49693 5.16852 6.72792
O 1.30453 3.29442 6.29813
O 3.65588 7.53147 6.23213
O 2.56228 6.12899 8.16776
O 4.83181 1.52939 8.09868
O 1.68031 7.51032 10.4703
O 4.23743 3.7776 10.0732
Si 5.31187 4.25128 5.66455
Si 7.72181 17.1324 5.40107
Si 6.30397 6.793 9.39033
Si 8.78581 2.27536 9.01613
Si 6.29087 1.77663 7.21755
Si 8.70027 6.36893 7.1615
O 6.17661 5.33117 10.2117
O 8.80932 0.862622 9.963
O 7.41117 2.25135 8.21455
O 10.1709 6.97186 7.9356
O 6.63979 0.439825 6.48602
O 9.13142 4.89176 6.63263
O 6.19065 3.0825 6.29688
O 8.39648 7.20862 5.79502
O 7.67589 6.45396 8.38791
O 9.67511 1.96159 7.65778
O 6.81645 7.83193 10.5263
O 8.92296 3.57095 9.9658
Si 10.1868 4.37113 5.42976
Si 12.3934 17.3152 5.20507
Si 11.3036 6.57747 8.94418
Si 13.6931 2.25944 9.09407
Si 11.2244 2.04397 7.19797
Si 14.0445 6.56503 7.20903
O 11.1066 5.17285 9.7263
O 13.9245 0.890545 10.0344
O 12.3086 2.20328 8.45346
O 0.46123 7.14847 7.73987
O 11.9786 0.817285 6.45474
O 14.0622 4.96486 6.74236
O 11.2367 3.39498 6.21702
O 13.783 7.62788 5.9406
O 12.667 6.58476 8.16272
O 0.022169 1.75843 7.94879
O 11.2307 7.70877 10.2624
O 13.8253 3.662 9.89721
Si 14.8865 12.9227 5.28725
Si 2.59195 8.50307 5.56657
Si 1.3731 15.0853 9.17643
Si 3.70196 11.064 9.14035
Si 1.19302 10.9207 7.29484
Si 3.97254 15.2876 7.4191
O 0.94438 13.8627 10.0872
O 3.18537 9.57647 9.99431
O 2.33602 11.6498 8.23492
O 5.34915 15.9983 8.00515
O 1.64625 9.43962 6.64147
O 4.46545 13.7183 7.06783
O 0.973315 12.0748 6.05662
O 3.69868 16.1504 6.07018
O 2.77165 14.7979 8.38506
O 4.8305 10.4601 7.9854
O 2.31598 16.2739 10.0582
O 4.20433 11.9707 10.3073
Si 5.19092 12.9382 5.87354
Si 7.56572 8.5396 5.58184
Si 6.38326 15.3287 9.21082
Si 8.81194 10.7963 9.26474
Si 6.40857 10.6965 7.57158
Si 9.0013 15.1795 7.265
O 5.38475 14.0724 9.81932
O 8.43638 9.64043 10.3928
O 7.28802 11.2901 8.84927
O 10.1963 15.8259 8.3006
O 6.95298 9.30976 6.97338
O 9.38689 13.6761 6.84866
O 6.25484 11.7405 6.35775
O 9.11924 16.1299 5.8601
O 7.68141 15.2063 8.1702
O 9.61276 10.4082 7.86946
O 6.97324 16.3062 10.247
O 9.54241 12.2423 9.90273
Si 10.1176 12.9047 5.40705
Si 12.5415 8.66139 5.39354
Si 11.6813 15.4256 9.15408
Si 13.5422 10.7325 9.1584
Si 11.1068 10.7247 7.23529
Si 14.1758 15.4804 7.05807
O 11.4452 13.9787 9.8049
O 13.2961 9.3861 10.0654
O 12.1779 11.046 8.38249
O 0.637028 15.756 7.79973
O 11.473 9.34138 6.52949
O 14.3772 14.0535 6.30697
O 11.1516 11.8405 5.94007
O 13.77 16.5499 5.68485
O 12.9856 15.3988 8.10909
O 14.7782 10.687 8.02123
O 11.9821 16.5681 10.3065
O 13.9611 12.0472 10.1193
Si 0.0604583 4.28724 10.9585
Si 2.44584 0.113247 11.2189
Si 1.28766 6.78126 14.8261
Si 3.68774 2.3282 14.6829
Si 1.11173 2.23645 12.9558
Si 3.87465 6.40811 12.8713
O 0.774754 5.63232 15.907
O 3.25208 0.996548 15.4524
O 2.65756 2.86326 13.5597
O 5.11589 6.58071 13.9408
O 1.17175 0.827217 12.0306
O 3.95363 5.18619 11.7999
O 0.684707 3.1228 11.8345
O 3.88355 7.84372 12.0088
O 2.731 6.27601 14.0055
O 5.08835 2.02396 13.5573
O 1.44764 8.19617 15.5901
O 4.09651 3.63764 15.5303
Si 5.34489 4.36782 11.1191
Si 7.72043 0.117451 10.8449
Si 6.56847 6.11418 14.7024
Si 8.8675 1.82471 14.637
Si 6.54191 2.3372 13.0078
Si 8.77303 6.64434 12.663
O 6.14769 4.93343 15.5808
O 8.46131 0.435678 15.3213
O 7.75873 2.78135 13.9226
O 10.0592 6.56851 13.5673
O 6.74471 1.35018 11.7161
O 9.12161 5.91445 11.3016
O 6.33592 3.75296 12.2426
O 8.39972 8.23932 12.5195
O 7.79331 5.59974 13.6269
O 10.0772 1.93852 13.5737
O 7.16992 7.57542 15.1916
O 9.34434 2.76389 15.8672
Si 10.0738 4.65869 10.9038
Si 12.9358 0.220535 11.118
Si 11.1943 5.81052 14.393
Si 13.7318 2.47928 14.7972
Si 11.3724 2.29377 12.6434
Si 13.7245 6.47653 12.9465
O 10.7592 4.62892 15.4288
O 13.1879 1.56905 15.9748
O 12.6478 2.5675 13.5619
O 0.149185 6.74343 13.7108
O 12.0832 1.56491 11.3077
O 14.1827 5.24829 11.8477
O 10.9111 3.91921 12.109
O 13.1151 7.74117 12.1832
O 12.7704 5.40643 13.6947
O 0.276086 2.01709 14.2957
O 11.5559 7.33442 15.1643
O 13.7573 4.0634 15.5186
Si 14.7883 12.9891 11.0613
Si 2.66469 8.56022 11.1907
Si 1.61359 14.8467 14.9178
Si 3.88727 11.016 14.7858
Si 1.31114 10.9001 12.8395
Si 3.65288 15.2038 12.9682
O 1.06294 13.4307 15.4869
O 3.64247 9.64994 16.0115
O 2.81927 11.1222 13.4382
O 5.24322 15.3055 13.2205
O 1.68187 9.62141 11.8792
O 3.59962 14.0507 11.7638
O 0.838803 12.0503 11.7814
O 3.12343 16.7382 12.5697
O 3.09405 14.4607 14.2947
O 5.41509 11.1517 14.5148
O 1.70248 16.081 15.9723
O 3.6581 12.2452 15.9116
Si 4.93039 13.3048 11.1348
Si 7.32312 9.0128 11.5372
Si 6.34794 15.0486 14.5113
Si 9.03066 10.9739 14.5435
Si 6.35747 11.3112 13.1524
Si 8.93818 15.3507 12.9659
O 5.68089 14.0327 15.5029
O 8.34114 9.88834 15.4547
O 8.09676 11.2939 13.3082
O 10.2792 15.7329 13.9446
O 6.17068 9.77473 12.45
O 9.35785 14.3387 11.6836
O 5.89726 12.8486 12.3767
O 8.45799 16.6161 12.1247
O 7.87978 14.5569 13.9544
O 10.3582 10.6272 13.8365
O 6.23451 16.3589 15.4423
O 9.17374 12.2029 15.5694
Si 10.3343 13.316 10.852
Si 12.3369 8.59585 11.0701
Si 11.3587 15.4805 14.9938
Si 13.8457 10.7725 14.6068
Si 11.4564 11.0308 12.6693
Si 13.9816 15.4311 13.1313
O 11.3833 13.8431 15.6125
O 13.4929 9.2055 15.2566
O 12.97 11.243 13.2741
O 0.599312 15.6333 13.7786
O 11.3534 9.54032 11.8409
O 13.9436 14.2784 11.8955
O 11.327 12.3844 11.6622
O 13.6492 16.7274 12.3034
O 12.959 15.406 14.4057
O 0.313198 10.7706 14.1617
O 11.2531 16.7799 15.8209
O 13.9255 11.959 15.8535
324
 Atoms. Timestep: 29500
Si 0.130782 4.4858 0.122115
Si 2.60971 17.2216 0.34333
Si 0.958915 6.62237 3.91075
Si 4.02987 2.12003 4.00155
Si 1.52364 2.18824 2.05726
Si 3.56039 6.58798 2.03023
O 0.312834 5.16444 4.26428
O 3.80425 1.02525 5.20461
O 2.84844 2.32163 2.88092
O 4.62191 6.79242 3.30925
O 1.72886 0.717642 1.41142
O 4.00782 5.53148 0.793425
O 1.28745 3.47662 0.915434
O 3.61903 8.06759 1.30644
O 2.12481 6.30902 2.81285
O 5.36346 1.79224 3.03436
O 1.90323 7.19753 4.95775
O 4.16929 3.55186 4.60451
Si 5.07943 4.536 0.177882
Si 7.45656 17.3474 0.196694
Si 6.15119 6.48385 3.6426
Si 8.93789 2.04922 3.73315
Si 6.40747 2.23501 1.95031
Si 8.59832 6.56634 1.8709
O 6.19625 5.04548 4.63714
O 8.38557 1.14198 4.90552
O 7.92036 2.27793 2.4786
O 9.56399 7.02177 3.15278
O 6.5076 1.31318 0.603216
O 9.08391 5.13754 1.29295
O 5.79082 3.78719 1.32817
O 8.58469 7.8344 0.868718
O 7.18457 6.67409 2.30701
O 10.3642 1.74361 3.12042
O 6.48789 7.81939 4.60414
O 8.85192 3.52653 4.72182
Si 9.96843 4.2701 0.116201
Si 12.6653 0.121872 16.4704
Si 11.0242 6.68727 3.83499
Si 13.8792 2.18816 3.9275
Si 11.5637 2.36795 2.00454
Si 13.6475 6.80923 1.9434
O 10.8258 5.61244 5.03812
O 13.5514 0.631961 4.27544
O 12.8793 3.00143 2.8119
O 14.6361 7.23973 3.13536
O 11.9509 1.13152 1.05694
O 14.2521 5.7609 0.726721
O 10.9405 3.51241 1.17581
O 13.1483 8.14166 1.26263
O 12.3049 6.16861 2.81366
O 0.341319 2.33078 3.1345
O 12.0087 7.97685 4.50127
O 14.1038 3.1238 5.12673
Si 14.5974 13.287 16.2679
Si 2.58114 8.79254 16.4627
Si 1.33682 15.1754 3.69509
Si 3.64874 11.0603 3.55028
Si 1.24675 11.2684 1.92183
Si 3.93516 15.351 2.064
O 1.18559 14.0437 4.75835
O 3.50519 9.53806 4.41255
O 2.14449 11.8009 3.23351
O 4.7332 15.51 3.36966
O 1.74391 10.0753 0.752756
O 4.79196 14.4695 0.782803
O 0.476523 12.3281 0.890411
O 3.87982 16.6467 1.18487
O 2.44418 14.6622 2.49184
O 4.66585 10.4765 2.39168
O 1.85547 16.6315 4.20132
O 4.28037 12.5022 4.26176
Si 5.37465 13.1338 16.3963
Si 7.61224 8.76498 16.3321
Si 6.32473 15.3244 3.94368
Si 8.65452 10.5885 3.79661
Si 6.19023 11.0077 1.76612
Si 8.66815 15.2036 1.9147
O 6.49282 13.9528 4.95821
O 8.59032 9.36318 4.78897
O 7.38698 10.7107 2.78677
O 9.68354 15.2858 3.16557
O 6.48134 9.61581 0.772516
O 8.66696 14.0047 0.864181
O 6.4125 12.295 0.852099
O 8.48003 16.8183 1.37965
O 7.24417 14.9399 2.55691
O 10.0772 10.6853 2.94931
O 6.5585 16.8641 4.57757
O 8.78784 12.1207 4.73948
Si 9.75775 13.0508 16.3964
Si 12.2607 8.78807 -0.00315253
Si 11.1142 14.9973 3.6548
Si 13.7842 11.0014 3.74021
Si 11.2142 10.9694 1.99741
Si 13.5875 15.4123 1.82717
O 11.0095 13.5004 4.29489
O 13.6535 9.97966 5.12058
O 12.547 11.4451 2.70613
O 14.9951 15.2134 2.64916
O 11.4127 9.77589 0.966011
O 13.6362 13.9107 1.05531
O 10.6318 12.2426 1.15942
O 13.8906 16.65 0.810119
O 12.0025 15.4604 2.31392
O 0.00605671 10.4525 2.72211
O 11.5585 15.9545 4.9755
O 13.8229 12.5515 4.46528
Si 0.213044 4.21029 5.61979
Si 2.72952 17.1346 5.55725
Si 1.42799 6.66756 9.36499
Si 3.55064 2.04105 9.37551
Si 1.34832 2.09265 7.21202
Si 4.09869 6.76048 7.42006
O 0.850214 5.19007 9.63838
O 3.3937 0.449441 9.9913
O 2.34856 2.41099 8.43599
O 5.42002 6.98204 8.26779
O 1.8055 0.770369 6.57471
O 4.15553 5.21796 6.60751
O 1.3452 3.26779 6.09773
O 3.8926 7.61471 6.11439
O 2.6978 6.47085 8.3842
O 4.84204 1.93368 8.19665
O 1.53004 7.28082 10.8636
O 3.77516 3.12012 10.4954
Si 5.09077 4.336 5.62023
Si 7.5427 0.112255 5.65039
Si 6.48852 6.35324 9.47934
Si 8.8237 2.13905 9.13697
Si 6.23365 2.28454 7.5345
Si 9.14731 6.64409 7.65691
O 5.89868 4.82004 9.90393
O 8.29154 0.684695 9.74202
O 7.45549 2.7228 8.44099
O 10.6484 7.12764 8.16862
O 6.52477 0.837156 6.78627
O 8.92122 5.10697 6.89312
O 6.13509 3.40585 6.28236
O 8.56971 7.67738 6.60243
O 8.12849 6.44269 8.99728
O 9.66313 1.88626 7.71539
O 6.3228 7.49987 10.5007
O 9.27912 3.02171 10.382
Si 9.84001 4.40587 5.69376
Si 12.5643 17.161 5.32086
Si 11.6281 6.36407 9.19252
Si 13.6228 2.36511 9.12652
Si 11.1009 2.00647 7.0596
Si 14.1877 6.49903 7.49563
O 10.8883 4.83053 9.56
O 13.3543 0.911559 9.92646
O 12.3688 2.28607 7.95874
O 0.598595 7.29039 8.00202
O 11.3057 0.829041 6.01148
O 14.7953 5.15508 6.89634
O 11.0777 3.40806 6.19216
O 13.5285 7.4784 6.33382
O 13.0992 6.10564 8.57337
O 14.9277 2.00833 7.98866
O 11.7112 7.47436 10.3314
O 13.9299 3.36523 10.2974
Si 15.0176 13.1823 5.46246
Si 2.71667 8.51331 5.52763
Si 1.19145 15.1167 9.28734
Si 3.44674 10.8836 9.13143
Si 1.18402 10.7705 7.18515
Si 3.85563 14.8827 7.5707
O 0.901931 13.5264 9.90477
O 3.30655 9.68107 10.162
O 2.24958 11.3458 8.05544
O 5.16483 15.1821 8.54471
O 1.81215 9.52114 6.45138
O 4.41303 13.6973 6.66607
O 0.728749 11.83 6.02476
O 3.46985 15.8597 6.2671
O 2.66749 14.9988 8.59364
O 4.77698 10.4957 8.10411
O 1.30605 16.0754 10.5176
O 3.77043 12.1981 9.88372
Si 5.28882 12.9363 5.47006
Si 7.56506 8.58388 5.65054
Si 6.47375 14.8876 9.45994
Si 8.62489 10.695 9.21029
Si 6.09092 10.6534 7.22716
Si 8.8343 15.0879 7.19458
O 6.37732 13.4892 10.2301
O 8.66259 9.18988 9.91921
O 7.13855 10.7935 8.4635
O 10.0041 15.8138 8.1235
O 6.73317 9.41724 6.62268
O 9.39099 13.9094 6.32516
O 6.13957 11.6329 5.92131
O 7.97568 16.0463 6.08357
O 7.73778 15.076 8.65107
O 9.89452 10.5237 8.18257
O 6.39016 16.3071 10.7272
O 8.86954 11.9169 10.333
Si 10.043 12.7877 5.3751
Si 12.7546 8.68416 5.69938
Si 11.1709 15.2558 9.02637
Si 13.6114 10.9029 9.31394
Si 11.261 10.7939 7.44783
Si 13.7615 15.303 7.45493
O 10.6638 14.0638 9.9805
O 13.3142 9.38808 9.65998
O 12.1798 11.4507 8.7369
O 14.9124 15.6072 8.40915
O 11.858 9.36727 6.98152
O 14.4676 14.0702 6.77539
O 11.051 11.713 6.16798
O 13.3133 16.606 6.5917
O 12.3875 14.7372 8.11921
O 14.7804 10.7332 8.13614
O 11.5015 16.3936 10.0403
O 13.9996 11.7827 10.6544
Si 14.9702 4.58441 10.8279
Si 2.27406 17.3015 11.0157
Si 1.59866 6.53676 14.3999
Si 3.5741 2.08872 14.6468
Si 1.1256 2.60516 12.7796
Si 3.93301 6.6034 12.5796
O 1.00745 5.11614 15.2461
O 2.94584 0.868592 15.4357
O 2.38383 3.02988 13.9333
O 5.33779 6.81887 13.5606
O 1.48232 1.2223 11.7778
O 4.06157 5.67999 11.2062
O 0.898578 3.74902 11.7566
O 3.56549 8.14867 12.3095
O 2.63117 6.07283 13.3207
O 4.61798 1.55204 13.4852
O 1.7645 7.66876 15.5174
O 4.46429 3.3044 15.4443
Si 4.87386 4.22301 10.9897
Si 7.47603 0.115511 10.9606
Si 6.41439 6.34154 14.4989
Si 8.67896 2.19753 14.7751
Si 6.01974 2.17415 12.9047
Si 8.99225 6.43582 12.7416
O 5.91021 5.23876 15.4153
O 8.64005 0.901784 15.7157
O 7.15542 2.44965 14.0887
O 10.3122 6.92356 13.3971
O 6.5365 1.62763 11.4338
O 9.18689 5.51802 11.5442
O 5.351 3.5419 12.4396
O 8.31563 7.9508 12.2073
O 7.94419 5.9563 13.8641
O 9.58829 2.05758 13.3953
O 6.90927 7.77477 15.2605
O 8.92368 3.50602 15.7287
Si 10.033 4.33339 10.8984
Si 12.5459 17.2889 10.8711
Si 11.2681 6.50625 14.6703
Si 13.5782 2.38632 14.7006
Si 11.1525 2.40509 12.808
Si 13.8935 6.76176 12.8884
O 10.7928 5.04649 15.4142
O 13.0357 0.88002 15.1365
O 12.1475 3.01637 14.1796
O 0.38753 6.8906 13.4557
O 11.7687 1.01582 11.9712
O 13.9823 5.6315 11.5873
O 11.1688 4.04539 12.003
O 13.4884 8.23503 12.175
O 12.8394 6.4118 13.9212
O 14.5543 2.46654 13.3989
O 11.3792 7.49526 15.9363
O 14.1022 3.31982 16.035
Si 0.132679 12.922 11.2222
Si 2.42188 8.74967 11.2318
Si 1.47162 15.3285 14.5698
Si 4.1133 10.7367 14.4095
Si 1.26008 10.8076 13.0828
Si 4.08522 15.2289 12.6558
O 0.639235 13.896 15.2522
O 3.59081 9.54795 15.3695
O 2.77791 11.227 13.6764
O 5.55005 15.1894 13.3253
O 1.38065 9.7111 11.7617
O 4.01136 14.2094 11.4528
O 1.17087 12.2669 12.2056
O 3.34299 16.6089 12.0862
O 2.81027 14.8045 13.8664
O 5.45385 10.1102 13.7026
O 1.47382 16.3075 15.9325
O 4.59766 12.0626 15.2193
Si 4.88523 12.9857 10.8927
Si 7.48512 8.6912 10.9868
Si 6.70998 15.0411 14.5022
Si 8.89043 10.7844 14.6229
Si 6.43207 10.9201 12.6622
Si 9.03976 15.4118 12.7671
O 6.3594 13.8148 15.2884
O 8.61288 9.59661 15.5282
O 7.96286 11.3198 13.2367
O 10.6844 15.3633 13.2087
O 6.5738 9.75937 11.6142
O 8.73432 14.1431 11.7496
O 5.516 12.2057 12.2167
O 8.6262 16.8704 12.161
O 8.21743 14.8653 14.0668
O 10.2528 10.5902 13.6962
O 6.67885 16.4472 15.3868
O 8.90419 11.9138 15.7263
Si 9.77225 13.1202 10.9318
Si 12.3363 8.76367 11.0937
Si 11.6069 15.0545 14.65
Si 13.6957 10.9049 14.6054
Si 11.3009 11.2001 12.6444
Si 14.1129 15.3885 12.9142
O 10.8317 13.5255 15.2865
O 13.1742 9.56163 15.5561
O 12.7841 11.2989 13.2465
O 0.554591 16.0627 13.34
O 11.1876 9.79377 11.5088
O 14.2719 13.9765 12.1949
O 10.9153 12.5294 11.8927
O 13.5291 16.3361 11.7933
O 13.2202 15.0034 14.2871
O 0.102197 10.4285 14.2304
O 11.5159 16.3198 15.807
O 13.7456 12.2453 15.4064
324
 Atoms. Timestep: 30000
Si 0.169577 4.22616 0.215228
Si 2.34248 17.1202 16.1911
Si 1.2992 6.46787 3.63021
Si 3.93346 2.2295 3.60156
Si 1.44069 2.03632 1.79379
Si 3.79673 6.63691 1.87737
O 1.24931 5.12208 4.66148
O 3.55632 1.35271 4.8815
O 2.96186 2.02889 2.37873
O 5.13772 6.9519 2.99773
O 1.38502 0.85835 0.660889
O 4.033 5.56552 0.825059
O 1.33012 3.72656 1.22413
O 3.53764 8.14598 1.3473
O 2.38809 6.12916 2.44657
O 5.44689 1.75532 2.93815
O 2.02835 7.87701 4.31404
O 3.98733 3.62514 4.16886
Si 4.95096 4.50766 16.3774
Si 7.56335 0.410326 0.170339
Si 6.41053 6.49343 3.76856
Si 9.11171 2.28868 3.54534
Si 6.40063 2.56289 1.83867
Si 8.87369 6.88807 1.72082
O 6.23382 4.9611 4.39173
O 8.24203 1.27737 4.48651
O 7.99369 2.6918 2.31318
O 9.89247 7.28005 2.90537
O 6.40683 1.43028 0.671375
O 9.71266 5.83443 0.903981
O 5.76804 3.78214 1.14086
O 8.5367 8.26755 0.91169
O 7.62772 6.46118 2.70823
O 10.3815 1.52952 2.91305
O 6.53365 7.91057 4.71106
O 9.41661 3.75559 4.23989
Si 10.1859 4.68026 16.3158
Si 12.7079 17.1906 16.4072
Si 11.2228 6.78984 3.70514
Si 13.8557 2.05022 3.6486
Si 11.4693 2.2805 1.67904
Si 13.6394 6.55356 1.95244
O 11.1771 5.54928 4.85763
O 13.3195 0.712159 4.54585
O 12.8932 2.46385 2.46739
O 14.7198 7.0394 3.03234
O 11.7507 0.904463 0.851435
O 14.2218 5.35135 1.03551
O 10.9155 3.38161 0.773492
O 13.3627 7.70668 0.833373
O 12.3845 6.34866 2.82243
O 0.269615 1.58701 2.87325
O 11.4263 8.27906 4.64614
O 13.6994 3.55194 4.57462
Si 14.8842 12.7121 16.2771
Si 2.50443 8.55157 0.246186
Si 1.39578 15.2366 3.57501
Si 3.78719 10.723 3.5483
Si 1.19853 10.8174 1.81147
Si 3.62752 14.8888 1.77814
O 1.11711 14.3349 4.89103
O 3.61045 9.82764 4.90678
O 2.34404 10.9156 2.86064
O 5.0106 15.3208 2.64043
O 1.25408 9.3455 1.07193
O 3.91719 13.4708 0.811993
O 1.03167 11.6398 0.403867
O 3.12855 16.0661 0.75
O 2.38796 14.3707 2.68456
O 5.11428 10.3386 2.60891
O 2.11103 16.5122 4.2545
O 4.08631 12.1809 4.29228
Si 5.1584 12.8543 0.113321
Si 7.38785 8.77835 16.2342
Si 6.25713 15.2826 3.75137
Si 8.75203 10.487 3.98081
Si 6.47103 10.8642 1.92783
Si 8.84356 15.6555 1.94808
O 5.56432 14.2566 4.70362
O 8.9767 9.15983 5.07133
O 7.29749 10.5406 3.29081
O 10.2445 16.2039 2.66585
O 6.4675 9.93899 0.627631
O 8.82261 14.576 0.820985
O 6.29765 12.4469 1.37123
O 8.47619 17.2043 1.45106
O 7.52885 14.9694 2.67206
O 9.60658 10.6666 2.61178
O 6.54463 16.8068 4.45232
O 8.88426 11.9613 5.00867
Si 9.7238 13.3122 16.3594
Si 12.6261 8.81543 16.2951
Si 11.1558 15.2411 3.75296
Si 13.6126 11.2032 3.53906
Si 11.1336 11.156 1.92689
Si 13.7576 14.9043 2.01335
O 10.3475 13.9158 4.38624
O 13.2221 10.1744 4.77735
O 12.1455 11.6729 3.11455
O 0.0652708 15.4462 2.84986
O 11.8844 9.9667 0.957617
O 14.295 13.7244 1.04366
O 10.5508 12.4884 1.10243
O 13.2976 16.3822 1.25542
O 12.4313 14.5709 2.95062
O 14.6861 10.3943 2.61689
O 11.5715 16.1342 4.99837
O 14.3526 12.5497 4.1932
Si 14.8963 4.34689 5.35167
Si 2.66835 0.260692 5.49881
Si 1.50541 6.569 9.03694
Si 3.51237 2.05606 9.20813
Si 1.0237 2.06825 7.36315
Si 4.20246 6.66218 7.20346
O 1.33724 5.30699 10.071
O 3.57886 0.548577 9.94861
O 2.31104 2.42438 8.28765
O 5.63396 7.03647 7.79954
O 1.39968 0.723579 6.55554
O 4.21194 5.46177 6.07697
O 0.86056 3.35034 6.22729
O 3.53398 7.82323 6.47922
O 2.97765 6.04446 8.23133
O 4.81607 1.75252 8.1113
O 1.48632 7.8125 10.1592
O 3.77743 3.10858 10.3534
Si 5.01285 4.31629 5.30328
Si 7.64886 0.253143 5.44694
Si 6.42588 6.1433 8.98259
Si 8.68849 1.99766 9.22408
Si 6.19842 2.20135 7.47057
Si 8.80951 6.46621 7.39466
O 5.46573 5.04179 9.67265
O 8.3211 0.629602 10.0814
O 7.30645 2.80405 8.66049
O 10.1298 6.98526 8.2683
O 6.7763 0.79541 6.86652
O 8.77708 5.45426 6.10402
O 5.91112 3.52187 6.36085
O 7.88699 7.79926 6.90764
O 7.94934 5.76974 8.51729
O 9.80891 1.72774 8.12345
O 6.37072 7.3348 10.0108
O 9.09694 3.02444 10.5242
Si 10.1354 4.40061 5.53675
Si 12.6631 17.104 5.78355
Si 11.3449 6.58996 9.24764
Si 13.6192 2.25967 9.38919
Si 11.261 2.16842 7.61632
Si 13.9961 6.71739 7.17469
O 10.9629 5.0638 10.0277
O 13.0025 1.04775 10.3173
O 12.2132 2.80953 8.82893
O 0.443679 6.97724 7.8084
O 11.8092 0.858329 6.96512
O 14.2936 5.37642 6.23097
O 10.9945 3.51137 6.57171
O 13.5504 7.82881 6.05698
O 12.7836 6.64668 8.31914
O 14.6201 1.64348 8.08815
O 11.4929 7.83877 10.1526
O 14.2338 3.62456 9.95766
Si 0.255682 13.0918 5.46765
Si 2.55903 8.71828 5.66318
Si 1.3964 15.0572 9.56932
Si 3.83136 10.6346 9.24269
Si 1.20563 10.9391 7.4105
Si 3.66768 15.0735 7.34986
O 1.1001 13.5381 10.0362
O 3.78651 9.32247 10.2056
O 2.45835 11.2902 8.31314
O 4.9672 14.7054 8.22122
O 1.49577 9.48908 6.67752
O 3.34163 13.7926 6.35185
O 1.17561 12.1503 6.30886
O 3.57575 16.5368 6.42715
O 2.58712 14.9289 8.60256
O 4.93167 10.3559 7.97819
O 1.74235 16.0317 10.7281
O 4.14231 12.0376 10.22
Si 4.54213 13.0649 5.38957
Si 7.47686 8.71646 5.68313
Si 6.20669 14.9451 9.10065
Si 8.61213 10.7647 9.12548
Si 6.06359 11.1043 7.12986
Si 8.93293 15.1486 7.34733
O 6.03855 13.7376 10.1666
O 8.33117 9.16647 9.66208
O 7.24089 11.1658 8.43256
O 10.165 15.8435 8.25762
O 6.71749 10.0686 6.06525
O 9.50337 13.7567 6.85937
O 5.54854 12.5219 6.57308
O 8.28918 16.1284 5.9876
O 7.4985 14.9881 8.32442
O 9.96846 10.6774 8.36063
O 6.13489 16.4578 10.0562
O 8.83859 11.6294 10.5263
Si 10.0399 12.8764 5.50895
Si 12.5721 8.96439 5.59343
Si 11.1339 15.165 9.47435
Si 13.7047 10.7384 9.25713
Si 11.5187 10.8882 7.48233
Si 13.8961 14.9785 7.76109
O 10.5943 13.6402 9.88802
O 13.4375 9.38143 9.99502
O 12.3874 11.4413 8.7636
O 0.30682 15.6614 8.44201
O 11.8244 9.49294 6.95947
O 14.044 13.6794 6.74658
O 11.3006 12.0009 6.31432
O 13.3968 16.1792 6.83891
O 12.6856 14.8346 8.90162
O 14.7366 10.5572 8.0522
O 11.2967 16.1231 10.6464
O 14.3123 11.7615 10.3636
Si 0.180688 4.76497 10.9338
Si 2.68689 17.3331 11.1097
Si 1.41855 6.46747 14.8346
Si 3.59956 2.23361 14.6578
Si 1.2196 2.28451 12.7047
Si 3.9154 6.7187 12.85
O 0.978308 5.01962 15.3637
O 3.60446 0.735367 15.3563
O 2.34835 2.59778 13.8468
O 5.52 6.72902 13.4048
O 1.51845 1.0653 11.6452
O 3.85393 5.35577 11.9172
O 0.84886 3.73702 12.0573
O 3.22897 8.09042 12.3541
O 2.92854 6.43564 14.1474
O 4.97765 2.17911 13.8183
O 1.60747 7.28632 16.285
O 3.68632 3.41221 15.8161
Si 4.78767 4.32372 10.9446
Si 7.16219 17.3068 10.9676
Si 6.39688 6.25777 14.6298
Si 8.58935 2.58254 14.7013
Si 6.18745 2.3919 12.8253
Si 8.93453 6.55335 12.8799
O 6.16565 4.78013 15.2147
O 8.37548 1.1496 15.3411
O 7.45919 2.89825 13.751
O 10.6449 6.81219 13.2826
O 6.30658 1.07186 11.9142
O 8.93775 4.96831 12.0645
O 6.00514 3.66281 11.8116
O 8.6112 7.49413 11.596
O 8.02908 6.52641 14.2614
O 9.96342 2.82955 13.7557
O 6.37042 7.49109 15.9227
O 8.82525 3.89677 15.778
Si 10.0746 4.18548 11.1676
Si 12.2585 17.2716 11.3361
Si 11.4298 6.89344 14.7265
Si 13.8407 2.20382 14.7688
Si 11.1486 2.23484 13.026
Si 14.0044 6.75622 12.9575
O 11.5042 5.29594 15.5565
O 13.6192 0.733518 15.4376
O 12.477 2.51652 14.0091
O 0.554302 6.89168 13.459
O 10.9326 0.754691 12.2597
O 14.1871 5.92855 11.5906
O 11.4154 3.54457 11.8848
O 13.3182 8.09254 12.3286
O 13.0644 6.75021 14.2204
O 14.8514 1.91048 13.5313
O 11.2617 8.11607 15.6168
O 14.2934 2.96259 16.0267
Si 14.9725 12.9483 11.1009
Si 2.35083 8.91055 10.9267
Si 1.28906 15.021 14.5466
Si 4.11241 10.4161 14.7707
Si 1.70496 11.2026 13.0792
Si 4.05063 15.3518 13.0404
O 0.910978 13.5272 15.1472
O 2.99312 9.47102 15.459
O 3.1265 11.3172 13.7896
O 5.38544 15.7769 13.6987
O 1.61699 9.97556 11.7216
O 4.30509 14.1851 12.0102
O 0.978324 12.462 12.3412
O 3.65275 16.798 12.3953
O 2.76017 14.867 14.0768
O 5.26333 9.93404 13.5517
O 1.21274 16.31 15.5364
O 4.86761 11.6234 15.4669
Si 5.00224 13.0866 11.1118
Si 7.38356 8.41408 10.8563
Si 6.40813 15.3005 14.8926
Si 8.83964 11.0262 14.64
Si 6.44253 10.8114 12.8039
Si 8.73816 15.2248 12.7421
O 5.86385 13.9755 15.6937
O 8.36806 9.55174 15.1183
O 7.70019 11.6237 13.5906
O 10.3728 15.528 13.1609
O 6.66313 9.3014 12.0606
O 8.86461 13.9008 11.9267
O 5.82454 12.0603 12.1305
O 8.24665 16.5107 11.9939
O 7.82785 14.9095 14.0361
O 10.3823 10.7371 13.9325
O 6.56501 16.4599 16.0019
O 8.77229 12.0657 15.8018
Si 9.75759 12.8863 11.1208
Si 12.3264 8.67952 11.1421
Si 11.4877 15.1718 14.3171
Si 13.9297 10.8767 14.5933
Si 11.3755 11.0926 12.7689
Si 13.7705 15.1092 12.5902
O 10.6498 13.9348 15.142
O 13.5786 9.29549 15.0951
O 13.0357 11.2155 13.1945
O 0.346233 14.9099 13.2707
O 11.4173 9.78535 11.7187
O 13.687 13.7763 11.5705
O 11.1372 12.6206 12.0778
O 13.3995 16.6195 12.1491
O 12.9275 14.4703 13.8805
O 0.638475 10.6441 14.248
O 11.9869 16.3664 15.1746
O 13.5522 12.038 15.5726
324
 Atoms. Timestep: 30500
Si 14.9086 4.27379 0.159112
Si 2.41599 17.2468 16.2574
Si 1.52227 6.55883 3.62925
Si 3.93559 2.41465 3.54627
Si 1.43726 2.07729 1.80124
Si 3.73957 6.59954 1.82344
O 1.19135 5.51048 4.91794
O 3.48083 1.79586 5.00598
O 2.77948 2.35548 2.46047
O 5.02828 6.83668 2.80202
O 1.22517 1.01503 0.597912
O 3.64215 5.19199 0.856573
O 0.883606 3.63091 1.38084
O 3.44576 8.19587 1.3319
O 2.70227 5.89262 2.7207
O 5.34758 1.79609 3.06382
O 2.00619 8.15559 3.95328
O 3.99401 3.85197 4.10813
Si 4.97839 4.43247 16.3825
Si 7.50887 0.340278 0.145049
Si 6.36949 6.44967 3.76271
Si 8.95154 2.42785 3.61268
Si 6.40751 2.55216 1.92003
Si 9.0202 6.73614 2.04767
O 6.19712 5.18774 4.64969
O 8.27656 1.22275 4.36207
O 7.70775 3.10777 2.62094
O 10.0418 7.36585 3.21624
O 6.47618 1.25894 0.961811
O 9.649 5.54713 1.26284
O 6.12513 4.04028 1.28941
O 8.9906 8.14375 1.17031
O 7.56014 6.19101 2.58068
O 10.0249 1.84787 2.60938
O 6.7439 7.81722 4.49542
O 9.33994 3.78306 4.24052
Si 10.0287 4.41691 0.173618
Si 12.1794 16.9892 16.3779
Si 11.4916 6.86859 3.65936
Si 13.8653 2.06349 3.59881
Si 11.3984 2.09144 1.6628
Si 13.7339 6.62549 1.75198
O 10.9907 5.61342 4.68027
O 13.3887 1.4873 5.05159
O 12.6176 1.79492 2.69873
O 0.278002 6.50359 2.54175
O 11.1515 0.882334 0.654437
O 13.8007 5.35327 0.5989
O 11.2714 3.52202 0.97981
O 13.6429 8.19205 1.23818
O 12.5451 6.07169 2.74865
O 0.385291 1.53538 3.00713
O 12.2669 8.24355 4.21987
O 14.2282 3.68967 4.17025
Si 0.269445 12.8428 0.365622
Si 2.38 8.74615 0.0731019
Si 1.42258 15.5229 3.77124
Si 3.66655 10.6994 3.89714
Si 1.06894 10.8993 2.16932
Si 3.49705 15.1812 1.93313
O 1.03574 14.6631 5.1311
O 3.67202 9.83563 5.12418
O 2.12067 10.6759 3.50634
O 4.86191 15.4003 2.82199
O 1.36076 9.85403 0.833696
O 3.43068 13.7726 1.04681
O 1.51901 12.2806 1.24761
O 2.64603 16.3343 1.11316
O 2.4985 14.6545 3.00813
O 4.84702 10.5132 2.6819
O 1.95451 16.8799 4.44507
O 4.20304 12.2985 4.2177
Si 4.63971 12.943 0.379916
Si 7.76972 8.6674 0.376688
Si 6.33388 15.3777 3.65279
Si 8.94089 10.8217 3.76351
Si 6.26781 10.8 1.95094
Si 8.87676 15.3368 1.88423
O 6.30984 13.9146 4.42698
O 8.65119 9.52107 4.54401
O 7.56423 11.3193 3.06279
O 10.4361 15.6039 2.50178
O 6.63047 9.35076 1.24118
O 8.87883 14.3565 0.689417
O 5.85778 12.1257 1.11503
O 8.48713 16.728 1.05004
O 7.63669 14.9502 2.83412
O 9.98527 10.2483 2.71273
O 6.31453 16.8656 4.49965
O 9.61542 12.0973 4.60275
Si 9.77213 13.056 16.4248
Si 12.6526 8.67418 16.4576
Si 11.3882 15.4532 3.84162
Si 13.6403 11.2867 4.04114
Si 11.2086 10.9691 2.00696
Si 13.8103 15.0746 1.96951
O 10.7857 14.5019 5.00625
O 13.8174 10.204 5.16303
O 12.3475 11.4862 3.21712
O 0.178131 15.6361 2.7467
O 11.4579 9.76359 0.823537
O 14.0797 13.7054 1.33095
O 10.611 12.4102 1.47154
O 12.9882 16.1071 1.12142
O 12.9587 15.1486 3.48443
O 14.6364 10.6752 2.87229
O 11.3529 16.9645 4.41055
O 14.2016 12.6778 4.72486
Si 14.8166 4.44759 5.38284
Si 2.58038 0.536227 5.58509
Si 1.41148 6.40033 9.35787
Si 3.52721 1.82614 9.09439
Si 0.841001 2.14758 7.39176
Si 3.76944 6.62703 7.35235
O 1.18678 4.96091 10.1664
O 3.52246 0.421358 10.0356
O 2.10508 2.39702 8.5886
O 5.26213 7.25847 7.92343
O 1.08736 0.948723 6.33249
O 4.01874 5.57684 6.33292
O 0.831649 3.66581 6.46666
O 2.8416 7.68669 6.32639
O 2.8194 5.97181 8.49853
O 4.58568 1.89904 8.04946
O 1.75829 7.84107 10.1012
O 3.77768 3.14539 10.2099
Si 4.88199 4.43266 5.40415
Si 7.5322 0.253573 5.39381
Si 6.27777 6.47748 9.02192
Si 8.59086 2.14867 9.01332
Si 6.11268 2.19425 7.21422
Si 8.83702 6.72639 7.32717
O 5.55633 5.10116 9.56461
O 8.22608 0.901735 9.8822
O 7.29217 2.79514 8.32336
O 10.1733 7.07446 8.13623
O 6.80571 0.903026 6.7633
O 8.9644 5.43527 6.20791
O 5.49683 3.40946 6.25344
O 8.50404 7.94055 6.39999
O 7.8984 6.21485 8.57167
O 9.57936 1.96506 7.7943
O 6.35429 7.43605 10.2561
O 9.17457 3.28959 10.1002
Si 9.97687 4.50699 5.47587
Si 12.4534 0.298388 5.5292
Si 11.0831 6.44246 9.24807
Si 13.4381 2.09572 9.34604
Si 11.1592 2.46722 7.30244
Si 13.6522 6.29017 7.355
O 11.0291 5.01435 9.77094
O 13.4661 0.710519 10.0835
O 12.1927 2.77912 8.589
O 0.164626 6.59549 8.21315
O 11.5835 1.1665 6.64895
O 13.6368 4.93742 6.43725
O 10.9989 3.79303 6.43558
O 13.8177 7.73261 6.51784
O 12.5274 6.42939 8.42931
O 14.3416 1.72059 7.96948
O 11.317 7.53098 10.4183
O 13.9864 3.36958 10.2902
Si 0.347203 13.3284 5.87459
Si 2.26224 8.90073 5.39857
Si 1.46542 15.1159 8.9963
Si 3.97984 10.8225 9.37956
Si 1.24167 10.8983 7.33465
Si 3.97018 15.4703 7.16705
O 0.971694 13.7645 9.56006
O 3.95414 9.48984 10.2993
O 2.60033 10.7794 8.20394
O 5.28404 15.6214 7.88213
O 1.12415 9.52582 6.33949
O 3.98937 14.3731 5.9465
O 1.40198 12.279 6.59976
O 3.55803 17.0152 6.75406
O 2.79542 14.8828 8.09249
O 5.17043 10.5554 8.41418
O 1.35557 16.2478 10.1808
O 3.74886 12.3108 10.1444
Si 5.03502 13.2646 5.22118
Si 7.53082 8.78042 5.44658
Si 6.46477 15.1899 9.1031
Si 8.66769 10.7645 8.85754
Si 6.33442 11.2118 7.35634
Si 8.88233 15.2665 7.27488
O 6.0279 13.6392 9.64129
O 8.03742 9.41092 9.52582
O 7.46831 11.6917 8.34051
O 10.3091 16.2618 7.69379
O 6.72054 9.77482 6.6237
O 8.77633 13.647 6.54379
O 5.74371 12.5384 6.5603
O 8.3829 16.3663 6.05434
O 8.14966 15.208 8.73201
O 9.76642 10.689 7.79582
O 6.13997 16.5572 9.96761
O 9.26329 11.5573 10.1906
Si 10.0705 13.1429 5.64631
Si 12.9085 8.92154 5.64316
Si 11.1038 15.47 9.0752
Si 13.4861 10.6474 9.0051
Si 11.3045 11.1462 7.30309
Si 13.7859 15.3765 7.44986
O 10.7085 13.9512 9.91768
O 13.1358 9.33773 9.82586
O 12.3045 11.621 8.5745
O 0.187802 15.709 8.22329
O 11.7398 9.81864 6.58639
O 14.119 13.7985 7.00386
O 11.0908 12.4576 6.59917
O 13.462 16.5611 6.29137
O 12.3617 14.9744 8.22455
O 14.6913 10.4875 7.84378
O 11.4943 16.3991 10.3729
O 14.214 11.746 9.94629
Si 14.7821 4.41945 11.19
Si 2.47354 17.1221 11.1257
Si 1.58946 6.12479 14.758
Si 3.84682 2.07692 14.8418
Si 1.38455 2.18332 13.0647
Si 3.86184 6.46872 12.7591
O 0.967992 4.9497 15.4784
O 3.53369 0.733837 15.4668
O 2.59993 2.68834 14.0884
O 5.33997 6.82393 13.508
O 1.65894 1.26865 11.7882
O 3.99025 5.11243 11.8382
O 0.627984 3.61357 12.6373
O 3.26537 7.72425 12.2138
O 2.99562 5.75041 13.9745
O 5.18315 1.85093 13.5377
O 1.78102 7.3724 15.8568
O 4.30452 2.87909 16.2003
Si 4.92222 4.25975 10.8213
Si 7.30005 17.2686 10.9082
Si 6.59453 6.33703 14.5344
Si 8.79515 2.3253 14.7424
Si 6.50552 2.35604 12.8105
Si 9.10692 6.6664 12.5757
O 6.03363 4.96756 15.2069
O 8.46937 0.827271 15.3066
O 7.69073 2.82059 13.787
O 10.29 7.09844 13.8107
O 6.54669 0.877222 12.1144
O 9.90376 5.31267 11.9898
O 6.15671 3.63297 11.7712
O 8.64185 7.86813 11.7022
O 7.91429 6.23328 13.6757
O 9.95214 2.53226 13.7609
O 6.91955 7.39814 15.9761
O 8.8974 3.37377 16.021
Si 10.2678 4.19532 10.9253
Si 12.4973 0.080048 11.2981
Si 11.4855 6.41711 14.7847
Si 13.8419 1.80313 14.8344
Si 11.4785 2.25277 12.8956
Si 13.9479 6.57806 12.8475
O 10.773 4.9273 15.3132
O 13.3093 0.334206 15.353
O 12.8711 2.34255 13.6122
O 0.495644 6.65366 13.4068
O 11.309 0.987703 11.974
O 13.8244 5.6516 11.4782
O 11.3816 3.46124 11.7207
O 13.5829 7.98454 12.1515
O 12.9128 5.81566 13.982
O 0.495655 1.63784 14.2973
O 12.0727 7.24282 16.0494
O 14.0302 2.84084 16.149
Si 0.198917 12.8425 10.7309
Si 2.67558 8.64156 11.0365
Si 1.30138 14.9202 14.6554
Si 4.0109 10.7433 14.8041
Si 1.67276 10.8116 12.9215
Si 3.97008 15.0452 12.9507
O 0.98212 13.8172 15.8111
O 3.02731 9.34454 15.0759
O 2.83312 11.5851 13.6724
O 5.38068 15.2818 13.8169
O 1.96822 9.84768 11.6087
O 4.52049 14.2355 11.6948
O 1.06116 12.156 11.9382
O 3.23656 16.4936 12.5597
O 2.57922 14.4362 13.7878
O 5.50312 10.6707 14.0722
O 1.47778 16.489 15.2472
O 3.8548 11.8231 16.058
Si 5.07274 13.1115 10.7625
Si 7.44877 8.64534 10.8765
Si 6.35005 14.9526 15.0805
Si 8.75252 10.9406 14.7846
Si 6.40587 10.9219 12.7081
Si 8.55781 14.8598 12.7932
O 5.72836 13.8449 15.939
O 8.65394 9.47169 15.4729
O 7.67179 11.3489 13.6615
O 9.92087 15.4324 13.2903
O 6.47197 9.45434 12.0406
O 8.87912 13.595 11.8451
O 5.87484 12.0177 11.6196
O 7.88177 16.1722 12.0425
O 7.61174 14.4978 14.0513
O 10.2643 10.4193 13.9843
O 6.5149 16.3816 15.7898
O 8.73564 11.9852 15.9577
Si 10.0047 12.9092 10.908
Si 12.4224 8.51821 11.0651
Si 11.0187 14.8977 14.285
Si 13.9547 10.6833 14.7752
Si 11.42 10.8939 13.0341
Si 13.6691 14.9576 12.6557
O 10.5181 13.5766 15.1088
O 13.5454 9.18608 15.1793
O 12.8797 11.2607 13.7619
O 14.9002 14.6196 13.7697
O 11.8216 9.67206 11.9852
O 13.9937 13.9986 11.2614
O 10.9469 12.1117 12.0909
O 13.3981 16.7371 12.3921
O 12.3868 14.5827 13.5694
O 0.388412 10.3559 13.6792
O 11.2732 15.9108 15.5374
O 14.6038 11.577 15.8696
324
 Atoms. Timestep: 31000
Si 14.766 4.38173 16.282
Si 2.56599 0.0594147 16.5141
Si 1.56663 6.52888 3.67233
Si 4.1196 2.27871 3.53611
Si 1.42371 2.34009 1.84823
Si 3.94369 6.6589 1.66791
O 1.43938 5.60494 4.86408
O 3.66543 1.46795 4.89008
O 2.8483 2.97308 2.58919
O 5.13082 7.08038 2.72551
O 1.4192 1.07685 0.739248
O 4.33223 5.63837 0.680097
O 0.921024 3.64189 0.924349
O 3.51951 8.19218 0.923373
O 2.87993 6.23302 2.69479
O 5.28671 1.63813 2.82185
O 1.81681 7.98114 4.37765
O 4.95564 3.64027 4.10224
Si 4.93114 4.37548 16.3198
Si 7.48632 17.2243 16.3595
Si 6.5672 6.93818 3.78986
Si 9.10252 2.32696 4.06418
Si 6.58111 2.28011 1.82848
Si 8.96969 6.67556 1.87696
O 6.19876 5.99647 5.1043
O 8.80096 1.18647 5.23807
O 7.68953 2.56787 2.92342
O 10.295 7.10042 2.96409
O 6.80495 1.13176 0.70385
O 9.32511 5.18699 1.41472
O 5.81658 3.49657 1.0099
O 8.62401 7.6015 0.682225
O 7.78951 6.15495 2.89057
O 10.4025 1.84416 3.12213
O 7.12339 8.39299 4.23399
O 9.84899 3.53825 4.80775
Si 9.99789 4.33014 0.234576
Si 12.5753 17.1408 16.5392
Si 11.5589 6.54379 3.90364
Si 13.992 2.51573 3.90891
Si 11.6359 2.14628 1.98832
Si 13.7184 6.41143 1.82067
O 11.2509 5.72025 5.06163
O 13.3347 1.42716 5.04139
O 12.7359 2.86523 3.0333
O 0.169191 6.42172 2.87256
O 11.727 0.69554 1.29452
O 13.7756 5.39602 0.554203
O 11.1879 3.28755 0.88252
O 13.3837 7.84375 1.00878
O 12.7481 5.78636 3.01564
O 0.277284 1.74866 3.05758
O 12.6855 7.65906 4.48661
O 14.5892 3.77214 4.62071
Si 0.143167 12.9251 0.30405
Si 2.46012 8.84524 16.1148
Si 1.52289 15.2652 3.73903
Si 3.96449 10.4377 3.90108
Si 1.3236 10.7558 1.89515
Si 3.87072 15.1836 1.74679
O 0.976332 14.4498 5.05789
O 3.99336 9.33048 4.99282
O 2.61369 10.8314 2.92907
O 5.02734 15.9668 2.7783
O 1.44994 10.0996 0.258764
O 4.55724 14.126 0.581488
O 0.8941 12.2189 1.45761
O 3.14413 16.5977 1.3996
O 2.80536 14.5327 2.98821
O 5.23849 10.2438 2.94015
O 1.67821 16.9342 4.18659
O 4.28774 11.984 4.39394
Si 4.95922 12.7291 16.0843
Si 7.44004 8.42388 16.275
Si 6.3865 15.4173 3.62826
Si 8.88967 11.2186 3.54573
Si 6.30943 10.752 1.84401
Si 8.95618 15.2399 1.66683
O 6.01697 14.1018 4.50115
O 8.70613 10.2327 4.69528
O 7.57686 11.5724 2.73185
O 9.9934 15.5691 2.90294
O 7.088 9.61333 0.885785
O 9.18515 13.8072 0.936294
O 5.54707 11.6498 0.803129
O 8.73781 16.2892 0.566944
O 7.59206 15.0922 2.70693
O 10.0499 10.8399 2.51487
O 6.87384 16.6038 4.63552
O 9.41488 12.7114 4.06085
Si 10.1516 12.5751 16.4181
Si 12.6141 8.88928 0.0966398
Si 11.3522 15.1448 3.64182
Si 13.9598 10.8141 3.80393
Si 11.5732 11.285 1.87429
Si 13.8916 15.2581 1.81663
O 11.2298 14.0959 4.89733
O 14.0086 9.88676 5.00244
O 12.7795 11.3809 2.94102
O 0.247481 15.0252 2.78732
O 11.7305 9.87754 1.04845
O 13.9415 14.0226 0.780109
O 11.4045 12.5077 1.05391
O 13.9471 16.6175 0.90477
O 12.6201 14.8338 2.72783
O 14.9996 10.0969 2.63218
O 11.7611 16.6936 4.27359
O 14.731 12.1493 4.13552
Si 0.291752 4.68303 5.73333
Si 2.41544 0.462844 5.3923
Si 1.57526 6.10116 9.58086
Si 3.48805 2.32214 9.17756
Si 1.02974 2.27591 7.27807
Si 3.59896 6.52389 7.64627
O 1.11673 4.95626 10.5208
O 3.33517 0.720959 9.99566
O 2.10571 2.6147 8.46277
O 5.06008 7.2134 8.38136
O 1.21254 1.19461 6.16543
O 4.22889 5.2461 6.69106
O 1.07817 3.68919 6.6702
O 2.94125 7.90468 6.95611
O 2.94993 5.7885 8.90673
O 4.39529 2.51577 7.97627
O 1.29265 7.52172 10.2242
O 3.9865 3.449 10.2101
Si 5.20498 4.52683 5.53257
Si 7.65673 0.0775734 5.77507
Si 6.21769 6.75331 9.41932
Si 8.31901 2.23617 9.20253
Si 5.83993 2.12017 7.26992
Si 8.93686 6.83538 7.5421
O 5.77088 5.47055 10.0807
O 8.30744 0.549858 9.60054
O 6.73292 2.3654 8.73227
O 10.2387 7.45858 8.22459
O 6.4654 0.837955 6.74537
O 9.56034 5.40429 7.05066
O 6.30533 3.54364 6.29653
O 8.57597 8.06664 6.4397
O 7.75912 6.52323 8.62419
O 9.44971 2.56753 8.12772
O 6.42255 7.67528 10.6027
O 8.62096 3.23089 10.3766
Si 10.4316 4.56747 5.88802
Si 12.4484 0.199469 5.58828
Si 11.2389 6.65727 9.16419
Si 13.5138 2.17963 9.26264
Si 11.0188 2.07367 7.59828
Si 14.0251 6.78018 7.5313
O 10.8258 5.15753 9.87663
O 13.5864 0.67168 10.0466
O 12.052 2.27085 8.86424
O 0.634539 6.39567 8.15773
O 11.1629 0.866167 6.50489
O 13.9249 5.60745 6.2713
O 11.2501 3.46271 6.79949
O 13.9807 8.23526 6.88559
O 12.7122 6.46522 8.47883
O 14.3543 1.89655 7.82734
O 11.4666 7.7883 10.5369
O 14.0753 3.38839 10.1789
Si 14.9414 13.1749 5.34009
Si 2.45911 8.67705 5.7462
Si 0.956643 15.1229 9.11733
Si 3.6332 10.4685 9.18743
Si 1.0777 11.0386 7.29289
Si 3.62708 15.3439 7.26383
O 0.0909909 14.0389 9.82716
O 3.18441 9.12425 9.93948
O 2.42284 10.9274 8.24224
O 4.89857 15.8865 8.07608
O 1.61649 9.81882 6.30651
O 3.77672 14.0995 6.14073
O 1.001 12.3587 6.32536
O 3.2214 16.736 6.35978
O 2.51757 15.0451 8.5527
O 4.84949 10.1292 8.12423
O 1.13707 16.2439 10.237
O 4.11049 11.4446 10.4121
Si 4.94491 13.107 5.39572
Si 7.73494 9.22217 5.53895
Si 6.06526 15.1232 9.05329
Si 8.63969 10.6052 9.09303
Si 5.96674 11.0585 7.39585
Si 8.81977 14.9471 7.3841
O 5.24283 13.9461 9.85908
O 8.11405 9.19233 9.75496
O 7.26202 11.3028 8.25997
O 10.3584 15.3241 7.72368
O 6.57308 10.0033 6.34032
O 9.01615 13.711 6.48129
O 5.71178 12.6428 6.84585
O 8.59349 16.3619 6.68905
O 7.67015 14.6983 8.50921
O 9.74018 10.2982 7.9178
O 6.43735 16.09 10.2139
O 8.98836 11.5444 10.4374
Si 10.0926 12.9996 5.49328
Si 13.2338 8.62166 5.60641
Si 11.2985 15.2497 9.09751
Si 13.6607 10.7425 9.09382
Si 11.1201 10.5561 7.19441
Si 13.6326 15.0636 7.25217
O 10.8131 13.7483 9.83585
O 13.7799 9.38628 10.0241
O 12.1585 11.1938 8.46082
O 0.1275 15.4808 7.75628
O 11.8366 9.34667 6.29824
O 13.7075 13.6596 6.37479
O 10.8289 11.6728 6.13674
O 13.1236 16.3652 6.4376
O 12.676 14.6079 8.48273
O 14.588 10.8071 7.8492
O 11.2714 16.4672 10.2539
O 13.8618 11.9317 10.2409
Si 14.8866 4.2347 11.3889
Si 2.31567 17.1773 10.969
Si 1.44727 6.3726 14.5301
Si 4.00339 2.09644 14.633
Si 1.25632 2.0022 13.0116
Si 3.8524 6.80913 12.8522
O 0.801996 5.14879 15.2576
O 3.73089 0.907051 15.6369
O 2.75198 2.07795 13.609
O 5.27973 7.02558 13.6259
O 1.14482 0.866197 11.82
O 3.98915 5.40846 12.0037
O 0.875658 3.50645 12.4762
O 2.99578 8.11705 12.3881
O 2.96132 5.9461 14.1078
O 5.51123 1.8748 13.804
O 1.53882 7.63698 15.4089
O 4.00419 3.4358 15.4006
Si 4.94415 4.41416 11.0777
Si 7.49009 17.0893 10.9481
Si 6.3613 6.35076 14.7089
Si 8.98753 2.08677 14.6447
Si 6.61108 2.35209 12.7177
Si 8.6339 6.72504 12.8216
O 5.92952 4.91857 15.1599
O 8.17449 0.716276 15.102
O 8.25997 2.82757 13.3455
O 10.1589 7.21588 13.5594
O 7.03588 0.79226 11.9392
O 9.06335 5.56535 11.8439
O 5.81899 3.69427 12.2156
O 8.42137 8.28063 12.2885
O 7.70991 6.26776 13.9071
O 10.4358 1.74612 14.0075
O 6.21229 7.62918 15.7502
O 9.03422 3.19672 15.9412
Si 9.69223 4.32492 11.0226
Si 12.616 17.2466 11.0012
Si 11.1345 6.71771 14.7769
Si 13.7179 2.07539 14.6035
Si 11.4178 2.38323 12.8395
Si 13.7412 6.50988 12.949
O 10.3494 5.42983 15.4907
O 12.9511 0.659285 15.0837
O 12.8771 2.98615 13.3985
O 0.351386 6.56816 13.3153
O 11.8784 1.0429 11.9294
O 13.6361 5.28908 11.9521
O 10.5303 3.44588 12.1049
O 13.2757 7.96058 12.4595
O 12.7172 6.3494 14.3733
O 0.203308 1.50263 14.1812
O 11.4519 8.16065 15.5817
O 13.6703 3.23846 15.7488
Si 14.9591 12.8818 10.9821
Si 2.14216 8.63349 11.1349
Si 1.03961 15.1165 14.8779
Si 3.78457 10.6781 14.5901
Si 1.34209 10.9896 12.6444
Si 3.54151 14.9555 12.9646
O 1.20535 13.621 15.6789
O 3.66918 9.29358 15.1978
O 2.37751 10.5456 13.6344
O 4.71979 15.1923 14.0684
O 0.977071 9.72173 11.584
O 3.40874 13.7349 11.9357
O 1.45807 12.0292 11.3677
O 3.2961 16.4762 12.1412
O 2.04146 14.6925 13.6192
O 5.17155 10.6965 13.9536
O 1.89347 16.2502 15.6676
O 3.63138 12.1426 15.2971
Si 4.43432 12.9717 10.9362
Si 7.42523 8.88748 11.1362
Si 6.37564 15.023 14.3177
Si 8.66376 10.6651 14.4854
Si 6.24057 11.2852 12.8504
Si 8.60963 15.0159 12.7898
O 6.10066 13.4332 15.0091
O 8.04733 9.17986 14.9785
O 7.62209 11.5383 13.7563
O 9.60683 15.1176 14.0928
O 6.56155 10.1036 11.6777
O 8.84868 13.6167 11.9088
O 5.81848 12.5383 11.7503
O 8.78642 16.2599 11.4224
O 7.04116 15.3628 12.9566
O 10.259 10.5177 13.851
O 6.67465 15.9278 15.6904
O 8.96987 11.4118 15.9758
Si 10.0121 12.8968 10.9019
Si 12.6352 8.69573 11.1565
Si 11.1985 14.7871 14.6135
Si 13.8065 11.0634 14.7782
Si 11.371 10.9463 12.8174
Si 13.9024 15.0359 12.8946
O 10.726 13.3555 15.1486
O 13.5132 9.6377 15.3308
O 12.6834 11.5891 13.6979
O 14.8559 15.8146 13.954
O 11.8377 9.93272 11.709
O 14.4791 13.7657 12.2529
O 10.8853 12.2804 12.1581
O 13.3847 16.2798 11.9363
O 12.6489 14.7037 13.8074
O 15.2417 11.6958 13.5598
O 11.6264 15.785 15.9566
O 14.1065 11.8683 16.0363
324
 Atoms. Timestep: 31500
Si 0.237026 4.19683 16.4683
Si 2.56212 17.3276 0.180457
Si 1.2609 6.66525 3.98267
Si 4.01231 2.26469 3.96953
Si 1.5198 2.29656 1.86527
Si 3.99503 6.46574 2.01506
O 0.491372 5.49308 4.84418
O 3.91361 1.16892 5.09287
O 2.78848 2.83668 2.87379
O 5.25884 6.98702 2.90735
O 1.77806 1.35651 0.673649
O 4.73591 5.13647 1.33391
O 0.640395 3.60504 1.4853
O 3.43046 7.60553 0.85755
O 2.8312 6.12576 3.10141
O 5.28649 1.96799 3.07955
O 1.53405 8.12815 4.54973
O 4.32685 3.76236 4.59618
Si 5.24962 4.2519 16.4214
Si 7.64923 17.2949 16.422
Si 6.59872 6.81635 3.79073
Si 8.69378 2.41581 3.81884
Si 6.41514 2.14215 1.90926
Si 8.77382 6.34416 1.67949
O 6.00822 5.64328 4.70701
O 8.59398 1.23467 4.92591
O 7.71885 2.87444 2.43881
O 9.97514 6.94416 2.73969
O 6.83069 0.665121 1.20833
O 9.17175 4.90363 0.932725
O 6.27054 2.9646 0.392272
O 8.78891 7.48373 0.534353
O 7.58549 6.10046 2.79448
O 10.2929 2.72795 3.20818
O 6.94533 8.27131 4.37814
O 8.61214 4.04718 4.46271
Si 10.1575 4.04879 0.0767667
Si 12.3613 0.228494 0.0912076
Si 11.3104 6.85106 3.73277
Si 13.8812 2.00565 3.5912
Si 11.3195 2.16842 2.0572
Si 13.9604 6.57379 1.88295
O 11.067 5.67386 4.90104
O 13.5891 0.575504 4.3467
O 12.8457 2.56696 2.46394
O 0.0588187 6.93267 2.93099
O 11.1314 0.661598 1.32615
O 14.1998 5.38243 0.738899
O 11.1635 3.10006 0.754585
O 13.9181 7.84529 0.964438
O 12.8006 6.35218 2.90424
O 0.413515 1.55446 2.97237
O 11.4619 8.39106 4.35093
O 14.1971 3.23269 4.64552
Si 14.7632 13.0049 0.143835
Si 2.59468 8.7322 16.4533
Si 1.5358 15.482 3.65084
Si 3.92636 11.0753 3.61285
Si 1.36342 11.0552 1.88747
Si 3.92586 14.9888 1.87749
O 1.33197 14.2179 4.73413
O 3.83729 9.82393 4.77534
O 2.70372 11.4505 2.61685
O 5.1508 15.4656 2.79535
O 1.55445 9.80257 0.755156
O 4.18071 13.4464 1.0644
O 1.03284 12.4699 1.06463
O 3.46422 16.4768 1.18484
O 2.79187 14.6754 2.97395
O 5.27726 10.2038 2.83623
O 1.98325 16.8778 4.52117
O 4.23449 12.4432 4.40191
Si 5.07696 12.9311 16.3182
Si 7.64983 8.44776 16.4331
Si 6.52358 15.1135 3.72927
Si 9.01113 11.0025 3.65411
Si 6.4574 10.8094 1.91969
Si 8.76108 14.6539 1.8918
O 6.21494 14.1429 4.96354
O 8.66334 10.1222 5.13889
O 7.61461 11.3515 2.92941
O 9.81127 15.7646 2.72054
O 7.02038 9.28033 1.38949
O 9.21059 13.198 1.30534
O 6.1988 11.8272 0.574349
O 8.20907 15.5914 0.616518
O 7.7485 14.4579 3.11379
O 9.9625 10.358 2.4708
O 6.68268 16.5201 4.61676
O 9.40516 12.4781 4.30172
Si 10.2269 12.7792 16.4665
Si 12.7851 8.42218 16.3726
Si 11.1368 15.4766 3.69586
Si 13.9856 10.6671 3.7507
Si 11.5244 10.8301 1.63018
Si 13.8137 15.484 1.98046
O 11.2011 14.2043 4.68599
O 13.6206 9.9698 5.1601
O 12.5727 10.9272 2.8134
O 0.308534 15.6498 2.60062
O 11.879 9.57384 0.615672
O 13.9716 13.9831 1.15877
O 11.4652 12.4253 1.02794
O 13.5211 16.8039 0.969805
O 12.6226 15.7189 2.97765
O 0.230022 10.2246 2.61857
O 11.1119 16.9527 4.68866
O 14.8172 12.1788 4.10879
Si 14.7683 4.28076 5.67929
Si 2.70045 0.280686 5.67552
Si 1.30036 6.07933 9.19259
Si 3.67537 2.17419 9.01263
Si 1.11136 2.32732 7.31868
Si 3.69927 6.39689 7.29067
O 0.943139 4.57641 9.82661
O 3.70223 0.636414 9.72776
O 2.11221 2.40638 8.56466
O 5.1313 7.01244 8.0853
O 1.33466 0.916214 6.4975
O 3.9501 4.78142 6.7922
O 1.18459 3.61676 6.41966
O 3.47415 7.58123 6.29543
O 2.63478 6.29947 8.41507
O 4.73358 2.19629 7.83626
O 1.43838 7.07242 10.3782
O 4.0354 3.4373 9.96362
Si 5.07407 4.63965 5.57794
Si 7.48681 0.116155 5.55463
Si 6.07351 6.58515 9.11305
Si 8.51302 2.41112 9.27685
Si 6.15427 2.38383 7.15475
Si 8.76569 6.73068 7.46101
O 6.0341 5.11866 9.66329
O 8.60635 0.821196 9.94606
O 6.98501 2.59501 8.65455
O 10.5034 6.95815 7.69787
O 6.27777 0.965756 6.26459
O 8.55634 5.36604 6.53315
O 6.23157 3.6894 6.19038
O 8.66182 8.05712 6.39886
O 7.77746 6.5067 8.64521
O 9.42789 2.44099 7.91722
O 6.2295 7.78351 10.3866
O 9.02996 3.22769 10.5277
Si 9.77981 4.70184 5.54855
Si 12.4609 17.3502 5.52333
Si 11.2219 6.51264 9.15818
Si 13.262 2.26914 9.17685
Si 10.8985 2.55569 7.38463
Si 13.7312 6.57866 7.38917
O 10.7646 5.1441 9.82865
O 13.4908 0.674639 9.87245
O 11.7184 2.79817 8.84393
O 0.203011 6.70591 8.06584
O 11.6873 1.40526 6.53804
O 13.7902 5.29476 6.45059
O 10.8698 3.81992 6.39428
O 12.8389 7.76136 6.4751
O 12.653 6.12135 8.46436
O 14.4826 2.23425 8.00815
O 11.3899 7.57247 10.3946
O 13.7683 3.23109 10.444
Si 0.292652 13.1542 5.3773
Si 2.67984 8.94722 5.57211
Si 1.38012 15.0275 9.15568
Si 3.59789 10.7439 9.47247
Si 1.3957 11.0973 7.7607
Si 3.81133 14.9435 7.41035
O 0.664132 14.0662 10.1421
O 2.93356 9.35311 9.93502
O 2.47599 11.69 8.69313
O 5.17904 15.4855 7.95096
O 2.00304 9.77442 6.96855
O 3.82327 13.7547 6.39976
O 0.858967 12.2147 6.62118
O 3.12429 16.2665 6.64334
O 2.95104 14.6036 8.80002
O 4.69639 10.4039 8.30039
O 1.53699 16.527 9.58103
O 4.63773 11.4458 10.7395
Si 5.17374 13.0998 5.59446
Si 7.57969 8.99037 5.63728
Si 6.35503 14.7862 8.93204
Si 8.74365 10.9259 9.32501
Si 6.08259 10.702 7.5557
Si 8.74015 15.2106 7.40343
O 6.13341 13.6969 10.0252
O 8.7029 9.42949 9.90197
O 7.09384 11.1781 8.67293
O 9.70436 15.5209 8.57074
O 6.38068 9.49843 6.47814
O 9.33002 14.1174 6.56644
O 5.79876 11.9368 6.46736
O 8.28465 16.5 6.69221
O 7.53055 14.2565 8.0178
O 9.66356 10.7161 7.97089
O 6.73342 16.1872 9.91836
O 9.2205 12.1269 10.2619
Si 10.121 13.3058 5.43906
Si 12.4366 8.95845 5.59691
Si 11.2794 14.9436 9.05065
Si 13.5146 10.7925 9.27132
Si 11.1164 11.0186 7.26813
Si 13.765 15.0005 7.14004
O 11.3025 13.8691 10.322
O 13.3773 9.17176 9.89027
O 12.2929 11.3389 8.34326
O 0.218704 15.1597 7.82373
O 11.3296 9.64099 6.46327
O 13.8634 13.7792 6.0317
O 11.0999 12.1079 6.14808
O 13.1341 16.4431 6.67504
O 12.3498 14.422 7.8905
O 15.0072 10.5182 8.54549
O 12.0043 16.2977 9.62451
O 13.5497 12.0243 10.2249
Si 14.916 4.10001 11.2128
Si 2.36008 0.0823116 10.6293
Si 1.49822 6.41784 14.7856
Si 3.85751 2.21456 14.7185
Si 1.48419 2.03537 12.854
Si 4.07447 6.61359 12.8493
O 1.38534 4.98042 15.6358
O 3.52477 0.701609 15.3034
O 2.59829 2.93777 13.822
O 5.50322 7.02505 13.5865
O 1.60006 1.18286 11.4097
O 4.07671 5.33112 11.9454
O 1.02015 3.56483 12.2279
O 3.72892 8.03023 11.9151
O 2.6653 6.25833 13.6932
O 4.92219 1.78432 13.7117
O 1.71956 7.5782 15.8339
O 3.91862 3.48078 15.8156
Si 4.88244 4.36226 10.8325
Si 7.28307 0.225473 10.8176
Si 6.42504 6.35121 14.7436
Si 8.88156 2.1851 14.4719
Si 6.08254 2.22842 12.7609
Si 8.87298 6.62784 13.0026
O 6.08644 4.86698 15.201
O 8.75348 1.01996 15.7055
O 7.49061 2.59582 13.659
O 10.3567 6.44467 13.5577
O 6.36208 1.3819 11.3804
O 8.80147 5.41967 11.8351
O 5.63651 3.62744 11.9638
O 8.35094 8.2042 12.3629
O 7.96481 6.40512 14.2581
O 10.0665 1.87626 13.4955
O 6.49013 7.6583 15.8913
O 9.31046 3.41473 15.399
Si 9.92317 4.52874 11.1397
Si 12.4296 17.3345 10.9235
Si 11.6265 6.1143 14.5654
Si 13.9509 2.06962 14.4974
Si 11.3629 2.34544 12.7776
Si 14.0861 6.56362 12.7923
O 11.0394 5.08428 15.7275
O 12.9816 0.917713 15.1841
O 12.9776 2.51487 13.3467
O 0.157857 6.88398 13.8506
O 11.4808 0.881454 11.7583
O 14.3984 5.49528 11.564
O 11.1289 3.69511 12.0685
O 13.5701 7.96224 12.2095
O 12.8195 5.87453 13.6529
O 0.24789 1.40377 13.6964
O 11.7335 7.5803 15.39
O 14.427 3.03197 15.6963
Si 14.7042 12.9913 11.0493
Si 2.2481 8.36055 11.0475
Si 1.0673 15.193 14.6994
Si 3.90948 10.8277 14.3208
Si 1.24825 10.8298 12.5943
Si 3.51956 15.3676 12.6874
O 0.939907 13.8903 15.6616
O 3.63187 9.62914 15.4601
O 2.60571 10.7498 13.262
O 5.02116 15.5809 13.2507
O 1.23113 9.41494 11.7681
O 3.66656 14.1001 11.7059
O 0.963357 12.3365 12.0126
O 3.21552 16.592 11.6484
O 2.07613 15.2814 13.414
O 5.31833 10.432 13.9352
O 1.44704 16.2837 15.9655
O 4.15518 12.0899 15.136
Si 5.05804 13.0789 11.152
Si 7.48645 8.75873 10.9372
Si 6.05772 15.5961 14.5308
Si 9.09554 10.5091 14.6355
Si 6.45081 11.0431 12.8139
Si 8.59784 15.7003 12.9656
O 5.64348 14.3802 15.679
O 8.44982 9.46311 15.4722
O 7.75974 11.4428 13.8432
O 9.9766 16.247 13.8872
O 6.8469 10.1646 11.5402
O 9.20657 14.3989 11.923
O 6.1333 12.6963 12.2153
O 7.71969 16.8722 12.2508
O 7.5685 15.0543 14.1934
O 10.0319 9.86912 13.6472
O 6.35657 17.0088 15.385
O 9.68216 11.6462 15.62
Si 10.0785 13.0927 11.3479
Si 12.4443 8.6089 11.168
Si 10.9377 15.3041 14.8664
Si 13.7838 10.4867 14.7441
Si 11.2606 10.8 13.0738
Si 13.3095 15.0807 12.9391
O 10.3638 14.2355 15.8786
O 13.9031 9.04145 15.4929
O 12.3891 10.7604 14.2292
O 14.4282 15.3144 14.1801
O 11.868 10.0251 11.8294
O 13.8083 13.8586 12.016
O 10.5253 12.3203 12.7176
O 13.2467 16.4711 12.1959
O 12.0501 14.5215 13.9801
O 14.8732 10.577 13.3269
O 11.404 16.5216 15.7279
O 14.1328 11.8029 15.7303
324
 Atoms. Timestep: 32000
Si 0.131065 4.23848 0.144839
Si 2.63176 17.11 16.3397
Si 1.21024 6.62583 3.69522
Si 4.06093 2.18042 4.05711
Si 1.44042 1.88443 1.8962
Si 3.7366 6.25369 2.02868
O 0.801149 5.26809 4.47519
O 3.55051 1.32802 5.25616
O 2.6385 2.57862 2.92822
O 5.08098 6.7374 2.77238
O 2.02447 0.606201 0.938046
O 3.68417 4.86777 1.22244
O 0.869962 3.01956 0.831564
O 3.16806 7.36255 0.917217
O 2.70725 6.13475 3.2258
O 5.37245 1.59095 3.36306
O 1.66802 7.79893 4.64384
O 4.44298 3.77087 4.52516
Si 4.92695 4.03351 0.133216
Si 7.59875 17.0967 0.0900244
Si 6.52411 6.60591 3.5543
Si 9.00491 2.32638 3.49101
Si 6.39649 1.84953 2.0264
Si 8.89853 6.40049 1.63259
O 6.40868 5.47454 4.73219
O 8.56682 1.39241 4.81626
O 7.84358 2.34665 2.35819
O 10.2446 6.94845 2.39579
O 6.71928 0.509841 1.28217
O 9.26987 4.95255 1.02984
O 5.71713 3.07372 1.14344
O 8.08658 7.49492 0.578592
O 7.75789 5.97471 2.72181
O 10.304 1.80697 2.81139
O 7.09903 7.90671 4.5395
O 9.09884 3.90132 4.1055
Si 10.0621 3.97585 16.2833
Si 12.8162 0.111179 16.3422
Si 11.2818 6.70711 3.64288
Si 13.6855 2.25224 3.51066
Si 11.4828 2.09585 1.72055
Si 13.7273 6.43995 1.93722
O 10.8031 5.59196 4.68531
O 13.2484 1.18927 4.58199
O 12.9381 2.84244 2.14235
O 0.179466 6.79323 2.45516
O 11.8704 0.61687 1.16786
O 13.9648 5.16092 0.961144
O 11.0949 2.86099 0.361601
O 13.109 7.83401 1.34213
O 12.7154 6.10145 3.10234
O 0.114052 1.80948 2.83332
O 11.4767 8.11593 4.32435
O 14.0485 3.62373 4.35739
Si 14.951 12.9567 -0.00718087
Si 2.46186 8.65931 0.125823
Si 1.36153 15.3115 3.88288
Si 3.78477 11.187 3.63624
Si 1.10841 10.8037 2.12261
Si 3.70889 14.9646 1.92192
O 0.788217 14.1815 4.71271
O 3.55251 9.72367 4.31828
O 2.18562 11.4724 3.13173
O 4.90764 15.5457 2.82043
O 1.71985 9.79506 1.11502
O 4.03214 13.5073 1.23938
O 0.402239 11.8312 1.12291
O 3.61526 15.9945 0.503619
O 2.40819 14.4917 2.7553
O 4.62035 10.7656 2.27827
O 1.86533 16.7044 4.43516
O 4.47895 12.2687 4.51923
Si 5.01516 12.8691 0.227823
Si 7.09606 8.58696 16.2643
Si 6.25929 15.4403 3.89623
Si 8.73367 11.0735 3.40869
Si 6.1681 10.8189 2.04796
Si 8.81776 15.0217 1.68349
O 5.98252 14.3922 4.99088
O 8.98481 10.0156 4.75829
O 7.32182 11.5608 2.96319
O 10.1414 15.6012 2.42956
O 6.60674 9.49573 1.11624
O 8.86578 13.5368 1.12682
O 6.34203 12.2006 1.05009
O 8.79216 15.9902 0.457711
O 7.64207 14.8983 2.99131
O 9.6937 10.3586 2.39046
O 6.62587 16.8819 4.71453
O 9.5214 12.2219 4.26383
Si 9.83556 12.9708 16.3574
Si 12.3169 8.65153 0.0991275
Si 11.443 15.3057 3.40601
Si 13.7725 10.4751 3.79418
Si 11.0954 10.9148 1.78521
Si 14.1136 15.4153 1.62963
O 11.4498 13.9297 4.34578
O 13.8395 9.31653 5.03016
O 12.4914 10.8615 2.73208
O 0.323992 15.4197 2.70752
O 11.0821 9.63542 0.506149
O 14.0874 14.008 0.7626
O 10.9663 12.4059 1.01122
O 14.1019 16.7572 0.651483
O 12.6166 15.5765 2.29711
O 0.0778536 9.97559 3.1014
O 11.4947 16.6973 4.44277
O 14.0668 11.9122 4.55833
Si 0.0745548 4.29339 5.4754
Si 2.54419 0.141037 5.73222
Si 1.266 6.84013 8.79262
Si 3.73293 2.2546 9.11047
Si 1.20757 2.3512 7.38136
Si 4.23021 6.95636 7.19624
O 0.899455 5.32679 9.29726
O 3.54731 0.838529 9.78226
O 2.27776 2.95963 8.62075
O 5.35193 7.02949 8.36632
O 1.55783 0.766065 6.86664
O 4.55313 5.32249 6.63301
O 1.34402 3.25478 6.0815
O 4.22769 8.03404 5.97677
O 2.6552 7.08425 7.78153
O 4.90291 2.02307 7.99555
O 1.43319 7.82308 10.0952
O 4.26089 3.56018 10.186
Si 5.45804 4.47279 5.56736
Si 7.83605 0.107073 5.63615
Si 6.48349 6.82045 9.40463
Si 8.85558 1.94671 9.33233
Si 6.34505 2.17377 7.44611
Si 9.17416 6.70603 7.56351
O 6.3114 5.51966 10.1723
O 8.63435 0.626016 10.3001
O 7.47217 2.3151 8.61325
O 10.3893 7.30017 8.50532
O 6.76805 0.84441 6.71079
O 9.17953 5.37075 6.64885
O 6.61795 3.41558 6.35996
O 9.0637 7.91386 6.38982
O 7.97617 6.72985 8.66747
O 10.0366 1.80008 8.29917
O 6.61682 8.46462 10.0685
O 8.98804 3.55477 10.0442
Si 9.90534 4.54974 5.49108
Si 12.3241 17.4569 5.50475
Si 11.4215 6.46272 9.34577
Si 13.5848 2.33532 9.0121
Si 11.1314 2.32159 7.31959
Si 13.8694 6.4982 7.38083
O 10.653 5.19747 10.0481
O 13.3863 1.10376 10.2168
O 12.1738 2.67598 8.42209
O 0.148975 7.44871 7.81742
O 11.5737 0.959693 6.64603
O 14.2724 4.89835 6.79526
O 10.7773 3.64279 6.42688
O 12.6394 7.48248 6.50747
O 12.6665 6.00062 8.35876
O 14.7688 2.13423 7.91453
O 11.5772 7.22282 10.7626
O 13.9687 3.52589 9.95934
Si 14.9715 12.9575 5.53816
Si 2.65276 8.83671 5.33891
Si 1.09079 15.412 9.26156
Si 3.57182 10.9088 9.1268
Si 1.21594 10.8696 7.27789
Si 3.47203 15.108 7.41216
O 0.905269 14.2861 10.4597
O 3.35959 9.63057 9.99158
O 2.25368 11.4615 8.29731
O 4.7016 15.0288 8.35339
O 1.68458 9.43185 6.58582
O 3.81379 13.788 6.47752
O 1.06046 12.0998 6.32315
O 3.59187 16.2977 6.30893
O 2.10121 14.8693 8.12106
O 4.77539 10.9455 7.98499
O 1.34179 16.8792 9.9944
O 4.05027 11.8155 10.4106
Si 5.12589 13.3122 5.71707
Si 8.15142 8.86995 5.51771
Si 6.00078 15.067 9.25567
Si 8.86779 10.9281 9.33996
Si 6.34982 10.9976 7.36555
Si 8.86237 15.1746 7.22311
O 5.98609 13.8071 10.1131
O 9.08973 9.6346 10.1948
O 7.39945 11.2872 8.60369
O 10.0879 15.5174 8.18373
O 6.93345 9.69208 6.60721
O 9.1459 13.8891 6.12972
O 6.36815 12.4537 6.42661
O 8.86565 16.4462 6.28673
O 7.15542 14.8665 7.89399
O 10.1345 11.2424 8.45434
O 6.40767 16.4624 10.0058
O 8.74771 12.0048 10.3986
Si 10.2369 13.1399 5.24077
Si 12.4058 8.66191 5.56478
Si 11.2228 15.0333 9.33284
Si 13.8964 10.5926 9.34555
Si 11.4773 11.2297 7.43284
Si 13.7132 15.2165 7.46926
O 10.3685 13.6616 9.83513
O 13.4555 9.23217 10.0715
O 12.5036 11.1839 8.77627
O 14.686 15.9804 8.37744
O 11.7611 9.75665 6.57455
O 14.162 13.8682 6.7245
O 11.2769 12.4923 6.3634
O 12.6997 16.0813 6.39347
O 12.6695 14.615 8.71198
O 14.8249 10.6151 7.94183
O 11.5049 16.2586 10.3578
O 14.699 11.735 10.3827
Si 14.9901 4.57272 10.5913
Si 2.59013 0.147181 10.9376
Si 1.26496 6.58842 14.8101
Si 3.45798 2.05692 14.4705
Si 1.14934 2.62701 12.713
Si 3.74847 6.4891 12.8412
O 1.33116 5.36891 16.1161
O 3.31181 0.442485 15.045
O 2.17855 2.71101 13.9939
O 5.29076 6.48847 13.3217
O 1.93166 1.32411 11.8699
O 3.85162 5.46471 11.5472
O 1.05544 3.71386 11.5096
O 3.24045 7.93762 12.1639
O 2.45549 6.19883 13.8376
O 4.72046 1.97578 13.3462
O 1.36042 8.22017 15.4031
O 3.85033 2.91697 15.823
Si 5.18171 4.52935 11.0618
Si 7.43605 17.2981 11.0766
Si 6.08485 6.31343 14.6413
Si 8.61196 2.02837 14.6112
Si 6.11387 2.16691 12.7023
Si 8.78268 6.57659 13.0253
O 5.73175 5.02352 15.5849
O 8.36914 1.01314 15.8141
O 7.42653 2.13347 13.4977
O 10.1816 7.14275 13.7937
O 6.15546 1.00441 11.5017
O 8.92516 5.21543 12.0812
O 6.11249 3.75283 12.016
O 8.6476 7.70478 11.9008
O 7.72303 6.16634 14.2633
O 9.99109 1.35457 13.9318
O 6.08729 7.78622 15.4708
O 8.87853 3.45189 15.37
Si 9.9226 4.34397 11.0714
Si 12.5486 0.0351445 11.0152
Si 11.5215 6.36737 14.4881
Si 13.8196 2.37542 14.5629
Si 11.0407 2.06562 12.8763
Si 13.8915 6.71459 12.6313
O 10.7888 5.07402 15.3454
O 13.6179 1.44382 15.8596
O 12.298 2.1957 13.9634
O 0.209865 6.59432 13.5515
O 11.3698 0.803766 11.8873
O 14.1104 5.81861 11.1077
O 10.903 3.4259 12.0725
O 13.6061 8.34015 12.532
O 12.5736 5.98881 13.4059
O 14.7154 2.24323 13.272
O 12.3023 7.41231 15.4617
O 14.1916 3.61361 15.5652
Si 0.0953571 13.0944 11.2075
Si 2.45184 8.77692 11.0722
Si 1.27464 15.0043 14.8295
Si 3.90475 10.6051 14.7932
Si 1.29626 11.2073 13.0167
Si 3.72768 15.1621 12.9488
O 1.21847 13.7865 15.8639
O 3.53882 9.21978 15.6514
O 2.61552 11.2452 14.0134
O 5.17841 15.5362 13.6714
O 1.62494 9.93503 12.018
O 4.0819 13.7882 12.1558
O 1.01869 12.8417 12.4764
O 3.37686 16.4111 11.9587
O 2.57275 14.8719 13.9567
O 5.19527 10.1414 13.6337
O 1.31233 16.4328 15.5279
O 4.21307 11.5984 16.0107
Si 5.04268 12.9316 11.0273
Si 7.90552 8.76805 10.9671
Si 6.23126 15.0923 14.7879
Si 8.5537 10.8376 14.7902
Si 6.37487 10.8199 12.7642
Si 8.4077 15.1344 13.0772
O 5.71406 13.9609 15.8664
O 8.32897 9.26117 15.3244
O 7.21611 11.4751 14.0417
O 9.83843 15.7606 13.917
O 7.43778 9.71995 12.4195
O 8.86539 14.2596 11.8518
O 6.07795 12.1601 11.8763
O 7.786 16.5049 12.4407
O 7.34261 14.3852 14.0285
O 9.83858 10.4505 13.7959
O 6.5773 16.269 15.7296
O 8.94333 11.5708 16.1847
Si 9.7554 13.0491 11.2087
Si 12.4398 8.71091 11.2944
Si 11.233 15.3255 14.6181
Si 13.658 10.8177 14.9113
Si 11.2229 11.0597 12.9446
Si 13.9415 15.3188 12.7827
O 10.8929 13.7736 15.3041
O 13.5599 9.64798 16.0569
O 12.5509 11.1808 13.8027
O 0.139629 15.0262 13.6729
O 11.6778 10.2472 11.7078
O 14.0785 13.8894 12.0717
O 10.6696 12.4639 12.2799
O 13.7793 16.686 11.7442
O 12.4915 15.2298 13.5576
O 0.110615 10.4975 14.0433
O 11.8863 16.4213 15.5298
O 13.8282 12.4404 15.2407
324
 Atoms. Timestep: 32500
Si 14.8699 4.3473 0.207346
Si 2.04994 17.3226 16.4492
Si 1.47576 6.37258 3.87089
Si 3.69353 2.4472 3.72496
Si 1.24412 2.27228 1.79969
Si 4.0338 6.38846 1.92975
O 1.0948 5.02766 4.67405
O 3.02853 1.1604 4.33164
O 2.4506 2.98629 2.83474
O 5.44806 6.73751 2.54869
O 1.36886 0.941622 0.977435
O 4.2527 4.97111 0.911602
O 0.973276 3.33651 0.651745
O 3.86273 7.84606 0.86266
O 2.9697 6.14345 3.18813
O 4.81495 1.9294 2.65263
O 1.44742 7.87937 4.70018
O 4.25634 3.64891 4.66447
Si 5.28713 4.23148 16.3782
Si 7.23571 -0.0373975 0.23368
Si 6.60158 6.49438 3.71768
Si 8.92476 2.25827 3.5277
Si 6.1564 2.26957 1.87199
Si 9.24159 6.41752 1.66112
O 5.89405 5.54038 4.86586
O 8.87293 1.13147 4.77704
O 7.38554 2.42836 2.82836
O 10.6525 6.7634 2.396
O 6.09484 0.956735 0.859985
O 9.0674 4.96119 0.999583
O 6.31716 3.53256 0.896402
O 8.88691 7.84444 0.790328
O 8.1103 6.24832 2.86881
O 10.2366 1.69443 2.68074
O 6.92888 7.97467 4.31868
O 9.07235 3.62548 4.46865
Si 10.2188 4.2226 16.3963
Si 12.9229 17.4623 16.1942
Si 11.448 6.71033 3.80736
Si 13.9868 2.19113 3.83134
Si 11.5779 2.17235 1.73863
Si 13.9875 6.54507 2.05101
O 11.0868 5.39141 4.69752
O 13.7442 0.844218 4.6721
O 12.6523 2.29018 2.92428
O 0.569782 6.67449 2.4702
O 12.0931 1.1489 0.535169
O 13.9412 5.08647 1.26657
O 11.0852 3.2208 0.820255
O 13.648 7.54619 0.636539
O 13.0791 6.66074 3.49095
O 0.138197 2.2252 2.83926
O 11.5033 8.03709 4.71584
O 13.858 3.36942 4.99622
Si 15.0308 12.9088 16.3761
Si 2.64603 8.78099 0.224398
Si 1.14781 15.2621 3.71517
Si 3.85005 11.039 3.39413
Si 1.18968 10.9372 1.81111
Si 3.69154 15.2043 1.86953
O 0.838476 14.0011 4.62845
O 3.45223 9.70628 4.22292
O 2.35848 11.4076 2.77969
O 4.99279 15.9895 2.43072
O 1.65133 9.48518 1.27805
O 4.59254 14.1557 1.09816
O 0.901984 11.7723 0.430815
O 3.16307 16.2528 0.56521
O 2.55119 14.8233 2.81647
O 4.7357 10.5691 1.96392
O 1.55045 16.5648 4.67317
O 4.20721 12.3599 4.22984
Si 5.14007 12.8995 0.177506
Si 7.7131 8.52702 16.544
Si 6.21476 15.3076 3.3952
Si 8.59052 10.8552 3.86896
Si 6.38601 10.6945 1.80758
Si 8.79674 15.1747 1.90815
O 5.76388 14.216 4.4385
O 8.79173 9.50537 4.66733
O 7.25197 11.2782 3.17239
O 9.77542 15.3529 3.15848
O 6.88156 9.25965 1.20308
O 9.77088 14.3223 0.787548
O 6.60481 12.4171 0.898679
O 8.27611 16.4569 1.04722
O 7.29386 14.6059 2.43203
O 9.6018 10.6188 2.4964
O 6.75663 16.719 3.98615
O 9.04816 12.2104 4.84548
Si 10.4199 13.1111 0.0573025
Si 12.5548 8.65585 16.5914
Si 11.29 15.1587 3.66733
Si 13.5993 11.029 3.8413
Si 11.1566 10.8726 2.02744
Si 13.8056 15.1589 1.81284
O 11.1365 14.0306 4.86719
O 13.6045 9.76718 5.02293
O 11.9077 11.1851 3.4199
O -0.0194536 15.8263 2.6903
O 11.626 9.28394 1.28122
O 14.5661 13.9187 1.06427
O 11.4224 12.1368 0.949811
O 13.7051 16.5031 0.86891
O 12.4775 14.8435 2.61946
O 14.8218 10.984 2.86664
O 11.5431 16.6897 4.43621
O 13.6562 12.5604 4.53232
Si 0.119868 4.16109 5.63921
Si 2.5018 0.00622953 5.6323
Si 1.41525 6.93128 9.15898
Si 3.70736 2.09869 9.36288
Si 1.18756 2.0854 7.59547
Si 3.94875 6.66233 7.37872
O 0.893379 5.67385 9.95213
O 3.24588 1.37363 10.6334
O 2.35522 2.53668 8.63502
O 5.07944 7.47771 8.13048
O 1.58082 0.621765 6.92595
O 4.52347 5.27272 6.98549
O 1.05054 3.08881 6.43562
O 3.7363 7.27085 5.77724
O 2.79596 6.4174 8.37777
O 4.67784 1.42555 8.23232
O 1.89522 8.44638 9.67516
O 4.43608 3.4496 9.73295
Si 5.13391 4.41217 5.67701
Si 7.59107 17.339 5.22481
Si 6.20672 6.93213 9.32742
Si 8.53115 2.075 9.36676
Si 6.05276 1.98727 7.4323
Si 8.79154 6.3675 7.53529
O 5.53063 5.648 9.85714
O 8.57556 0.569688 10.1572
O 7.17807 2.04385 8.49694
O 9.86154 6.74307 8.45717
O 6.86962 0.910075 6.44471
O 9.0487 4.92495 6.7846
O 5.91046 3.27878 6.57031
O 8.1245 7.61107 6.66985
O 7.57983 6.32882 8.80736
O 9.92906 1.70061 8.34443
O 6.28102 8.15525 10.4475
O 8.98824 3.55273 10.2441
Si 9.96649 4.34484 5.5937
Si 12.7091 17.4484 5.42455
Si 11.4845 6.24478 9.38777
Si 13.8877 2.14877 9.25896
Si 11.4122 1.96183 7.42155
Si 13.9405 6.50161 7.43604
O 10.7442 5.27667 10.5073
O 13.4395 1.1487 10.4292
O 12.6082 2.47358 8.29673
O 0.200544 7.14489 8.15473
O 11.9848 0.580175 6.73958
O 14.4685 4.95685 6.90844
O 11.0558 3.07176 6.26377
O 13.4038 7.53214 6.47259
O 12.8352 5.94036 8.54881
O -0.0314633 1.57239 8.36912
O 11.6486 7.82949 10.032
O 14.3185 3.41702 10.0964
Si 14.8915 12.9071 5.4546
Si 2.75257 8.65155 5.38792
Si 1.25154 15.3035 9.06604
Si 3.84218 10.8383 9.01525
Si 1.16916 10.698 7.24315
Si 4.02129 15.3685 7.46857
O 1.32311 14.0732 10.2484
O 4.00324 9.78727 10.1468
O 2.40253 11.3509 8.26921
O 5.26181 15.7107 8.35025
O 1.98174 9.42531 6.5383
O 4.20457 13.9622 6.55722
O 1.03729 11.8929 6.04409
O 3.88113 16.4929 6.12777
O 2.43262 15.1212 7.96514
O 4.75743 10.0676 7.66768
O 1.69472 16.7436 9.84324
O 4.40005 12.2333 9.48288
Si 4.98467 13.2622 5.38007
Si 7.72744 8.66739 5.55011
Si 6.50423 15.3145 9.28663
Si 8.59888 10.9049 9.31479
Si 6.14804 10.9036 7.19342
Si 8.88934 15.3083 7.24661
O 6.30594 13.9398 10.2126
O 8.54202 9.42985 10.188
O 7.3439 11.3236 8.31707
O 9.79617 16.0598 8.47737
O 6.87231 9.9033 6.18893
O 9.32928 13.8391 6.77542
O 5.82727 12.1251 6.22521
O 8.35364 16.1731 5.91645
O 7.64651 15.032 8.20472
O 9.97264 11.1523 8.39671
O 6.49787 16.4239 10.5021
O 8.89287 11.9369 10.3966
Si 10.1734 12.9404 5.66506
Si 12.4771 8.79706 5.88095
Si 11.1187 15.4322 9.06773
Si 13.9926 10.9052 8.89802
Si 11.2182 10.759 7.38417
Si 13.7606 15.2251 7.23654
O 10.8884 13.8766 9.69596
O 13.4593 9.89519 10.3483
O 12.6341 11.2111 7.98109
O 14.7 15.5383 8.4966
O 11.4674 9.13737 7.22316
O 14.1323 13.7878 6.56553
O 11.1834 11.5722 5.96055
O 13.8232 16.2573 5.99958
O 12.1045 15.1042 7.63565
O 14.9276 10.2521 7.77639
O 11.6647 16.4787 10.1538
O 14.8236 12.2386 9.32266
Si 0.0604575 4.6372 10.9514
Si 2.43649 0.166749 11.1183
Si 1.05331 6.75689 15.0937
Si 3.4237 2.09924 14.7089
Si 1.02792 2.40135 12.7131
Si 3.55842 6.67923 12.9914
O 0.751286 5.37308 15.8651
O 3.16823 0.631692 15.5221
O 2.04154 2.46871 14.053
O 4.85543 6.98339 13.8777
O 1.03802 0.901123 11.9084
O 3.64875 5.36892 11.757
O 1.21883 3.60219 11.6943
O 2.95938 7.7852 11.9667
O 2.32989 6.28013 14.0405
O 4.55032 1.7944 13.4326
O 1.33761 7.94955 16.0229
O 4.05167 3.45761 15.491
Si 4.90098 4.6353 10.9471
Si 7.39774 0.102823 11.3144
Si 6.14712 6.57181 14.7329
Si 8.4881 2.24872 14.5997
Si 5.89474 2.38308 12.9167
Si 8.73507 6.25241 12.9566
O 6.08198 5.03475 15.1951
O 8.25852 0.964011 15.7812
O 6.94036 2.62187 14.2042
O 9.93507 6.99931 13.9734
O 6.44963 1.27661 11.933
O 9.08123 4.6949 12.4404
O 5.74498 3.89466 12.061
O 8.45865 7.36365 11.7307
O 7.41163 6.47783 13.8984
O 9.50583 1.65396 13.2989
O 6.50711 7.40175 16.0755
O 9.27239 3.4117 15.3575
Si 10.079 4.084 11.1334
Si 12.6172 -0.0863055 11.216
Si 11.3751 6.69869 14.7041
Si 13.5214 2.36813 14.7288
Si 11.0307 2.01818 13.0249
Si 13.8605 6.7829 12.9325
O 11.1187 5.43994 15.843
O 13.9539 0.846597 15.2148
O 11.7559 2.62663 14.3398
O 15.0087 7.14107 13.9296
O 11.8369 0.716896 12.4202
O 13.9916 5.47226 11.7831
O 11.1091 2.87857 11.5629
O 13.1796 8.0873 12.113
O 12.5847 6.06649 13.7394
O 14.465 2.6832 13.3157
O 11.9995 7.9547 15.3089
O 13.7924 3.30133 16.0183
Si 0.0828858 12.9545 10.7113
Si 2.81028 8.99741 10.9204
Si 1.3081 15.061 14.5453
Si 3.89324 10.6634 14.7633
Si 1.42249 11.0836 12.8711
Si 3.82842 15.2848 12.6918
O 1.09031 13.5729 15.3309
O 3.3988 9.1958 15.4969
O 2.6413 11.1797 14.005
O 5.17802 15.8142 13.7283
O 2.09059 10.1274 11.6458
O 4.20475 14.3219 11.4648
O 1.10794 12.3688 11.8142
O 3.16735 16.8848 12.3724
O 2.65033 14.5178 13.7057
O 5.12356 10.2056 13.9127
O 1.12354 16.5876 15.165
O 4.44153 11.6398 15.9745
Si 4.98884 13.1277 10.6682
Si 7.58423 8.61692 11.2139
Si 6.16829 15.1821 14.8505
Si 8.63928 11.1789 14.6378
Si 6.20442 10.9286 12.9333
Si 8.71347 15.1449 13.0212
O 5.71313 13.7387 15.3346
O 8.42524 9.69231 15.5127
O 7.39735 11.7928 13.8176
O 10.0033 15.576 14.0588
O 7.17442 9.84422 12.4719
O 9.17791 14.048 11.9214
O 5.54293 12.0966 11.9442
O 8.24263 16.7043 12.5204
O 7.51717 14.5729 14.0052
O 9.72808 10.5346 13.4082
O 6.34775 16.2239 16.0619
O 9.60928 11.8585 15.8791
Si 10.1615 12.996 10.9677
Si 12.3476 8.88761 10.91
Si 11.4671 15.1745 14.6016
Si 13.7739 10.8649 14.6037
Si 11.1836 10.7924 12.7655
Si 13.7075 14.77 12.7554
O 11.654 13.898 15.74
O 13.7419 9.81053 15.8667
O 12.4834 10.9512 13.5705
O 15.0359 14.8798 13.5553
O 11.2229 9.90412 11.5104
O 13.9561 13.4159 11.6889
O 10.9114 12.2628 12.1558
O 13.3327 16.2687 12.1116
O 12.3878 14.3991 13.6307
O -0.169204 10.5466 13.5671
O 12.1077 16.7118 14.9515
O 13.849 12.1985 15.3915
324
 Atoms. Timestep: 33000
Si 14.3845 4.47175 16.2088
Si 2.57971 17.3078 16.3246
Si 1.73391 6.39495 3.68741
Si 3.60625 2.2975 3.46508
Si 1.01485 2.31401 1.42165
Si 3.92633 6.50837 1.93946
O 1.12461 5.3655 4.725
O 3.42086 1.11459 4.38466
O 2.27464 2.46013 2.45872
O 5.30439 6.35017 2.64426
O 1.44386 0.890388 0.844068
O 3.97898 5.30042 0.900725
O 0.449203 3.4484 0.386536
O 3.74386 7.88724 0.952395
O 2.95317 5.93676 2.99125
O 5.02102 2.04697 2.71172
O 1.49967 7.86524 4.47329
O 3.80614 3.67034 4.47295
Si 4.97708 4.48016 16.4848
Si 7.5213 17.3322 16.5297
Si 6.23949 6.40134 3.84709
Si 8.75604 2.2639 3.71408
Si 6.2615 2.36624 1.89991
Si 8.93743 6.46419 2.13766
O 6.29743 4.94078 4.54734
O 8.66425 1.23588 4.91728
O 7.45391 2.78775 2.99309
O 10.4626 6.47798 2.53106
O 6.62065 0.948178 0.95407
O 8.72966 5.18866 1.24631
O 6.05173 3.56381 0.833885
O 8.58409 7.84809 1.2065
O 8.01444 6.52801 3.46489
O 9.59791 1.41983 2.456
O 6.28378 7.7519 4.68772
O 9.82013 3.23727 4.36202
Si 9.93539 4.48932 0.322083
Si 12.4917 17.1937 0.144186
Si 11.4988 6.51788 3.87839
Si 13.659 2.24828 3.50413
Si 11.1297 2.08422 1.99383
Si 14.0837 6.37334 2.00304
O 11.0864 5.5378 5.13215
O 13.8344 1.03191 4.67015
O 12.0044 2.13313 3.3802
O 0.644171 6.49409 2.5017
O 11.6007 0.686996 1.1129
O 13.4755 5.19944 0.878011
O 10.9564 3.4983 1.26538
O 13.6316 7.56018 0.869771
O 12.9325 5.98859 3.27108
O 14.6353 1.78632 2.30629
O 11.5079 8.15819 4.55555
O 14.034 3.65809 4.24937
Si -0.00365168 12.9972 0.147504
Si 2.4353 8.60549 0.246233
Si 1.19303 15.0494 3.97377
Si 3.54082 11.0585 3.79443
Si 1.18196 10.6854 2.03973
Si 3.49495 15.0427 1.87526
O 1.15268 14.0613 5.20594
O 3.32465 9.73645 4.67931
O 2.04615 11.4838 3.23785
O 4.59516 15.503 2.98388
O 1.32727 9.15289 1.38468
O 4.18959 13.805 1.25654
O 0.824225 11.6599 0.696599
O 3.269 16.2167 0.842658
O 2.31446 14.5238 2.82542
O 4.54923 10.7224 2.60588
O 1.82902 16.5509 4.25937
O 4.27927 11.9138 4.88216
Si 4.86949 13.1 16.4794
Si 7.92064 8.86987 0.26009
Si 6.12288 15.2769 3.44774
Si 8.62948 10.8621 3.79517
Si 6.04388 10.7729 1.91032
Si 8.71438 15.3252 1.7993
O 6.17905 13.9205 4.44468
O 8.36213 9.5741 4.80679
O 7.34635 11.2565 2.94692
O 9.70537 15.539 3.12014
O 6.45086 9.35687 1.0296
O 9.29039 13.8547 1.02308
O 5.75043 11.9973 0.760396
O 8.79723 16.5076 0.719023
O 7.14002 14.9258 2.17668
O 10.0091 10.5448 2.9714
O 6.71685 16.686 3.97154
O 8.98616 12.2848 4.56556
Si 10.1752 12.9559 0.00447731
Si 12.7165 8.70098 0.209369
Si 11.269 15.1611 3.80555
Si 13.5762 10.8233 3.67856
Si 11.2911 10.8102 1.92104
Si 13.732 14.8512 1.99711
O 11.0513 14.0859 4.94423
O 13.5768 9.68696 4.78818
O 12.2793 11.5698 3.07028
O 14.8346 15.3951 3.07964
O 11.9511 9.59743 1.20274
O 13.952 13.3315 1.44612
O 10.9923 11.8238 0.77289
O 13.4904 16.1559 1.08595
O 12.3068 14.5825 2.7439
O 14.588 10.2525 2.65419
O 11.8357 16.4983 4.73314
O 14.3925 12.0236 4.46397
Si 0.168986 4.26461 5.39992
Si 2.71191 0.0149283 5.41598
Si 1.35637 6.67429 9.2519
Si 3.77253 2.31704 9.20604
Si 1.14411 1.88957 7.40876
Si 3.76217 6.24018 7.18503
O 1.39036 5.31068 10.1789
O 3.55508 0.874486 10.2269
O 2.44608 2.34083 8.19645
O 4.79857 6.89153 8.15095
O 1.56853 0.649717 6.47063
O 4.44087 4.90383 6.59599
O 0.642985 2.97629 6.21297
O 3.46714 7.26551 5.91293
O 2.24755 6.24265 7.95356
O 5.16745 2.41344 8.31661
O 1.80266 7.86777 10.1589
O 3.81119 3.41734 10.5196
Si 5.13631 4.08003 5.35209
Si 7.56306 17.3055 5.39293
Si 6.20432 6.39041 9.08611
Si 8.86615 2.19592 8.91329
Si 6.30182 1.82278 7.18761
Si 8.52622 6.0306 6.92523
O 5.43649 5.65295 10.4213
O 8.57331 1.27195 10.1654
O 7.59879 2.19352 8.05006
O 9.65396 6.61848 8.09428
O 6.43019 0.284663 6.48956
O 8.7654 4.52878 6.39235
O 5.70227 2.61451 5.91516
O 8.28941 7.32553 6.04412
O 7.23113 5.71978 8.06171
O 9.98066 1.42394 7.99657
O 7.14519 7.62544 9.83682
O 9.32043 3.66818 9.70606
Si 10.3069 4.13464 5.57207
Si 12.9261 0.0501432 5.671
Si 11.2858 6.40004 8.97102
Si 13.8113 2.67596 9.25469
Si 11.5185 2.04319 7.43502
Si 13.9293 6.4367 7.14704
O 11.366 5.33558 10.1465
O 13.2487 1.83529 10.7551
O 12.4685 2.7881 8.43103
O 14.5877 6.62812 8.75899
O 12.1957 0.697572 6.92795
O 14.4452 5.14376 6.65548
O 11.4376 3.2184 6.40817
O 13.5808 7.43214 5.93352
O 12.3387 6.12394 7.7494
O 14.7868 1.78994 8.32192
O 11.4889 7.96297 9.83053
O 14.5897 3.798 10.0516
Si 0.260757 12.7121 5.63698
Si 2.56917 8.55559 5.46704
Si 1.35182 15.3924 9.13682
Si 3.77093 10.95 9.27902
Si 1.28041 10.556 7.53286
Si 4.05318 15.4532 7.24671
O 1.44203 14.2504 10.3364
O 3.70225 9.83768 10.5497
O 2.188 11.1712 8.66042
O 5.39571 15.6669 8.26549
O 1.80995 9.1016 7.02143
O 4.35689 13.8561 6.76377
O 1.34129 11.8909 6.45144
O 3.8209 16.7651 6.39553
O 2.91656 15.5315 8.40357
O 4.77532 10.9066 7.97163
O 1.29749 16.8124 10.0545
O 4.29625 12.2407 10.1164
Si 5.15505 13.0002 5.51361
Si 7.35335 8.62228 5.55026
Si 6.60805 15.3016 9.2021
Si 8.74196 11.062 9.23975
Si 6.30546 11.1009 7.45621
Si 8.96168 15.1184 7.29332
O 6.20741 14.1459 10.3555
O 8.1811 10.1388 10.3714
O 7.52873 11.6965 8.45965
O 10.0095 15.8766 8.33018
O 6.92025 9.66178 6.8897
O 9.25216 13.5359 6.95006
O 6.30092 12.1419 6.08437
O 8.28318 16.0159 5.88101
O 7.68313 14.8252 8.19204
O 9.79846 10.4042 8.09209
O 7.20703 16.7044 9.89866
O 9.4919 12.5465 9.56944
Si 10.054 12.859 5.52653
Si 12.6307 8.63441 5.67286
Si 11.4912 15.4427 9.06883
Si 13.9133 11.0154 9.08667
Si 11.3064 10.7862 7.53009
Si 14.0421 15.1428 7.21323
O 11.387 14.1117 10.0387
O 13.7921 9.66468 10.3378
O 12.3389 11.4642 8.46959
O 0.371407 15.4573 7.93878
O 11.9223 9.32344 7.02364
O 14.1751 13.5429 6.61232
O 11.1387 11.5932 6.10454
O 14.1004 16.353 6.2436
O 13.0178 15.0782 8.51078
O 14.7312 10.2508 7.80542
O 11.5872 16.9178 9.54258
O 14.8285 12.1511 9.65025
Si 0.368249 4.66286 11.2429
Si 2.41495 0.172571 11.0702
Si 1.02962 6.67966 14.7447
Si 3.64917 2.25851 14.7495
Si 1.16049 2.32618 12.9398
Si 3.81347 6.60103 13.1041
O 0.309797 5.41175 15.3647
O 3.74435 0.795806 15.4364
O 2.25799 2.74059 14.1446
O 4.97083 7.29973 14.0877
O 1.70091 1.27863 12.0885
O 4.15787 5.05842 12.7454
O 1.43713 3.62765 12.0535
O 3.76619 7.59822 11.9351
O 2.38404 6.75639 13.7817
O 4.93815 2.07018 13.8212
O 1.44074 7.57668 15.9667
O 3.9234 3.64795 15.6537
Si 4.74453 4.42522 11.3336
Si 7.70885 0.443992 11.1658
Si 6.46308 6.86893 14.6861
Si 8.64035 2.38231 14.7064
Si 6.28856 2.52668 12.9234
Si 8.91077 6.73043 12.6313
O 6.0595 5.54765 15.7164
O 8.83353 1.04059 15.6942
O 7.152 2.75949 14.3385
O 9.83313 7.16964 14.0496
O 6.53368 1.30756 11.9324
O 9.37028 5.43779 11.7372
O 6.08851 3.57432 11.8801
O 8.71172 8.15661 11.8812
O 7.49565 6.47774 13.5186
O 9.34375 2.26703 13.2561
O 7.1235 8.03074 15.5295
O 9.14725 3.61779 15.7347
Si 10.2777 4.30886 10.7339
Si 12.6925 0.333351 10.9545
Si 11.1841 6.86179 14.7686
Si 13.4337 2.01126 14.6186
Si 10.9214 1.93211 12.8085
Si 13.8057 6.72933 12.9585
O 10.829 5.40438 15.7053
O 13.6571 0.713385 15.6697
O 11.8025 2.14418 14.2245
O 14.9767 7.53342 13.6669
O 11.4175 0.493422 12.1939
O 14.2017 5.28168 12.183
O 11.0314 3.04434 11.5214
O 13.2785 7.48377 11.6037
O 12.5701 6.57102 13.8934
O 14.7681 1.8643 13.7267
O 11.7807 8.0397 15.5897
O 13.2495 3.4595 15.4164
Si 0.169419 13.2877 10.7178
Si 2.67578 8.68135 11.1525
Si 1.29315 15.1354 14.5342
Si 3.38372 11.0521 14.7556
Si 1.24515 10.9261 12.6703
Si 3.81904 15.0847 12.8597
O 0.723854 14.37 16.0548
O 2.60204 9.7478 15.5213
O 2.79239 11.041 13.2779
O 5.05 15.7091 13.641
O 1.43913 9.51966 12.0121
O 3.86611 13.7146 12.0958
O 0.912249 12.3699 11.9672
O 2.84058 16.1366 12.0298
O 2.81934 14.6326 14.1726
O 4.98211 10.5585 14.3694
O 1.42439 16.6805 15.2415
O 3.58722 12.4423 15.6376
Si 5.13933 13.2229 11.0766
Si 7.35425 8.92018 11.0372
Si 6.33113 15.1453 14.4374
Si 9.01944 11.0616 14.6966
Si 6.14916 10.7649 13.0804
Si 9.02074 15.4205 12.7629
O 5.67971 14.1058 15.4025
O 8.87179 10.2174 16.1434
O 7.48601 11.141 14.0197
O 10.035 15.1957 13.8519
O 6.20707 9.2346 12.2424
O 9.20145 14.3987 11.5332
O 6.04681 11.9752 11.9152
O 8.59926 16.8853 12.3854
O 7.48904 14.8932 13.3382
O 10.1219 10.4425 13.6211
O 6.9076 16.545 15.3285
O 9.28106 12.5422 15.1723
Si 10.1048 13.3582 10.7981
Si 12.5598 8.69032 10.8306
Si 11.4645 15.0182 14.6406
Si 13.935 10.9684 14.6948
Si 11.3408 10.9358 12.727
Si 13.7404 15.2903 12.6499
O 11.2235 14.1075 15.9545
O 13.5708 9.7655 15.6617
O 12.7276 11.3899 13.6969
O -0.0152403 15.1534 13.5523
O 11.5645 9.6173 11.6158
O 13.7766 14.0107 11.3978
O 10.6916 12.2707 12.1017
O 13.6067 16.5686 11.7412
O 12.5496 14.9465 13.6
O 0.077492 10.4778 13.7944
O 11.7183 16.404 15.5542
O 14.0553 12.3743 15.4144
324
 Atoms. Timestep: 33500
Si 14.8883 4.37921 16.0362
Si 2.73526 0.308426 0.147475
Si 1.57207 6.71169 3.71814
Si 3.48772 2.30276 3.55303
Si 1.21788 2.41033 1.9113
Si 4.27252 6.6094 1.61346
O 1.3489 5.40507 4.53162
O 3.47229 1.28508 4.79059
O 2.15232 2.83502 3.09655
O 5.27585 7.26156 2.70704
O 1.83974 0.955369 1.29946
O 4.31128 4.92267 1.36186
O 0.885888 3.77414 0.87173
O 3.87241 7.6485 0.440591
O 2.85599 6.81632 2.63985
O 4.53712 1.81094 2.32595
O 1.38922 8.10498 4.53329
O 4.31095 3.60057 4.25365
Si 5.20839 4.31992 0.147939
Si 7.85126 0.200363 0.207414
Si 6.23072 6.76098 3.96227
Si 8.49353 2.18733 4.08403
Si 6.04378 2.13447 1.9373
Si 8.80955 6.5681 2.16913
O 5.68513 5.45889 4.53621
O 8.72965 1.13981 5.2503
O 6.94132 2.15756 3.45516
O 9.97625 7.2301 3.00761
O 6.74978 0.768429 1.17355
O 9.16181 5.37567 1.20959
O 6.37526 3.40043 0.85523
O 7.87633 7.56873 1.14233
O 7.72391 6.25914 3.40742
O 9.627 1.8334 2.98819
O 6.26093 8.14476 4.88322
O 8.69592 3.73012 4.5021
Si 9.79959 4.33653 16.4265
Si 12.4835 17.2732 0.312114
Si 11.4204 6.78835 3.57722
Si 13.5246 2.22518 3.52155
Si 10.9281 2.11233 1.98126
Si 13.9281 6.44503 1.59483
O 10.858 5.47482 4.41766
O 13.4744 0.858982 4.51684
O 11.9961 2.78675 2.95271
O 0.4333 6.5541 2.42766
O 11.6447 0.841141 1.42919
O 13.8724 5.41488 0.432799
O 10.3367 3.08031 0.891807
O 13.7373 7.99312 0.976377
O 12.3539 6.09599 2.19065
O 14.4693 1.88228 2.15956
O 12.0733 7.96338 4.41014
O 14.4134 3.30602 4.38748
Si 0.198321 13.2407 0.334012
Si 2.64622 8.80011 16.3814
Si 1.26317 15.152 3.72235
Si 3.66582 11.0257 3.85419
Si 1.2462 10.8555 2.07491
Si 3.69756 15.0493 2.06193
O 1.50516 14.0784 4.94704
O 3.68783 9.45456 4.40995
O 2.1392 11.3741 3.2751
O 4.64561 15.338 3.24643
O 2.00798 9.54971 1.42664
O 3.98107 13.564 1.18833
O 1.14388 12.162 1.00385
O 3.54388 16.2727 0.843198
O 2.13177 14.5608 2.44529
O 4.75232 10.7369 2.63295
O 1.67832 16.6907 4.37374
O 4.08649 12.502 4.55141
Si 5.0804 13.0014 16.3923
Si 7.32632 8.62507 16.3378
Si 6.17721 15.2893 3.87083
Si 8.54736 10.7925 3.79575
Si 6.0799 10.7001 1.76765
Si 8.52858 15.2042 2.01234
O 6.31775 13.9719 4.90146
O 8.08109 9.91419 4.98117
O 7.30825 11.3643 2.99914
O 9.4671 15.4433 3.31874
O 6.22047 9.51523 0.773305
O 9.13693 13.6317 1.46328
O 6.20394 11.9652 0.614225
O 8.74335 16.2366 0.869944
O 7.06759 15.067 2.52132
O 9.45566 10.1201 2.63614
O 6.41481 16.537 4.87831
O 9.38954 12.0575 4.33204
Si 9.91222 12.9155 0.195546
Si 12.3992 8.7456 0.332411
Si 10.9892 15.1418 3.7488
Si 13.579 11.2183 3.7046
Si 10.8696 10.782 2.0233
Si 13.5222 15.0443 2.03565
O 10.8944 14.0399 4.7909
O 13.696 10.0573 4.85461
O 12.0017 11.3227 3.27354
O 14.5777 15.3864 3.21219
O 11.7911 9.47101 1.648
O 13.844 13.6759 1.36337
O 11.066 11.9234 0.83683
O 13.6006 16.0557 0.841818
O 11.9244 15.0199 2.46243
O 14.5816 10.4831 2.61412
O 11.369 16.4562 4.57833
O 14.236 12.4842 4.3654
Si 0.479182 4.27429 5.32224
Si 2.69013 0.107332 5.57686
Si 1.37676 6.48901 9.06602
Si 3.9246 2.37594 9.19125
Si 1.46739 2.32588 7.43173
Si 3.69614 6.17412 7.23337
O 1.45673 5.66753 10.6977
O 3.49674 1.10282 10.3446
O 2.67625 2.74949 8.36106
O 4.87158 6.78957 8.19999
O 2.05612 0.94704 6.74328
O 4.02559 4.84081 6.45512
O 1.28665 3.40343 6.24733
O 3.32705 7.37827 6.0229
O 2.27933 5.7097 8.00953
O 5.08819 1.89542 8.29264
O 1.90599 7.85646 9.58635
O 4.14239 3.65707 10.0858
Si 5.22394 4.17361 5.47359
Si 7.67668 17.257 5.92979
Si 6.2655 6.72359 8.90456
Si 8.9478 2.63793 9.13525
Si 6.58084 2.30187 7.59117
Si 8.77078 6.6654 7.25445
O 6.1726 5.4445 10.0082
O 8.35571 1.5195 10.3203
O 7.67592 3.20863 8.31336
O 9.59849 7.24179 8.63442
O 6.99961 0.770983 7.13025
O 9.35819 5.40618 6.51631
O 6.30246 3.12961 6.21338
O 8.82303 7.74419 6.28238
O 7.25719 6.20769 7.7446
O 9.9792 2.03405 8.15778
O 6.96449 7.95925 9.50914
O 9.64635 3.96566 9.81822
Si 9.92719 4.47249 5.35944
Si 12.4372 17.1327 5.36973
Si 11.1647 7.04679 9.02641
Si 13.9569 2.42062 9.17968
Si 11.4074 2.25955 7.28147
Si 13.5521 6.5031 7.06104
O 11.2648 6.03996 10.3178
O 13.9835 1.3542 10.3437
O 12.5768 2.62934 8.43222
O 14.6368 6.28831 8.38868
O 11.7085 0.719356 6.67172
O 14.2431 5.39325 6.21081
O 10.9632 3.39299 6.19181
O 13.848 7.77517 6.12749
O 12.1297 6.45248 7.73092
O 14.9267 1.87924 8.00344
O 11.8124 8.37087 9.62444
O 14.3603 3.78804 9.99868
Si 0.604535 12.6501 5.41213
Si 2.55703 8.618 5.46111
Si 1.35633 14.9751 9.10795
Si 3.78305 11.0226 9.43032
Si 1.39572 10.7707 7.45024
Si 4.02861 15.1068 7.45531
O 0.928257 13.8775 10.1007
O 3.64446 9.7264 10.4033
O 2.30107 11.3738 8.61781
O 5.37051 15.5369 8.169
O 1.68793 9.43313 6.78248
O 4.32323 13.3654 7.02892
O 1.51672 11.5389 5.9932
O 3.71421 16.2674 6.47499
O 2.88256 14.6559 8.51561
O 4.72912 10.5658 8.2612
O 1.61204 16.3683 9.97592
O 4.1103 12.135 10.4949
Si 5.16096 12.8764 5.61561
Si 7.5446 8.72404 5.86694
Si 6.37727 15.1655 9.35437
Si 8.72979 10.8024 9.23117
Si 6.2349 10.9084 7.48674
Si 8.77941 14.8026 7.64406
O 5.81654 14.1236 10.3737
O 8.83602 9.59145 10.3079
O 7.41167 11.4487 8.70816
O 10.2717 15.457 8.25801
O 6.65516 9.40236 7.10677
O 8.84776 13.5097 6.61676
O 5.56028 11.3901 6.08813
O 8.31137 16.0573 6.64532
O 7.87293 14.3822 8.90518
O 9.48491 10.2668 7.89534
O 6.98412 16.5557 10.0555
O 9.55319 12.3142 9.58216
Si 9.98843 12.8715 5.44097
Si 12.8968 8.87107 5.63489
Si 11.625 15.0483 9.1435
Si 13.5418 10.9488 9.26234
Si 10.9796 10.5627 7.49155
Si 13.9241 14.6143 7.1525
O 11.0451 14.1102 10.1893
O 13.5155 9.67584 10.4066
O 11.9911 11.0808 8.62375
O 0.418306 15.3663 7.84339
O 11.7361 9.30866 6.711
O 14.5931 13.2603 6.58825
O 10.866 11.6284 6.2567
O 13.4741 15.8844 6.2791
O 12.9783 14.4114 8.55638
O 14.7751 10.6294 8.16182
O 12.1693 16.5256 9.53381
O 13.5726 12.3764 10.0542
Si 0.397369 4.5088 11.0918
Si 2.5888 17.137 11.0282
Si 1.20398 6.70876 14.4235
Si 3.85768 2.25407 14.5184
Si 1.51574 2.07295 12.8464
Si 3.86141 6.61417 12.7163
O 1.12941 5.28608 15.2716
O 3.93258 1.09274 15.7008
O 2.38601 2.41565 14.1657
O 4.955 7.02534 13.7606
O 1.98419 0.501545 12.3989
O 4.35525 5.2773 11.966
O 1.37636 3.43365 11.9377
O 3.42486 7.78994 11.6639
O 2.41314 6.55327 13.563
O 4.74978 1.87308 13.3131
O 1.49757 7.6266 15.8585
O 4.53603 3.60366 15.3297
Si 5.25272 4.44255 10.9093
Si 7.84054 0.249038 11.1471
Si 6.36512 6.47743 14.4692
Si 8.59305 2.43063 14.4489
Si 6.27628 2.18534 12.7619
Si 8.7652 6.4741 12.8052
O 5.90931 5.60469 15.8216
O 8.69543 1.25582 15.5302
O 7.1253 2.50362 14.1498
O 9.7404 6.52494 14.2034
O 7.00992 0.755719 12.4096
O 9.22586 5.42668 11.7955
O 6.19567 3.0056 11.4874
O 8.71477 7.71242 11.8286
O 7.53972 5.66903 13.5246
O 9.55528 2.36064 13.0912
O 7.04078 7.90744 14.9568
O 9.00039 3.99826 15.0863
Si 10.3189 4.81333 10.9787
Si 12.7535 0.45503 10.7107
Si 11.1385 6.28292 14.9343
Si 13.6576 2.0212 14.4335
Si 11.1479 2.32736 12.3824
Si 13.5289 6.58195 12.9127
O 11.2519 5.00048 15.8485
O 13.4237 1.18481 15.8458
O 12.1011 2.04567 13.6513
O 14.6542 7.28115 13.8127
O 11.4507 1.54889 11.1694
O 14.1236 5.16052 12.1224
O 11.2327 3.9117 11.8893
O 12.7409 7.69487 12.0964
O 12.4671 6.06861 14.0936
O 14.9541 1.69962 13.7088
O 11.4338 7.76486 15.5721
O 13.9317 3.51836 15.1085
Si 14.804 13.0255 11.0045
Si 2.51415 8.72575 10.8692
Si 1.33066 15.3518 14.7325
Si 3.81369 10.8271 14.4293
Si 1.15165 10.6737 12.8671
Si 3.98673 15.1457 12.8997
O 1.04705 14.5081 16.1661
O 3.43243 9.40157 15.1501
O 2.56807 10.9354 13.5361
O 4.66338 16.1098 13.9345
O 1.28338 9.33883 11.807
O 4.48875 13.7567 12.5498
O 0.681339 11.7032 11.7575
O 3.343 15.694 11.4673
O 2.59192 14.7979 13.7668
O 5.09177 10.4409 13.6391
O 1.97709 16.7182 15.2721
O 4.02514 12.1663 15.3852
Si 5.27756 13.0423 11.2865
Si 7.59208 8.80653 10.83
Si 6.0878 15.4055 14.566
Si 8.90877 11.0049 14.643
Si 6.40445 10.6747 12.8035
Si 8.73752 15.2307 12.8015
O 5.80736 13.9921 15.3141
O 8.45791 9.87093 15.8498
O 7.73207 10.7789 13.6303
O 9.73584 15.2311 14.1416
O 6.40089 9.3133 11.6974
O 8.99439 13.6214 12.1152
O 6.26131 11.8287 11.7604
O 9.17672 16.5148 11.7736
O 7.11182 15.2289 13.3408
O 10.3237 10.5613 14.101
O 6.89829 16.599 15.517
O 8.79434 12.3555 15.353
Si 10.1548 13.0957 11.1264
Si 12.4073 8.8852 11.0039
Si 11.2168 15.0472 14.8128
Si 13.8029 10.9699 14.7997
Si 11.3601 10.9096 12.9286
Si 13.7407 15.4959 12.9716
O 11.081 13.8389 15.7889
O 12.8351 10.2351 15.9151
O 13.0204 11.0544 13.366
O 14.8711 15.7023 14.0027
O 11.1434 9.76977 11.644
O 14.0745 14.0561 12.1153
O 11.0417 12.2851 12.2322
O 13.3017 16.5145 11.8848
O 12.1901 14.7786 13.5081
O 0.287959 10.2951 14.1795
O 11.5349 16.5936 15.4793
O 14.2098 12.4333 15.4864
324
 Atoms. Timestep: 34000
Si 0.543921 4.18105 16.4087
Si 2.8938 0.248889 0.147515
Si 1.21509 6.89774 3.77065
Si 3.92009 2.10878 3.90931
Si 1.39383 2.0697 2.17484
Si 3.87238 6.60936 2.10386
O 0.719127 5.95059 5.12128
O 3.93696 0.677539 4.68693
O 2.31189 2.44442 3.57932
O 4.84934 7.33445 3.23303
O 1.76982 0.761577 1.39672
O 4.48526 5.24193 1.4795
O 1.35584 3.25189 1.14083
O 3.94241 7.80853 0.785518
O 2.44641 6.3765 2.89543
O 4.82578 1.87844 2.64343
O 1.62296 8.27253 4.50847
O 4.37316 3.37129 4.85487
Si 5.33372 4.42493 0.233753
Si 7.52682 0.221203 16.3312
Si 6.38217 6.86241 3.84069
Si 8.73234 2.29316 3.94738
Si 6.32144 2.19543 1.87108
Si 8.79994 6.33291 2.05343
O 5.78677 5.74451 5.02525
O 8.54459 0.867349 4.6835
O 7.25889 2.95458 3.11094
O 10.1305 7.10154 2.67531
O 6.9114 0.791642 1.52554
O 9.39303 4.87383 1.62576
O 6.34863 3.29756 0.605626
O 8.42336 7.27951 0.602812
O 7.63672 6.20511 3.16249
O 9.77148 2.15804 2.71786
O 7.20104 8.37449 4.17463
O 8.8618 3.60584 4.90153
Si 10.1696 4.33909 0.258231
Si 12.4103 17.2108 0.429341
Si 11.3903 6.65078 3.49791
Si 13.8165 2.39055 3.89639
Si 11.3264 2.15637 2.10465
Si 13.8822 6.43455 1.71544
O 10.662 5.44484 4.32729
O 13.5077 1.37439 5.09374
O 12.3469 2.6364 3.19385
O 14.8558 7.2881 2.78023
O 11.6346 0.619695 1.74337
O 14.3309 5.0906 1.08683
O 11.2971 3.0625 0.79172
O 13.5814 7.84446 0.895718
O 12.3782 6.21752 2.27475
O 14.6885 1.58397 2.66811
O 11.7607 7.58765 4.64399
O 14.1325 3.77995 4.59798
Si 0.450298 12.9402 16.2223
Si 2.88444 8.69872 16.0812
Si 1.18666 15.2806 3.84349
Si 3.69497 10.9449 3.65157
Si 1.28205 10.6012 1.65539
Si 3.80675 15.314 2.11556
O 1.34219 13.909 4.55327
O 3.77159 9.86047 4.86237
O 2.15808 11.1779 2.92454
O 4.60512 15.4082 3.43421
O 1.86276 9.3254 0.930963
O 3.89524 13.7777 1.35504
O 1.25039 11.8272 0.606118
O 4.04508 16.666 1.08314
O 2.1688 15.385 2.5092
O 4.56611 10.2953 2.41836
O 1.22234 16.701 4.86333
O 4.48281 12.4074 4.00172
Si 5.08423 13.3448 0.316949
Si 7.51837 8.73025 16.3147
Si 6.14265 15.2037 4.07627
Si 8.35975 11.1236 3.96104
Si 6.03356 10.8277 1.90566
Si 8.4217 14.8827 1.98529
O 6.27429 13.9784 5.05627
O 8.31101 10.4159 5.42831
O 6.98498 11.4839 3.15857
O 9.54375 15.3718 3.24909
O 6.5086 9.5086 1.14861
O 8.6152 13.3127 1.56261
O 5.84871 11.8719 0.701293
O 8.48637 16.1471 0.905531
O 7.055 15.2077 2.70667
O 9.5396 10.4515 3.01602
O 6.302 16.4308 4.90843
O 9.37937 12.46 4.13585
Si 9.68447 12.9716 0.402362
Si 12.7092 8.79252 16.3459
Si 11.0395 15.3366 3.9159
Si 13.6145 10.712 3.41246
Si 10.8434 10.5545 2.04992
Si 13.5588 14.9236 2.01836
O 11.1009 14.2658 5.2581
O 13.6927 9.56928 4.57323
O 11.9877 10.9071 3.16196
O 14.4972 15.5108 3.31863
O 11.4837 9.48132 1.02769
O 14.3446 13.6964 1.29085
O 10.6405 11.9605 1.2417
O 13.3736 15.9514 0.760005
O 12.04 14.8244 2.75968
O 14.5411 10.3668 2.05914
O 11.2617 16.9901 4.56019
O 14.087 12.1505 4.05793
Si 0.185277 4.59606 5.68242
Si 2.73026 17.0049 5.5326
Si 1.20493 6.65643 9.30567
Si 3.70761 2.3241 9.00076
Si 1.32533 2.3551 7.08382
Si 3.69301 6.59342 7.57445
O 1.30949 5.34687 10.3485
O 4.009 1.31314 10.3127
O 2.09673 2.67492 8.52947
O 5.0263 7.15113 8.59762
O 2.34286 1.08376 6.60542
O 3.96076 5.14568 6.86883
O 1.37228 3.55915 5.89047
O 3.74235 7.84223 6.38173
O 2.26493 6.41636 8.12613
O 4.61568 2.13308 7.7406
O 1.37824 8.15667 9.93746
O 3.99459 3.72501 9.85834
Si 5.01171 4.53484 5.84363
Si 7.4349 17.031 5.73253
Si 6.4294 6.64581 8.96474
Si 8.97436 2.39072 9.13659
Si 6.26206 2.30478 7.50422
Si 9.06888 6.63936 7.27278
O 6.40225 5.13957 9.87586
O 8.89828 1.08557 10.3943
O 7.29059 2.47412 8.7703
O 9.88212 7.12034 8.55266
O 6.85267 0.99843 6.92305
O 9.58677 5.11957 6.76764
O 6.22604 3.74982 6.77164
O 8.80633 7.47578 6.04984
O 7.63279 6.36601 7.87589
O 9.58829 2.22481 7.65058
O 6.66199 7.90245 10.0059
O 9.38755 3.80995 9.82437
Si 10.2625 4.38351 5.44697
Si 12.4492 0.29933 5.671
Si 11.1545 6.68852 9.1986
Si 13.4248 2.47043 8.95713
Si 11.2413 2.27634 7.28209
Si 13.6611 6.38892 7.55434
O 11.0773 5.68543 10.3532
O 13.3438 1.43605 10.119
O 11.9156 3.06125 8.6341
O 14.408 6.83733 8.7882
O 11.8833 0.902227 7.04555
O 14.4143 5.00329 7.12554
O 11.5107 3.23944 5.83157
O 13.5659 7.61399 6.47753
O 12.1356 6.12254 7.84867
O 14.3536 1.93817 7.56915
O 11.8446 8.21084 9.53297
O 14.0356 3.80124 9.33158
Si 14.965 12.9238 5.1925
Si 2.67049 8.82989 5.76685
Si 1.50207 15.1447 9.29296
Si 3.5851 11.1444 9.12281
Si 1.24689 10.8546 7.3061
Si 3.9231 14.7691 7.36028
O 1.24496 13.872 10.3499
O 2.94727 10.064 10.0857
O 2.31941 11.6841 8.19292
O 5.43935 15.3863 7.81093
O 1.46738 9.53649 6.65141
O 4.31712 13.3109 6.82768
O 0.921968 11.7522 6.03394
O 3.31794 15.5627 5.94428
O 2.73158 14.7107 8.39368
O 4.85397 10.5222 8.33934
O 1.89661 16.6843 9.79536
O 3.93649 12.5211 9.98795
Si 5.22532 12.7193 5.40213
Si 7.62039 8.85905 5.67492
Si 6.25843 15.2516 9.16005
Si 8.76485 11.0184 9.27662
Si 6.37015 10.7362 7.43551
Si 8.68456 14.7099 7.40066
O 5.7299 14.4693 10.4545
O 8.8218 9.58358 10.3492
O 7.30091 11.2854 8.70505
O 9.87104 15.5121 8.14875
O 6.60786 9.10466 6.78807
O 9.31257 13.3888 6.72946
O 6.01119 11.5212 6.17149
O 8.44417 15.8681 6.26579
O 7.56862 14.363 8.52401
O 9.6546 10.7039 7.90926
O 6.81504 16.7941 9.33457
O 9.52073 12.3172 9.7619
Si 10.2425 12.8734 5.49647
Si 12.6078 8.67187 5.46794
Si 11.3063 15.0415 9.24154
Si 13.5858 10.9921 9.19
Si 11.0945 10.7488 7.19462
Si 13.6041 14.8689 7.25743
O 10.8729 14.2072 10.5441
O 13.5918 9.82852 10.3763
O 12.1539 10.9582 8.49619
O 14.9314 15.2205 8.45657
O 11.5316 9.22882 6.63231
O 13.8279 13.7876 5.94774
O 11.1342 11.5787 5.83657
O 13.3636 16.2097 6.23891
O 12.4745 14.318 8.36971
O 14.8762 10.4733 8.33243
O 12.0394 16.4528 9.6991
O 13.8341 12.4265 9.9528
Si 14.85 4.39733 10.6329
Si 2.9649 0.193012 10.8993
Si 1.44181 6.47637 14.4224
Si 3.73137 2.60433 14.583
Si 1.22 1.95582 12.9223
Si 3.79087 6.5115 12.6067
O 1.49403 5.2403 15.5677
O 3.86088 1.35419 15.6466
O 2.05018 2.56122 14.3181
O 4.8594 7.0068 13.5996
O 2.06742 0.811872 12.1579
O 4.63446 5.12492 12.0618
O 0.640534 3.00889 11.7485
O 3.69738 7.45071 11.1504
O 2.3913 5.82595 13.1252
O 4.78007 2.20748 13.3527
O 2.10993 7.85851 15.0456
O 4.44727 3.9381 15.3285
Si 5.27246 4.32157 10.7761
Si 7.59002 17.1459 10.7981
Si 6.2995 6.74976 14.5628
Si 8.74892 2.31198 14.8108
Si 6.25373 2.09102 12.674
Si 8.7255 6.4099 12.7104
O 6.06708 5.60103 15.7114
O 8.80083 1.1584 15.8354
O 7.54269 2.58869 13.6575
O 9.74381 6.45524 14.0388
O 6.4611 0.638097 11.8892
O 9.17939 5.09672 12.0384
O 6.42739 3.03771 11.4599
O 8.69019 7.3672 11.4861
O 7.36981 6.04085 13.4737
O 10.0754 2.27715 13.8218
O 6.55877 8.25 15.0819
O 9.16134 3.77039 15.5409
Si 10.2871 4.3033 11.077
Si 12.2939 0.249052 10.8324
Si 11.2843 6.52095 14.6444
Si 13.7849 2.13616 14.8881
Si 11.2868 2.19224 12.7952
Si 13.6144 6.50814 12.6534
O 11.1246 5.40662 15.9321
O 13.3892 1.39965 16.2668
O 12.6777 2.42732 13.7404
O 14.8184 6.82386 13.7385
O 11.1283 0.837834 11.9262
O 13.7921 5.03003 11.6955
O 11.4169 3.35679 11.639
O 13.8118 7.59539 11.4303
O 12.2203 6.07869 13.3492
O 14.8284 1.3466 13.869
O 11.5127 8.20937 15.1436
O 14.5497 3.56937 15.1615
Si 14.8612 12.9436 11.1895
Si 2.62081 8.64251 10.8536
Si 1.20083 15.3776 14.7141
Si 4.10082 11.2078 14.5198
Si 1.76012 10.7166 12.7658
Si 3.41504 15.262 12.851
O 1.42187 14.0233 15.6086
O 3.79163 9.79607 15.3356
O 3.12645 11.5413 13.3591
O 4.39851 15.6271 14.1012
O 2.40608 9.23404 12.3813
O 3.82934 13.771 12.3081
O 0.962845 11.5134 11.6577
O 4.16777 16.1792 11.4291
O 1.82478 15.1509 13.1165
O 5.76237 11.0169 14.0245
O 2.0594 16.5158 15.3774
O 4.21966 12.7196 15.2453
Si 4.91959 13.1793 11.0853
Si 7.66723 8.74824 10.9879
Si 5.99976 15.3079 14.5679
Si 8.9542 10.9541 14.5902
Si 6.58913 10.9457 12.6737
Si 8.40372 15.0433 12.9341
O 6.24015 14.1589 15.7486
O 8.48621 9.81416 15.6077
O 8.23883 10.7455 13.142
O 9.42921 15.4761 14.0359
O 6.5473 9.34451 11.9773
O 8.93183 13.4232 12.387
O 6.18043 11.9102 11.4171
O 8.27879 16.0464 11.7614
O 6.82995 14.8735 13.3418
O 10.6079 10.5194 14.2831
O 6.54448 16.712 15.2059
O 8.76056 12.396 15.2014
Si 10.0867 13.0592 11.2717
Si 12.7913 8.67121 10.903
Si 10.7301 15.2906 14.7844
Si 13.903 10.9588 14.4234
Si 11.5894 10.6722 12.9112
Si 13.3524 15.1542 13.2184
O 10.7138 14.2674 16.1378
O 13.4196 10.0564 15.5958
O 13.1188 11.1351 12.9376
O 14.4691 15.7237 14.3169
O 11.7154 9.35718 11.9754
O 14.0956 13.8156 12.1809
O 10.8137 11.8464 11.9371
O 13.2165 16.3527 12.1629
O 11.9514 14.6109 13.9847
O 0.664344 10.3496 13.8915
O 11.1965 16.7444 15.5577
O 14.0294 12.549 15.0657
324
 Atoms. Timestep: 34500
Si 0.612387 4.60568 16.3271
Si 2.68081 0.150514 0.14201
Si 1.28788 6.58389 3.79654
Si 3.81244 2.62865 3.94388
Si 1.46043 2.41473 2.10622
Si 3.62728 6.44754 1.97796
O 1.32402 5.34747 5.07512
O 3.30638 1.46957 4.96967
O 2.37325 3.16126 3.35917
O 4.63738 6.67034 3.25687
O 1.95328 1.11439 1.34367
O 4.28692 5.02205 1.14497
O 1.49101 3.71705 1.11783
O 3.6545 7.59903 0.749784
O 2.03739 6.34868 2.3317
O 4.77528 2.0239 2.78974
O 2.03139 7.94181 4.53567
O 4.48203 4.0826 4.42075
Si 5.39635 4.56047 16.1907
Si 7.47519 0.369255 16.281
Si 6.28192 6.77526 3.50423
Si 8.66904 2.34654 3.57634
Si 6.24738 2.43434 2.04467
Si 8.82338 6.57518 1.79668
O 6.38166 5.53583 4.62107
O 8.31575 0.915235 4.36508
O 7.40557 3.0837 2.82475
O 9.3898 7.01906 3.36027
O 6.41207 1.04417 1.19915
O 9.24858 5.14332 1.29853
O 6.16436 3.19581 0.443562
O 8.90598 7.60439 0.542128
O 7.29953 6.57596 2.37064
O 9.73152 2.15869 2.40243
O 6.90375 8.07007 4.26507
O 9.03164 3.49609 4.65469
Si 10.1758 4.43115 16.2733
Si 12.6743 17.1946 16.156
Si 10.9402 6.65676 4.02334
Si 13.6632 2.5243 3.714
Si 11.2219 2.20559 1.91177
Si 13.5235 6.49587 2.16753
O 11.181 5.24643 5.09831
O 13.444 1.44292 4.99004
O 12.1684 2.78307 3.05193
O 14.4718 6.84497 3.5829
O 11.8897 0.930289 1.17236
O 14.5442 5.31944 1.45835
O 11.1624 3.38381 0.698196
O 13.668 7.51337 0.613651
O 12.0036 6.33943 2.74398
O 14.6135 1.94733 2.49546
O 11.692 7.89239 4.65225
O 14.1584 3.90146 4.35444
Si 0.18744 12.8822 0.302913
Si 2.62623 8.52172 16.2322
Si 0.955331 15.3898 3.64577
Si 3.74089 10.7588 3.76285
Si 1.32185 10.3324 1.87552
Si 3.35699 14.8771 1.86085
O 0.826273 14.1879 4.72402
O 3.55944 10.1141 5.23522
O 2.38347 10.7635 2.98261
O 4.44352 15.42 3.07507
O 1.51333 9.06308 0.984132
O 4.24411 13.4913 1.6986
O 0.982102 11.6507 0.866166
O 3.41457 16.1284 0.979782
O 1.80677 14.8701 2.31029
O 4.86439 10.2169 2.77167
O 1.67978 16.4717 4.35426
O 4.28536 12.3917 4.06094
Si 5.26166 12.9437 0.511848
Si 7.97354 8.7994 16.2641
Si 5.91812 15.1945 3.6952
Si 8.87845 10.8385 3.65996
Si 6.37746 10.6368 2.09914
Si 8.45099 15.1602 1.92768
O 6.00082 14.1576 4.87776
O 9.16591 9.49126 4.38603
O 7.26736 10.937 3.46317
O 9.76091 15.7687 2.86907
O 6.90023 9.52014 1.10445
O 9.58778 14.0318 1.41981
O 6.27991 11.8569 1.0531
O 8.34175 16.5239 1.02004
O 7.08506 14.7722 2.5587
O 9.80986 10.6795 2.23629
O 6.36119 16.4771 4.5167
O 9.23103 12.089 4.70713
Si 10.2713 13.1363 0.255098
Si 12.5812 8.6312 16.2228
Si 11.0605 15.0641 3.55314
Si 13.6928 10.8102 3.59949
Si 11.2449 10.6286 1.52206
Si 13.3989 14.8944 1.82293
O 11.0775 13.9882 4.85067
O 13.7538 9.73064 4.97069
O 12.4181 10.7529 2.64918
O 14.2827 15.6494 2.98378
O 11.3214 9.09685 0.925525
O 14.1752 13.5356 1.62322
O 11.3212 11.8142 0.476434
O 13.3474 15.9197 0.522936
O 11.9535 14.3736 2.47062
O 14.7509 10.2069 2.63367
O 11.9676 16.2979 4.19591
O 13.8586 12.3126 4.30162
Si 0.202726 4.43103 5.65206
Si 2.52924 0.235824 5.60505
Si 1.40045 6.56193 9.31605
Si 3.68713 2.62509 9.2384
Si 1.00958 1.95415 7.58632
Si 3.7522 6.50892 7.55401
O 1.47432 5.43906 10.3788
O 3.87284 1.29153 10.1051
O 2.14901 2.66076 8.5438
O 4.74222 7.184 8.73892
O 1.60055 0.767483 6.81733
O 4.45436 5.09111 7.0465
O 0.715344 3.08351 6.44946
O 3.69992 7.50457 6.32827
O 2.21524 6.38958 7.78478
O 4.5159 2.33038 7.85123
O 1.86195 8.07103 9.90797
O 4.84895 3.58744 9.85804
Si 5.34571 4.66801 5.54949
Si 7.39556 17.1992 5.56537
Si 6.16053 6.66032 8.99642
Si 8.63864 2.4772 9.2628
Si 6.13871 2.41665 7.29929
Si 8.60589 6.38012 7.32575
O 6.17225 5.72938 10.5165
O 8.69775 1.34558 10.6095
O 7.14603 2.59358 8.58148
O 9.56184 6.78491 8.67927
O 6.60572 1.05125 6.56658
O 8.80227 5.01965 6.54395
O 6.25631 3.70433 6.42248
O 9.02257 7.71148 6.1907
O 7.1256 6.52814 7.61189
O 9.53384 1.66094 8.1037
O 6.81118 7.97361 9.50632
O 8.83338 3.71553 10.1014
Si 9.98562 4.29593 5.69639
Si 12.5391 17.2032 5.36375
Si 10.9851 6.52078 9.33866
Si 13.4268 2.12745 9.45119
Si 11.0657 1.9396 7.41458
Si 13.567 6.40932 7.4962
O 10.9583 5.25096 10.4473
O 13.6537 1.29713 10.7157
O 11.9821 1.79292 8.86297
O 14.4369 6.45469 8.78016
O 11.4765 0.735705 6.41649
O 14.0934 4.9681 6.79849
O 10.868 3.42779 6.76042
O 13.7612 7.61391 6.38918
O 12.0056 6.21619 7.90761
O 14.6786 1.42712 8.56448
O 11.8134 7.70431 10.0302
O 13.9081 3.75688 9.53363
Si 14.8595 12.9721 5.49978
Si 2.76833 8.6899 5.66139
Si 1.17393 15.2066 9.43426
Si 3.81539 10.7754 9.03613
Si 1.32735 10.751 7.28545
Si 3.61815 14.9441 7.56998
O 1.22987 14.2193 10.7912
O 3.51791 9.88795 10.342
O 2.33501 10.9468 8.50643
O 4.68326 15.3761 8.75541
O 1.67823 9.27502 6.73154
O 4.26962 13.6858 6.7412
O 1.0813 11.8018 6.14275
O 3.19632 15.8873 6.26153
O 2.1621 14.7435 8.16253
O 4.80944 10.2628 7.8416
O 1.82864 16.6571 9.69958
O 4.83667 12.072 9.44941
Si 5.03445 12.9586 5.40607
Si 8.00598 8.61837 5.40989
Si 6.22091 15.1867 9.22254
Si 8.76977 11.0005 9.00336
Si 6.33193 10.7376 7.2172
Si 8.49763 15.1004 7.18607
O 6.14834 13.9949 10.3065
O 8.63954 9.90586 10.2173
O 7.35765 11.2006 8.26439
O 9.43613 15.4831 8.76915
O 6.97212 9.42693 6.35625
O 9.29976 13.6571 6.64242
O 5.92344 11.6144 5.95022
O 8.6458 16.3166 6.12592
O 6.90138 15.0459 7.72805
O 10.0202 10.5274 8.00303
O 6.5968 16.5821 9.82162
O 9.1155 12.3465 9.56377
Si 10.289 12.8512 5.5953
Si 12.5831 8.7075 5.66967
Si 11.0876 15.3036 9.31844
Si 13.7729 11.0194 9.25735
Si 11.4498 11.0027 7.50164
Si 13.4555 15.0688 7.32556
O 11.1258 14.0049 10.2649
O 13.7281 9.74916 10.3941
O 12.3088 11.6341 8.78945
O 14.5576 15.3447 8.48548
O 12.061 9.61305 6.96787
O 13.9119 13.5326 6.71004
O 11.3253 11.7036 6.17378
O 13.4683 16.1997 6.11376
O 12.036 14.8882 8.00968
O 14.6891 10.6489 8.06882
O 11.6664 16.4486 10.2306
O 14.3774 12.3213 10.039
Si 0.116244 4.42074 10.808
Si 2.7809 17.3312 10.7709
Si 1.52808 6.6113 14.4734
Si 3.91325 2.69234 14.4376
Si 1.48729 2.25241 12.7252
Si 3.96367 6.48886 12.8231
O 1.80489 5.58599 15.7405
O 3.46822 1.51185 15.6364
O 2.57481 2.97184 13.6152
O 4.64908 7.23049 14.051
O 1.91739 0.757754 12.3557
O 4.25015 5.04133 12.0916
O 1.15723 3.14353 11.2798
O 4.05164 7.75212 11.7535
O 2.34864 6.335 13.1659
O 5.0367 1.75423 13.6688
O 1.75489 8.11331 14.9899
O 4.37936 4.09723 15.0681
Si 5.37437 4.46183 11.0657
Si 7.55933 17.1425 10.9508
Si 6.17261 6.87161 14.7121
Si 8.74333 2.60976 14.6578
Si 6.47012 2.24219 12.7875
Si 8.61564 6.65496 12.6949
O 6.40481 5.77816 15.8091
O 8.48135 1.54667 15.7805
O 7.45712 2.9406 13.7513
O 9.49242 7.12037 14.0447
O 6.77449 0.686785 12.3115
O 8.96785 5.12936 12.1317
O 6.34053 3.31996 11.774
O 8.63045 7.80035 11.6501
O 7.1662 6.50237 13.5132
O 9.95453 1.65143 13.7933
O 6.7299 8.21265 15.3765
O 9.09989 4.0677 15.2547
Si 9.92649 4.26583 11.1438
Si 12.5898 17.0538 11.2838
Si 11.0226 6.73357 14.3718
Si 13.7423 2.56584 14.7223
Si 11.2348 2.11428 12.9991
Si 13.6638 6.37514 12.9384
O 11.0305 5.6389 15.5837
O 13.6428 1.01157 15.3309
O 12.4171 2.90648 13.8938
O 14.5594 6.75616 14.1951
O 11.8206 0.40475 12.8437
O 14.238 5.15644 12.0317
O 10.7128 3.0567 11.761
O 13.6282 7.79214 11.9292
O 12.2227 5.8497 13.3052
O 0.256578 2.27441 13.7787
O 11.8503 8.14139 14.8564
O 14.0707 4.06923 15.4016
Si 0.244182 12.9959 11.3297
Si 2.81803 8.71014 11.1571
Si 1.15371 15.2374 14.8061
Si 4.10475 10.9432 14.9
Si 1.64825 10.875 12.9632
Si 3.61429 14.9662 12.6735
O 1.17466 14.0493 15.9039
O 3.48449 9.87492 15.9142
O 3.19855 11.2055 13.5173
O 4.90212 14.9685 13.9289
O 1.79862 9.49069 12.245
O 4.29473 13.6762 11.7594
O 1.41086 12.1114 12.0615
O 3.8434 16.2512 11.593
O 2.2537 14.5392 13.558
O 5.6155 10.3466 14.1712
O 1.74444 16.6448 15.2232
O 4.31464 12.3677 15.5007
Si 5.26539 12.825 10.8319
Si 7.63391 8.93222 10.7643
Si 6.32145 15.1627 14.7921
Si 9.0589 11.0901 14.6607
Si 6.53224 10.7936 12.8667
Si 8.72419 14.8588 12.6656
O 6.06287 14.258 16.2373
O 8.89592 9.81404 15.6171
O 7.89612 11.1119 13.4979
O 9.72929 15.5017 13.7281
O 6.60553 9.38794 11.9834
O 9.35866 13.401 12.1183
O 6.18674 12.0448 11.9496
O 8.37598 15.7297 11.4123
O 7.37587 14.5377 13.6334
O 10.4236 10.9729 13.6999
O 6.5988 16.637 15.2625
O 9.14001 12.4861 15.3901
Si 10.1101 12.8343 10.7641
Si 12.624 8.59875 11.0257
Si 11.0905 15.3435 14.4624
Si 13.761 11.0787 14.715
Si 11.5106 10.7297 12.6414
Si 13.6856 14.8352 12.9642
O 11.1268 14.0433 15.3912
O 13.7074 9.80984 15.6638
O 12.8558 11.1362 13.368
O 14.4332 15.5554 14.1566
O 11.4554 9.36491 11.9117
O 13.8665 13.3589 12.3299
O 11.1909 11.8315 11.442
O 13.8515 16.0284 11.609
O 12.0217 14.7325 13.265
O 0.58227 10.9083 14.0821
O 11.5344 16.6609 15.2521
O 13.939 12.5472 15.3421
324
 Atoms. Timestep: 35000
Si 14.6941 4.53168 16.4171
Si 2.48935 0.180633 16.3751
Si 1.39947 6.41616 3.91358
Si 3.60592 2.43698 3.74493
Si 0.968239 2.23604 1.92747
Si 3.77834 6.27475 2.03734
O 1.23002 5.31581 5.00666
O 3.75724 1.32234 5.01206
O 2.00845 2.55778 3.30341
O 4.89031 6.97983 2.93569
O 1.56126 0.800619 1.37325
O 4.40417 4.96273 1.2952
O 0.990223 3.30274 0.693925
O 3.23108 7.28912 0.799472
O 2.59673 5.86021 2.99365
O 4.6711 1.90642 2.61077
O 1.80539 7.95645 4.28116
O 4.13016 3.85124 4.43897
Si 5.1519 4.22339 16.3274
Si 7.57799 0.222995 0.233109
Si 6.296 6.69678 3.78542
Si 8.74944 2.29988 3.73217
Si 6.21591 2.0457 2.10632
Si 8.72672 6.49321 2.17147
O 6.01297 5.27023 4.56735
O 9.02643 1.30347 4.95657
O 7.2845 2.29737 3.26236
O 9.56033 6.89409 3.54619
O 6.35482 0.585599 1.24952
O 9.38498 5.1766 1.4915
O 6.10066 3.03357 0.804326
O 8.62571 7.65545 0.96772
O 7.20985 5.95293 2.65315
O 9.4638 1.85799 2.29022
O 6.71657 8.08576 4.38909
O 9.03031 3.81445 4.30271
Si 10.1685 4.37748 16.4245
Si 12.8836 17.248 16.1872
Si 11.0259 6.63987 4.16178
Si 13.4771 2.51952 3.67054
Si 10.9988 2.10537 1.77166
Si 13.518 6.35975 2.05873
O 11.161 5.46637 5.30281
O 13.5494 1.11039 4.51953
O 11.7235 2.53717 3.27589
O 14.8963 6.40397 3.08434
O 11.5516 0.703306 0.954176
O 13.8472 4.9052 1.44022
O 11.3223 3.31018 0.76053
O 13.4994 7.69561 0.982073
O 12.1405 6.24393 2.97836
O 14.1173 2.10616 2.17272
O 11.3757 8.20108 4.44463
O 14.1537 3.68998 4.51889
Si 0.236338 13.114 0.187951
Si 2.53838 8.6422 0.239509
Si 1.46991 15.2819 4.00214
Si 3.70013 10.9865 3.57558
Si 1.0827 10.6778 2.2381
Si 3.77548 15.0508 1.72626
O 1.27753 14.4274 5.44485
O 3.74994 9.51341 4.41047
O 2.18391 11.414 3.11212
O 4.91455 15.9459 2.85238
O 1.84582 9.40004 1.57666
O 4.3234 13.533 1.14467
O 0.842492 11.6724 0.786562
O 3.69364 16.3864 0.68445
O 2.48651 14.8118 2.66165
O 5.03697 10.6134 2.68884
O 1.85476 16.7706 4.40613
O 3.89104 12.1119 4.78654
Si 5.35031 12.8959 16.224
Si 7.80254 8.78079 0.195397
Si 6.17654 15.336 3.43852
Si 8.85177 11.2191 3.92665
Si 6.44391 10.93 2.00637
Si 8.58098 15.0668 2.05454
O 5.88676 14.089 4.74014
O 8.87206 9.74807 4.74311
O 7.38317 11.4047 3.32681
O 9.69318 15.7591 3.14288
O 6.7188 9.59985 1.06043
O 9.36205 13.5713 1.52954
O 6.42815 12.0951 0.918158
O 8.69334 16.3721 1.02004
O 7.06282 14.5081 2.34278
O 9.64478 10.7756 2.48018
O 7.27812 16.4842 4.16026
O 9.41186 12.5232 4.6242
Si 10.235 13.261 16.4288
Si 12.4847 8.83259 0.34928
Si 11.1183 15.5272 3.8777
Si 13.4854 11.2379 4.22592
Si 11.2328 11.1024 2.11422
Si 13.8521 15.2486 2.09205
O 11.3421 14.4113 5.1139
O 13.3967 10.0453 5.36346
O 12.2241 11.5121 3.33324
O 14.8734 15.5029 3.23892
O 11.6055 9.6278 1.3992
O 13.8348 13.8719 1.13855
O 11.2761 12.1274 0.852336
O 13.9461 16.4453 0.818715
O 12.2814 15.4639 2.89515
O 14.5955 10.9688 3.03102
O 11.3498 16.7499 4.85713
O 13.8444 12.6673 4.83959
Si 0.362843 4.26044 5.65745
Si 2.79761 0.181645 5.6445
Si 1.26142 6.5127 8.85332
Si 3.64709 2.48597 9.33306
Si 1.37331 2.19473 7.36314
Si 3.77525 6.31679 7.26045
O 1.2365 5.50858 10.1952
O 3.61725 1.27551 10.4921
O 2.34075 2.77576 8.61347
O 4.639 6.82578 8.52707
O 1.61039 0.621925 6.97396
O 4.6033 5.06068 6.88191
O 1.26307 3.11597 6.10084
O 3.81423 7.36686 5.99837
O 2.16532 6.05955 7.45182
O 4.98172 2.035 8.52034
O 2.21239 7.73911 9.51332
O 4.11406 3.88418 9.93923
Si 5.20751 4.28368 5.51483
Si 7.99005 17.2287 5.47913
Si 6.02364 6.69063 9.28485
Si 8.72299 2.27463 9.05315
Si 6.20924 1.98575 7.40395
Si 8.40793 6.1524 7.48432
O 5.8807 5.56813 10.5708
O 8.51706 1.23271 10.2782
O 7.46267 2.67147 8.31405
O 9.67457 6.75371 8.45109
O 6.90101 0.564237 6.52393
O 9.14803 4.74155 7.01298
O 5.83657 2.99341 6.23783
O 8.27685 7.29971 6.15025
O 6.98221 5.81582 8.0638
O 9.70535 1.67808 7.71446
O 6.75219 8.02871 9.53221
O 9.30704 3.50607 9.67183
Si 10.0211 4.32292 5.47786
Si 12.6763 0.201112 5.50483
Si 11.1341 6.72608 9.25106
Si 13.657 2.40422 9.1464
Si 11.2447 2.2276 7.36928
Si 13.7159 6.26115 7.17109
O 11.1616 5.44733 10.3405
O 13.806 1.24713 10.1076
O 11.974 2.73567 8.79243
O 14.6629 6.97064 8.21578
O 12.0951 0.965492 6.89819
O 14.1558 4.60175 6.83201
O 11.1546 3.22362 6.05269
O 13.4397 7.55248 6.12187
O 12.3539 6.20852 8.00359
O 14.8042 2.32459 8.07221
O 11.231 8.20271 9.78315
O 13.8366 3.92224 9.99809
Si 14.997 13.3086 5.91937
Si 2.79386 8.57244 5.26911
Si 1.11271 15.3709 9.02315
Si 3.97036 10.7832 8.93888
Si 1.23279 10.6975 7.29135
Si 3.57611 15.0523 7.32577
O 1.31142 14.0419 9.9223
O 3.84415 9.51665 10.1593
O 2.44123 11.0854 8.48773
O 4.35644 15.4253 8.76505
O 2.03466 9.62719 6.28597
O 4.01466 13.6453 6.73831
O 1.17489 12.0409 6.40753
O 3.7482 16.0515 6.12532
O 2.03153 15.2718 7.52969
O 5.0739 10.1476 8.05152
O 1.56437 16.8028 9.73262
O 4.59367 12.2847 9.49385
Si 5.02455 13.0035 5.55332
Si 7.85915 8.61878 5.59178
Si 5.98199 15.0331 9.26599
Si 8.63467 11.2704 9.38457
Si 6.47027 10.8044 7.46325
Si 8.49598 15.1731 7.42723
O 5.82153 14.1604 10.5112
O 8.65873 10.0477 10.4933
O 7.17051 11.252 8.72142
O 9.4843 15.7672 8.6324
O 7.05325 9.61362 6.73638
O 9.07723 13.6711 6.73072
O 6.10002 11.9398 6.25
O 8.95756 15.9551 6.0084
O 6.88846 14.8445 7.84985
O 9.58009 10.4844 8.17463
O 6.56993 16.4473 9.9205
O 9.05595 12.6953 9.91241
Si 10.3374 13.2915 5.65927
Si 12.4267 8.69283 5.71509
Si 10.9914 15.766 9.14003
Si 13.6585 10.851 9.02499
Si 10.9714 10.7806 7.46955
Si 13.4698 15.3633 7.36469
O 11.182 14.3337 10.0835
O 13.3185 9.94879 10.4578
O 12.202 11.4636 8.63942
O 14.5516 15.8262 8.40577
O 11.387 9.47518 6.66113
O 14.1327 13.8193 7.19479
O 11.1796 11.9185 6.35628
O 13.7075 16.1971 5.90244
O 11.9893 15.3786 7.75502
O 14.7389 10.0013 8.12395
O 11.5978 17.1847 9.87326
O 14.325 12.2999 9.66162
Si 0.201161 4.36709 10.942
Si 2.51114 0.152945 10.9711
Si 1.02005 6.85128 14.8959
Si 3.68943 2.47331 14.4163
Si 1.28594 2.06509 12.7548
Si 3.68192 6.48085 13.018
O 0.830398 5.82657 16.1018
O 3.38855 1.44528 15.7826
O 2.24856 2.73966 13.8856
O 4.86758 7.11839 14.0136
O 1.70867 0.725307 12.1918
O 3.89337 4.90369 12.4537
O 1.34545 3.21061 11.523
O 3.61252 7.45285 11.8574
O 2.07169 6.06879 13.912
O 4.73933 1.90839 13.4573
O 1.45841 8.31199 15.3044
O 4.18449 3.83645 15.0536
Si 5.00099 4.38687 11.1461
Si 7.62513 17.1513 11.002
Si 6.27081 6.59623 14.6076
Si 8.42886 2.47269 14.5003
Si 6.0906 2.08741 12.6824
Si 8.74624 6.35749 12.6171
O 6.0851 5.64523 15.9424
O 8.26224 1.60508 15.8101
O 7.07642 2.93294 13.7336
O 9.6473 7.08116 13.7678
O 6.86058 0.773248 12.167
O 9.19851 4.93868 11.9081
O 5.94104 2.99419 11.4364
O 8.90012 7.68234 11.3146
O 7.26437 6.02554 13.3118
O 9.6219 1.55807 13.7253
O 7.03908 7.93368 15.306
O 8.91674 3.8534 15.3847
Si 10.2445 4.25213 10.8148
Si 12.7756 0.10159 11.0123
Si 11.1262 6.87654 14.601
Si 13.6393 2.60024 14.5419
Si 11.0162 1.8633 12.8788
Si 13.6665 6.44199 12.7073
O 10.9823 5.44425 15.5549
O 13.8371 1.20647 15.5009
O 12.1086 2.60316 13.9553
O 14.3741 7.26562 13.9257
O 12.0854 0.577981 12.388
O 14.2884 5.10789 12.2171
O 10.8878 3.02852 11.6863
O 13.0512 7.29859 11.4225
O 12.2276 6.05366 13.6161
O 14.696 1.96394 13.3511
O 11.8436 8.1899 15.4128
O 14.0599 4.01946 15.0843
Si 0.543628 12.8355 10.7114
Si 2.82223 8.49855 10.8258
Si 1.3263 15.1988 14.5662
Si 4.12671 10.5256 14.5781
Si 1.64842 10.5668 12.54
Si 3.75006 15.0095 12.7548
O 1.41162 14.2578 15.9967
O 3.64868 9.64194 15.8793
O 2.93003 10.5558 13.5859
O 5.04564 15.5338 13.986
O 1.62384 9.25085 11.7085
O 4.11865 13.4562 12.2736
O 1.70592 11.8533 11.355
O 3.38116 16.0374 11.5892
O 2.55453 14.8687 13.775
O 5.32764 9.91107 13.7096
O 1.54558 16.5852 15.3087
O 4.55426 12.0373 15.1386
Si 4.97219 12.8571 11.0517
Si 7.76178 8.6267 10.9642
Si 6.48432 15.0126 14.5854
Si 9.04157 11.0473 14.5787
Si 6.55502 10.541 12.8288
Si 8.92591 14.9536 12.7667
O 6.14893 14.1142 15.8231
O 8.83491 9.80782 15.6943
O 7.69157 11.4265 13.8451
O 9.90953 15.6368 13.9375
O 7.03038 9.00522 12.2794
O 9.8713 13.7924 12.2099
O 5.88081 11.5392 11.5966
O 8.65463 15.8729 11.4074
O 7.4897 14.4829 13.4593
O 10.4391 10.6696 13.8668
O 7.08753 16.2689 15.4532
O 9.28227 12.6044 15.2067
Si 10.4786 13.0327 10.9298
Si 12.3035 8.63685 10.9301
Si 11.4592 15.3349 14.454
Si 14.1911 10.9747 14.6485
Si 11.5982 10.8394 12.7377
Si 13.8978 14.9475 12.6525
O 10.9977 14.5257 15.9538
O 13.8642 10.0413 15.9001
O 12.7978 11.3002 13.8296
O 14.7325 15.4682 13.8512
O 11.4296 9.257 12.2091
O 14.3312 13.5262 11.8564
O 11.4792 11.8545 11.4033
O 13.5271 15.8821 11.3263
O 12.4534 14.5982 13.461
O 0.376237 10.5839 13.4299
O 12.2488 16.6658 14.8192
O 14.6604 12.5417 14.8384
