324
 Atoms. Timestep: 0
Si 0.114181 4.35417 0
Si 2.62811 0 0
Si 1.19988 6.63019 3.67925
Si 3.71381 2.27601 3.67925
Si 1.19988 2.07816 1.83963
Si 3.71381 6.43234 1.83963
O 1.06639 5.46135 4.80511
O 3.58032 1.10718 4.80511
O 2.27863 2.54702 2.96549
O 4.79257 6.90119 2.96549
O 1.68269 0.699977 1.12586
O 4.19648 5.05415 1.12586
O 1.06639 3.247 0.713764
O 3.58032 7.60117 0.713764
O 2.27863 6.16133 2.55339
O 4.79257 1.80716 2.55339
O 1.68269 8.00855 4.39302
O 4.19648 3.65437 4.39302
Si 5.1419 4.35417 0
Si 7.65583 0 0
Si 6.22759 6.63019 3.67925
Si 8.74153 2.27601 3.67925
Si 6.22759 2.07816 1.83963
Si 8.74153 6.43234 1.83963
O 6.09426 5.46135 4.80511
O 8.60804 1.10718 4.80511
O 7.3065 2.54702 2.96549
O 9.82028 6.90119 2.96549
O 6.71041 0.699977 1.12586
O 9.22434 5.05415 1.12586
O 6.09426 3.247 0.713764
O 8.60804 7.60117 0.713764
O 7.3065 6.16133 2.55339
O 9.82028 1.80716 2.55339
O 6.71041 8.00855 4.39302
O 9.22434 3.65437 4.39302
Si 10.1698 4.35417 0
Si 12.6835 0 0
Si 11.2555 6.63019 3.67925
Si 13.7692 2.27601 3.67925
Si 11.2555 2.07816 1.83963
Si 13.7692 6.43234 1.83963
O 11.122 5.46135 4.80511
O 13.6359 1.10718 4.80511
O 12.3342 2.54702 2.96549
O 14.8482 6.90119 2.96549
O 11.7381 0.699977 1.12586
O 14.2521 5.05415 1.12586
O 11.122 3.247 0.713764
O 13.6359 7.60117 0.713764
O 12.3342 6.16133 2.55339
O 14.8482 1.80716 2.55339
O 11.7381 8.00855 4.39302
O 14.2521 3.65437 4.39302
Si 0.114181 13.0625 0
Si 2.62811 8.70835 0
Si 1.19988 15.3385 3.67925
Si 3.71381 10.9844 3.67925
Si 1.19988 10.7865 1.83963
Si 3.71381 15.1407 1.83963
O 1.06639 14.1697 4.80511
O 3.58032 9.81553 4.80511
O 2.27863 11.2554 2.96549
O 4.79257 15.6095 2.96549
O 1.68269 9.40833 1.12586
O 4.19648 13.7625 1.12586
O 1.06639 11.9553 0.713764
O 3.58032 16.3095 0.713764
O 2.27863 14.8697 2.55339
O 4.79257 10.5155 2.55339
O 1.68269 16.7169 4.39302
O 4.19648 12.3627 4.39302
Si 5.1419 13.0625 0
Si 7.65583 8.70835 0
Si 6.22759 15.3385 3.67925
Si 8.74153 10.9844 3.67925
Si 6.22759 10.7865 1.83963
Si 8.74153 15.1407 1.83963
O 6.09426 14.1697 4.80511
O 8.60804 9.81553 4.80511
O 7.3065 11.2554 2.96549
O 9.82028 15.6095 2.96549
O 6.71041 9.40833 1.12586
O 9.22434 13.7625 1.12586
O 6.09426 11.9553 0.713764
O 8.60804 16.3095 0.713764
O 7.3065 14.8697 2.55339
O 9.82028 10.5155 2.55339
O 6.71041 16.7169 4.39302
O 9.22434 12.3627 4.39302
Si 10.1698 13.0625 0
Si 12.6835 8.70835 0
Si 11.2555 15.3385 3.67925
Si 13.7692 10.9844 3.67925
Si 11.2555 10.7865 1.83963
Si 13.7692 15.1407 1.83963
O 11.122 14.1697 4.80511
O 13.6359 9.81553 4.80511
O 12.3342 11.2554 2.96549
O 14.8482 15.6095 2.96549
O 11.7381 9.40833 1.12586
O 14.2521 13.7625 1.12586
O 11.122 11.9553 0.713764
O 13.6359 16.3095 0.713764
O 12.3342 14.8697 2.55339
O 14.8482 10.5155 2.55339
O 11.7381 16.7169 4.39302
O 14.2521 12.3627 4.39302
Si 0.114181 4.35417 5.51888
Si 2.62811 0 5.51888
Si 1.19988 6.63019 9.1983
Si 3.71381 2.27601 9.1983
Si 1.19988 2.07816 7.3585
Si 3.71381 6.43234 7.3585
O 1.06639 5.46135 10.3242
O 3.58032 1.10718 10.3242
O 2.27863 2.54702 8.48437
O 4.79257 6.90119 8.48437
O 1.68269 0.699977 6.64474
O 4.19648 5.05415 6.64474
O 1.06639 3.247 6.23264
O 3.58032 7.60117 6.23264
O 2.27863 6.16133 8.07243
O 4.79257 1.80716 8.07243
O 1.68269 8.00855 9.91206
O 4.19648 3.65437 9.91206
Si 5.1419 4.35417 5.51888
Si 7.65583 0 5.51888
Si 6.22759 6.63019 9.1983
Si 8.74153 2.27601 9.1983
Si 6.22759 2.07816 7.3585
Si 8.74153 6.43234 7.3585
O 6.09426 5.46135 10.3242
O 8.60804 1.10718 10.3242
O 7.3065 2.54702 8.48437
O 9.82028 6.90119 8.48437
O 6.71041 0.699977 6.64474
O 9.22434 5.05415 6.64474
O 6.09426 3.247 6.23264
O 8.60804 7.60117 6.23264
O 7.3065 6.16133 8.07243
O 9.82028 1.80716 8.07243
O 6.71041 8.00855 9.91206
O 9.22434 3.65437 9.91206
Si 10.1698 4.35417 5.51888
Si 12.6835 0 5.51888
Si 11.2555 6.63019 9.1983
Si 13.7692 2.27601 9.1983
Si 11.2555 2.07816 7.3585
Si 13.7692 6.43234 7.3585
O 11.122 5.46135 10.3242
O 13.6359 1.10718 10.3242
O 12.3342 2.54702 8.48437
O 14.8482 6.90119 8.48437
O 11.7381 0.699977 6.64474
O 14.2521 5.05415 6.64474
O 11.122 3.247 6.23264
O 13.6359 7.60117 6.23264
O 12.3342 6.16133 8.07243
O 14.8482 1.80716 8.07243
O 11.7381 8.00855 9.91206
O 14.2521 3.65437 9.91206
Si 0.114181 13.0625 5.51888
Si 2.62811 8.70835 5.51888
Si 1.19988 15.3385 9.1983
Si 3.71381 10.9844 9.1983
Si 1.19988 10.7865 7.3585
Si 3.71381 15.1407 7.3585
O 1.06639 14.1697 10.3242
O 3.58032 9.81553 10.3242
O 2.27863 11.2554 8.48437
O 4.79257 15.6095 8.48437
O 1.68269 9.40833 6.64474
O 4.19648 13.7625 6.64474
O 1.06639 11.9553 6.23264
O 3.58032 16.3095 6.23264
O 2.27863 14.8697 8.07243
O 4.79257 10.5155 8.07243
O 1.68269 16.7169 9.91206
O 4.19648 12.3627 9.91206
Si 5.1419 13.0625 5.51888
Si 7.65583 8.70835 5.51888
Si 6.22759 15.3385 9.1983
Si 8.74153 10.9844 9.1983
Si 6.22759 10.7865 7.3585
Si 8.74153 15.1407 7.3585
O 6.09426 14.1697 10.3242
O 8.60804 9.81553 10.3242
O 7.3065 11.2554 8.48437
O 9.82028 15.6095 8.48437
O 6.71041 9.40833 6.64474
O 9.22434 13.7625 6.64474
O 6.09426 11.9553 6.23264
O 8.60804 16.3095 6.23264
O 7.3065 14.8697 8.07243
O 9.82028 10.5155 8.07243
O 6.71041 16.7169 9.91206
O 9.22434 12.3627 9.91206
Si 10.1698 13.0625 5.51888
Si 12.6835 8.70835 5.51888
Si 11.2555 15.3385 9.1983
Si 13.7692 10.9844 9.1983
Si 11.2555 10.7865 7.3585
Si 13.7692 15.1407 7.3585
O 11.122 14.1697 10.3242
O 13.6359 9.81553 10.3242
O 12.3342 11.2554 8.48437
O 14.8482 15.6095 8.48437
O 11.7381 9.40833 6.64474
O 14.2521 13.7625 6.64474
O 11.122 11.9553 6.23264
O 13.6359 16.3095 6.23264
O 12.3342 14.8697 8.07243
O 14.8482 10.5155 8.07243
O 11.7381 16.7169 9.91206
O 14.2521 12.3627 9.91206
Si 0.114181 4.35417 11.0379
Si 2.62811 0 11.0379
Si 1.19988 6.63019 14.7172
Si 3.71381 2.27601 14.7172
Si 1.19988 2.07816 12.8775
Si 3.71381 6.43234 12.8775
O 1.06639 5.46135 15.843
O 3.58032 1.10718 15.843
O 2.27863 2.54702 14.0034
O 4.79257 6.90119 14.0034
O 1.68269 0.699977 12.1638
O 4.19648 5.05415 12.1638
O 1.06639 3.247 11.7517
O 3.58032 7.60117 11.7517
O 2.27863 6.16133 13.5913
O 4.79257 1.80716 13.5913
O 1.68269 8.00855 15.4309
O 4.19648 3.65437 15.4309
Si 5.1419 4.35417 11.0379
Si 7.65583 0 11.0379
Si 6.22759 6.63019 14.7172
Si 8.74153 2.27601 14.7172
Si 6.22759 2.07816 12.8775
Si 8.74153 6.43234 12.8775
O 6.09426 5.46135 15.843
O 8.60804 1.10718 15.843
O 7.3065 2.54702 14.0034
O 9.82028 6.90119 14.0034
O 6.71041 0.699977 12.1638
O 9.22434 5.05415 12.1638
O 6.09426 3.247 11.7517
O 8.60804 7.60117 11.7517
O 7.3065 6.16133 13.5913
O 9.82028 1.80716 13.5913
O 6.71041 8.00855 15.4309
O 9.22434 3.65437 15.4309
Si 10.1698 4.35417 11.0379
Si 12.6835 0 11.0379
Si 11.2555 6.63019 14.7172
Si 13.7692 2.27601 14.7172
Si 11.2555 2.07816 12.8775
Si 13.7692 6.43234 12.8775
O 11.122 5.46135 15.843
O 13.6359 1.10718 15.843
O 12.3342 2.54702 14.0034
O 14.8482 6.90119 14.0034
O 11.7381 0.699977 12.1638
O 14.2521 5.05415 12.1638
O 11.122 3.247 11.7517
O 13.6359 7.60117 11.7517
O 12.3342 6.16133 13.5913
O 14.8482 1.80716 13.5913
O 11.7381 8.00855 15.4309
O 14.2521 3.65437 15.4309
Si 0.114181 13.0625 11.0379
Si 2.62811 8.70835 11.0379
Si 1.19988 15.3385 14.7172
Si 3.71381 10.9844 14.7172
Si 1.19988 10.7865 12.8775
Si 3.71381 15.1407 12.8775
O 1.06639 14.1697 15.843
O 3.58032 9.81553 15.843
O 2.27863 11.2554 14.0034
O 4.79257 15.6095 14.0034
O 1.68269 9.40833 12.1638
O 4.19648 13.7625 12.1638
O 1.06639 11.9553 11.7517
O 3.58032 16.3095 11.7517
O 2.27863 14.8697 13.5913
O 4.79257 10.5155 13.5913
O 1.68269 16.7169 15.4309
O 4.19648 12.3627 15.4309
Si 5.1419 13.0625 11.0379
Si 7.65583 8.70835 11.0379
Si 6.22759 15.3385 14.7172
Si 8.74153 10.9844 14.7172
Si 6.22759 10.7865 12.8775
Si 8.74153 15.1407 12.8775
O 6.09426 14.1697 15.843
O 8.60804 9.81553 15.843
O 7.3065 11.2554 14.0034
O 9.82028 15.6095 14.0034
O 6.71041 9.40833 12.1638
O 9.22434 13.7625 12.1638
O 6.09426 11.9553 11.7517
O 8.60804 16.3095 11.7517
O 7.3065 14.8697 13.5913
O 9.82028 10.5155 13.5913
O 6.71041 16.7169 15.4309
O 9.22434 12.3627 15.4309
Si 10.1698 13.0625 11.0379
Si 12.6835 8.70835 11.0379
Si 11.2555 15.3385 14.7172
Si 13.7692 10.9844 14.7172
Si 11.2555 10.7865 12.8775
Si 13.7692 15.1407 12.8775
O 11.122 14.1697 15.843
O 13.6359 9.81553 15.843
O 12.3342 11.2554 14.0034
O 14.8482 15.6095 14.0034
O 11.7381 9.40833 12.1638
O 14.2521 13.7625 12.1638
O 11.122 11.9553 11.7517
O 13.6359 16.3095 11.7517
O 12.3342 14.8697 13.5913
O 14.8482 10.5155 13.5913
O 11.7381 16.7169 15.4309
O 14.2521 12.3627 15.4309
324
 Atoms. Timestep: 2
Si 0.13904 4.35418 -4.61797e-05
Si 2.65301 1.12432e-05 -4.48809e-05
Si 1.18744 6.65169 3.67918
Si 3.70135 2.29756 3.67923
Si 1.18746 2.05669 1.8397
Si 3.70136 6.41082 1.83965
O 0.998691 5.49294 4.78419
O 3.51262 1.13872 4.78422
O 2.28516 2.47261 2.94449
O 4.79913 6.82677 2.94454
O 1.74382 0.742828 1.10492
O 4.25766 5.09701 1.10492
O 0.998667 3.21543 0.734711
O 3.51259 7.56965 0.734677
O 2.28518 6.23578 2.57438
O 4.79914 1.8816 2.57434
O 1.74384 7.96561 4.414
O 4.25769 3.61143 4.41398
Si 5.16683 4.35418 -4.62054e-05
Si 7.68067 1.12614e-05 -4.48402e-05
Si 6.21516 6.65167 3.67924
Si 8.72907 2.29752 3.67918
Si 6.21518 2.05672 1.83964
Si 8.72909 6.41086 1.8397
O 6.02649 5.49296 4.78417
O 8.54036 1.13876 4.7842
O 7.31305 2.47263 2.94456
O 9.82681 6.82677 2.94449
O 6.77157 0.742794 1.10489
O 9.28548 5.09701 1.10492
O 6.02646 3.21541 0.734729
O 8.54033 7.56962 0.734702
O 7.31307 6.23576 2.57432
O 9.82683 1.8816 2.57438
O 6.77159 7.96565 4.41402
O 9.28551 3.61143 4.41399
Si 10.1947 4.35418 -4.61914e-05
Si 12.7085 1.12424e-05 -4.48768e-05
Si 11.243 6.65173 3.67923
Si 13.7568 2.29749 3.67924
Si 11.243 2.05665 1.83965
Si 13.7568 6.41088 1.83964
O 11.0542 5.49291 4.78421
O 13.5682 1.13877 4.78418
O 12.3408 2.4726 2.94454
O 14.8547 6.82679 2.94456
O 11.7993 0.742828 1.10492
O 14.3132 5.09698 1.10489
O 11.0542 3.21546 0.734685
O 13.5681 7.5696 0.734721
O 12.3408 6.23578 2.57434
O 14.8547 1.88157 2.57432
O 11.7993 7.96561 4.41399
O 14.3133 3.61146 4.41402
Si 0.13904 13.0625 -4.35213e-05
Si 2.65301 8.70836 -4.48895e-05
Si 1.18745 15.36 3.67918
Si 3.70135 11.0059 3.67923
Si 1.18746 10.765 1.8397
Si 3.70136 15.1192 1.83965
O 0.998695 14.2013 4.78418
O 3.51262 9.84707 4.78422
O 2.28516 11.1809 2.94449
O 4.79913 15.5351 2.94454
O 1.74382 9.45118 1.10491
O 4.25766 13.8054 1.10493
O 0.998663 11.9238 0.734708
O 3.51259 16.278 0.734673
O 2.28518 14.9441 2.57438
O 4.79914 10.59 2.57434
O 1.74384 16.674 4.41399
O 4.25769 12.3198 4.41399
Si 5.16683 13.0625 -4.35311e-05
Si 7.68067 8.70836 -4.48698e-05
Si 6.21516 15.36 3.67924
Si 8.72907 11.0059 3.67918
Si 6.21517 10.7651 1.83964
Si 8.72909 15.1192 1.8397
O 6.02649 14.2013 4.78417
O 8.54036 9.84711 4.78419
O 7.31305 11.181 2.94456
O 9.82681 15.5351 2.94449
O 6.77157 9.45114 1.10489
O 9.28548 13.8054 1.10492
O 6.02646 11.9238 0.734727
O 8.54033 16.278 0.734699
O 7.31307 14.9441 2.57432
O 9.82683 10.59 2.57438
O 6.77159 16.674 4.41402
O 9.28551 12.3198 4.41399
Si 10.1947 13.0625 -4.35563e-05
Si 12.7085 8.70836 -4.48701e-05
Si 11.243 15.3601 3.67923
Si 13.7568 11.0058 3.67924
Si 11.243 10.765 1.83965
Si 13.7568 15.1192 1.83964
O 11.0543 14.2013 4.78421
O 13.5682 9.84712 4.78417
O 12.3408 11.1809 2.94454
O 14.8547 15.5351 2.94456
O 11.7993 9.45118 1.10492
O 14.3132 13.8053 1.10489
O 11.0542 11.9238 0.734683
O 13.5681 16.278 0.734717
O 12.3408 14.9441 2.57434
O 14.8547 10.5899 2.57432
O 11.7993 16.674 4.41399
O 14.3133 12.3198 4.41402
Si 0.139034 4.35418 5.51883
Si 2.65301 1.41724e-05 5.51884
Si 1.18746 6.65169 9.19817
Si 3.70137 2.29755 9.19822
Si 1.18748 2.05669 7.35863
Si 3.70138 6.41082 7.35858
O 0.998671 5.49296 10.3032
O 3.5126 1.13874 10.3032
O 2.28518 2.4726 8.4634
O 4.79915 6.82675 8.46345
O 1.7438 0.742841 6.62381
O 4.25765 5.09702 6.62381
O 0.998649 3.21541 6.25362
O 3.51257 7.56964 6.25358
O 2.2852 6.23579 8.0934
O 4.79916 1.88161 8.09335
O 1.74382 7.9656 9.93303
O 4.25767 3.61141 9.93301
Si 5.16682 4.35418 5.51883
Si 7.68067 1.41819e-05 5.51884
Si 6.21518 6.65166 9.19823
Si 8.72909 2.29752 9.19817
Si 6.2152 2.05672 7.35857
Si 8.72911 6.41086 7.35863
O 6.02647 5.49298 10.3032
O 8.54034 1.13878 10.3032
O 7.31307 2.47262 8.46346
O 9.82683 6.82676 8.4634
O 6.77155 0.742807 6.62378
O 9.28546 5.09702 6.62381
O 6.02645 3.2154 6.25364
O 8.54032 7.5696 6.25361
O 7.31309 6.23577 8.09333
O 9.82685 1.88161 8.0934
O 6.77157 7.96563 9.93305
O 9.28548 3.61141 9.93302
Si 10.1947 4.35418 5.51883
Si 12.7085 1.41655e-05 5.51884
Si 11.243 6.65173 9.19822
Si 13.7568 2.29749 9.19823
Si 11.2431 2.05666 7.35858
Si 13.7568 6.41089 7.35857
O 11.0542 5.49293 10.3032
O 13.5681 1.13879 10.3032
O 12.3408 2.47259 8.46345
O 14.8547 6.82678 8.46346
O 11.7993 0.742841 6.62381
O 14.3132 5.09699 6.62378
O 11.0542 3.21545 6.25359
O 13.5681 7.56959 6.25363
O 12.3408 6.23579 8.09335
O 14.8547 1.88159 8.09333
O 11.7993 7.9656 9.93302
O 14.3132 3.61145 9.93305
Si 0.139034 13.0625 5.51884
Si 2.65301 8.70836 5.51884
Si 1.18747 15.36 9.19817
Si 3.70137 11.0059 9.19822
Si 1.18748 10.765 7.35863
Si 3.70138 15.1192 7.35858
O 0.998675 14.2013 10.3032
O 3.5126 9.84709 10.3032
O 2.28518 11.1809 8.4634
O 4.79915 15.5351 8.46345
O 1.7438 9.45119 6.62381
O 4.25764 13.8054 6.62382
O 0.998645 11.9238 6.25362
O 3.51257 16.278 6.25358
O 2.2852 14.9441 8.0934
O 4.79916 10.59 8.09335
O 1.74382 16.6739 9.93302
O 4.25767 12.3198 9.93302
Si 5.16682 13.0625 5.51884
Si 7.68067 8.70836 5.51884
Si 6.21518 15.36 9.19823
Si 8.72909 11.0059 9.19817
Si 6.21519 10.7651 7.35857
Si 8.72911 15.1192 7.35863
O 6.02647 14.2013 10.3032
O 8.54034 9.84713 10.3032
O 7.31307 11.181 8.46346
O 9.82683 15.5351 8.4634
O 6.77155 9.45116 6.62378
O 9.28546 13.8054 6.62381
O 6.02644 11.9238 6.25363
O 8.54031 16.278 6.25361
O 7.31309 14.9441 8.09334
O 9.82685 10.59 8.0934
O 6.77157 16.674 9.93305
O 9.28549 12.3198 9.93302
Si 10.1947 13.0625 5.51884
Si 12.7085 8.70836 5.51884
Si 11.243 15.3601 9.19822
Si 13.7568 11.0058 9.19823
Si 11.2431 10.765 7.35858
Si 13.7568 15.1192 7.35857
O 11.0542 14.2013 10.3032
O 13.5681 9.84714 10.3032
O 12.3408 11.1809 8.46345
O 14.8547 15.5351 8.46346
O 11.7993 9.45119 6.62381
O 14.3132 13.8053 6.62379
O 11.0542 11.9238 6.25359
O 13.5681 16.2779 6.25362
O 12.3408 14.9441 8.09335
O 14.8547 10.5899 8.09333
O 11.7993 16.6739 9.93302
O 14.3132 12.3198 9.93305
Si 0.139034 4.35417 11.0379
Si 2.65301 8.31372e-06 11.0379
Si 1.18744 6.65169 14.7171
Si 3.70135 2.29756 14.7172
Si 1.18746 2.05669 12.8776
Si 3.70136 6.41082 12.8776
O 0.998689 5.49295 15.8221
O 3.51262 1.13873 15.8221
O 2.28516 2.47261 13.9824
O 4.79913 6.82677 13.9825
O 1.74382 0.742827 12.1428
O 4.25767 5.09701 12.1428
O 0.998669 3.21543 11.7726
O 3.51259 7.56966 11.7726
O 2.28518 6.23578 13.6123
O 4.79914 1.8816 13.6123
O 1.74384 7.96561 15.4519
O 4.25769 3.61143 15.4519
Si 5.16682 4.35417 11.0379
Si 7.68067 8.3314e-06 11.0379
Si 6.21516 6.65167 14.7172
Si 8.72907 2.29752 14.7171
Si 6.21518 2.05672 12.8776
Si 8.72909 6.41086 12.8776
O 6.02649 5.49296 15.8221
O 8.54036 1.13876 15.8221
O 7.31305 2.47263 13.9825
O 9.82681 6.82677 13.9824
O 6.77157 0.742793 12.1428
O 9.28548 5.09701 12.1428
O 6.02647 3.21542 11.7726
O 8.54034 7.56962 11.7726
O 7.31307 6.23576 13.6122
O 9.82683 1.8816 13.6123
O 6.77159 7.96565 15.4519
O 9.2855 3.61143 15.4519
Si 10.1947 4.35417 11.0379
Si 12.7085 8.32937e-06 11.0379
Si 11.243 6.65173 14.7172
Si 13.7568 2.29749 14.7172
Si 11.243 2.05665 12.8776
Si 13.7568 6.41088 12.8776
O 11.0542 5.49291 15.8221
O 13.5682 1.13878 15.8221
O 12.3408 2.4726 13.9825
O 14.8547 6.82679 13.9825
O 11.7993 0.742826 12.1428
O 14.3132 5.09697 12.1428
O 11.0542 3.21547 11.7726
O 13.5681 7.56961 11.7726
O 12.3408 6.23578 13.6123
O 14.8547 1.88157 13.6122
O 11.7993 7.96561 15.4519
O 14.3133 3.61146 15.4519
Si 0.139034 13.0625 11.0379
Si 2.65301 8.70836 11.0379
Si 1.18745 15.36 14.7171
Si 3.70135 11.0059 14.7172
Si 1.18746 10.765 12.8776
Si 3.70136 15.1192 12.8776
O 0.998693 14.2013 15.8221
O 3.51262 9.84707 15.8221
O 2.28516 11.1809 13.9824
O 4.79913 15.5351 13.9825
O 1.74382 9.45118 12.1428
O 4.25767 13.8054 12.1428
O 0.998665 11.9238 11.7726
O 3.51259 16.278 11.7726
O 2.28518 14.9441 13.6123
O 4.79914 10.59 13.6123
O 1.74384 16.674 15.4519
O 4.25769 12.3198 15.4519
Si 5.16682 13.0625 11.0379
Si 7.68067 8.70836 11.0379
Si 6.21516 15.36 14.7172
Si 8.72907 11.0059 14.7171
Si 6.21517 10.7651 12.8776
Si 8.72909 15.1192 12.8776
O 6.02649 14.2013 15.8221
O 8.54036 9.84711 15.8221
O 7.31305 11.181 13.9825
O 9.82681 15.5351 13.9824
O 6.77157 9.45114 12.1428
O 9.28548 13.8054 12.1428
O 6.02646 11.9238 11.7726
O 8.54033 16.278 11.7726
O 7.31307 14.9441 13.6122
O 9.82683 10.59 13.6123
O 6.77159 16.674 15.4519
O 9.2855 12.3198 15.4519
Si 10.1947 13.0625 11.0379
Si 12.7085 8.70836 11.0379
Si 11.243 15.3601 14.7172
Si 13.7568 11.0058 14.7172
Si 11.243 10.765 12.8776
Si 13.7568 15.1192 12.8776
O 11.0543 14.2013 15.8221
O 13.5682 9.84712 15.8221
O 12.3408 11.1809 13.9825
O 14.8547 15.5351 13.9825
O 11.7993 9.45118 12.1428
O 14.3132 13.8053 12.1428
O 11.0542 11.9238 11.7726
O 13.5681 16.278 11.7726
O 12.3408 14.9441 13.6123
O 14.8547 10.5899 13.6122
O 11.7993 16.674 15.4519
O 14.3133 12.3198 15.4519
324
 Atoms. Timestep: 500
Si 15.0154 4.40694 0.0373383
Si 2.64437 0.0361042 0.149395
Si 1.1105 6.52044 3.78574
Si 4.04094 2.0333 3.74978
Si 1.38739 2.39326 1.89051
Si 3.70258 6.21851 1.90875
O 0.899127 5.20347 4.77166
O 3.5893 0.848509 4.56909
O 2.66886 2.49286 2.87369
O 5.14475 6.52542 2.7234
O 1.67485 0.974512 1.11998
O 4.00336 5.03351 0.959167
O 0.978705 3.39697 0.801416
O 3.38032 7.43565 0.916813
O 2.40021 6.12548 2.74971
O 5.28535 2.04949 2.7177
O 1.37891 7.92457 4.46026
O 4.37525 3.23795 4.81921
Si 4.88045 4.40213 16.3355
Si 7.59385 0.0273719 16.3542
Si 6.3601 6.465 3.6571
Si 8.68215 2.22564 3.58678
Si 6.306 2.45703 1.52406
Si 8.8489 6.63652 1.78046
O 6.02991 5.25706 4.72644
O 7.93001 0.888443 4.19244
O 7.56243 2.79732 2.48369
O 9.99051 7.2 2.80776
O 6.70836 1.08808 0.65243
O 9.26559 5.25407 1.03719
O 6.0427 3.43879 0.405229
O 8.41076 7.81465 0.811928
O 7.58637 6.27954 2.64405
O 10.0373 1.89127 2.70088
O 6.60809 7.83418 4.50087
O 8.97907 3.26501 4.67172
Si 10.0112 4.35042 16.5392
Si 12.5343 0.0130009 0.0985556
Si 11.129 6.73664 3.74017
Si 13.8302 2.37537 3.68817
Si 11.3259 2.17936 1.8053
Si 13.6308 6.34569 1.70341
O 10.6589 5.32294 4.57469
O 13.4769 0.903786 4.44701
O 12.5039 2.54417 2.71532
O 14.9183 6.51197 2.80718
O 11.5785 0.814351 1.05916
O 13.7914 5.01814 0.830122
O 10.9108 3.2952 0.732978
O 13.3239 7.72467 0.992424
O 12.2264 6.12306 2.51908
O 0.079882 2.35639 2.90776
O 11.7967 7.78595 4.71229
O 14.0537 3.37858 4.8572
Si -0.00478332 12.9286 16.4772
Si 2.61069 8.60496 0.0844038
Si 1.02527 15.3379 3.66739
Si 3.88666 10.9381 3.80677
Si 1.46262 11.018 1.89898
Si 3.47977 15.0468 1.93693
O 0.811404 14.4119 4.9017
O 3.21852 9.58645 4.53783
O 2.62004 11.4688 2.94063
O 4.56434 14.972 3.03046
O 2.19221 9.87671 0.985888
O 3.94081 13.8529 0.952332
O 1.03056 12.1689 0.884706
O 3.46952 16.4527 1.17248
O 2.09678 14.7521 2.70846
O 5.11695 10.7507 2.78608
O 1.53978 16.7192 4.22341
O 4.20065 11.9909 4.85542
Si 5.00496 13.1212 0.174297
Si 7.33231 8.71759 16.4642
Si 6.00752 15.143 3.58974
Si 9.01944 10.7089 3.51979
Si 6.31253 10.9755 1.83531
Si 8.61563 15.3324 1.85368
O 6.20055 13.7083 4.29841
O 8.45311 9.5405 4.54834
O 7.85987 10.943 2.49944
O 9.70038 15.4737 3.00439
O 6.49564 9.59451 0.86984
O 9.14074 14.0685 0.986599
O 6.05979 12.0996 0.713674
O 8.32457 16.4648 0.803528
O 7.12674 15.1257 2.46567
O 10.2849 10.1233 2.76644
O 6.2876 16.3205 4.68631
O 9.61977 12.0045 4.18575
Si 10.3301 13.3217 0.251182
Si 12.5966 8.62859 16.4967
Si 11.1572 15.3995 3.51013
Si 14.04 10.6556 3.63471
Si 11.341 10.7659 1.80028
Si 13.6168 14.9667 1.80025
O 11.2064 14.1104 4.53671
O 13.7789 9.68471 4.75191
O 12.7035 10.7909 2.75776
O 14.6773 15.3559 2.98739
O 11.6324 9.71838 0.559224
O 14.0167 13.6491 1.0729
O 10.9581 12.1609 1.17168
O 13.4885 16.2882 0.724835
O 12.2057 15.125 2.48377
O 0.248193 10.4618 2.64356
O 11.5838 16.6088 4.44352
O 14.6641 12.0381 4.30449
Si 15.0459 4.18164 5.61016
Si 2.5906 17.3109 5.34209
Si 1.06765 6.65325 9.3825
Si 3.78926 2.29311 9.14427
Si 1.32259 1.98929 7.27975
Si 3.60698 6.68405 7.43724
O 1.02412 5.42752 10.5458
O 3.38969 1.02754 10.162
O 2.61724 2.37146 8.08684
O 4.73141 6.90187 8.52384
O 1.75319 0.684506 6.44904
O 4.19416 5.38384 6.54893
O 0.717675 3.04505 6.30457
O 3.07089 7.84133 6.46196
O 2.35551 6.40314 8.37132
O 5.09017 1.91489 8.4185
O 1.42603 8.01273 9.95967
O 3.83346 3.5479 10.1094
Si 5.13103 4.30449 5.70216
Si 7.38078 17.3168 5.38712
Si 6.21166 6.609 9.30539
Si 9.10002 2.06908 9.37719
Si 6.45906 2.11508 7.4408
Si 8.62869 6.35039 7.42818
O 5.86192 5.38218 10.2136
O 8.84626 0.729966 10.2108
O 7.63142 2.18314 8.44369
O 9.73865 7.12255 8.31768
O 6.63476 0.979072 6.30814
O 9.09108 4.9673 6.77256
O 6.11727 3.4895 6.65752
O 8.41838 7.16471 6.05697
O 7.35367 6.20448 8.33457
O 10.1832 1.85653 8.28425
O 6.72628 7.91279 10.0628
O 9.44285 3.30214 10.3015
Si 9.83371 4.24843 5.56056
Si 12.6071 -0.0172099 5.38062
Si 11.1715 6.80296 9.22148
Si 13.9336 2.22237 9.35292
Si 11.3962 2.1329 7.29709
Si 13.6776 6.31403 7.43663
O 10.7907 5.50258 9.97141
O 13.5556 1.14145 10.4068
O 12.612 2.48403 8.39031
O 14.8272 6.65008 8.54821
O 11.9784 1.07606 6.37634
O 14.4269 5.06847 6.80193
O 10.8712 3.30422 6.29171
O 13.6004 7.44802 6.20468
O 12.2806 6.42369 8.20042
O 0.10524 1.81862 8.33031
O 11.6044 7.98008 10.2225
O 14.3043 3.62487 10.1511
Si 0.0717456 13.1206 5.45504
Si 2.23147 8.77098 5.53954
Si 1.5591 15.2313 8.91059
Si 3.95629 10.7383 9.00331
Si 1.26987 11.0468 7.4904
Si 4.06601 15.1246 7.21822
O 0.970258 14.0707 9.87563
O 3.3783 9.61081 9.92117
O 2.62361 11.1844 8.19715
O 5.24748 15.8934 8.26789
O 1.31553 9.75558 6.46084
O 4.81778 13.9952 6.55265
O 1.03926 12.2656 6.54025
O 3.34952 16.0897 6.10058
O 2.78569 14.8273 8.09645
O 5.15297 10.3246 8.00601
O 1.7847 16.607 9.60936
O 4.44322 11.8757 9.95095
Si 5.34813 12.9687 5.45724
Si 7.79995 8.35072 5.28551
Si 6.42375 15.2512 9.15845
Si 9.0305 10.9349 9.2297
Si 6.51979 10.6602 7.23656
Si 9.00682 15.1818 7.22912
O 6.01119 13.9818 10.0535
O 8.71669 9.69619 10.1626
O 7.6598 10.8406 8.33635
O 10.2109 15.5123 8.3225
O 7.10266 9.34908 6.49508
O 9.59189 13.9961 6.25375
O 6.30647 12.006 6.26463
O 8.45666 16.4523 6.23259
O 7.75725 14.8624 8.17969
O 10.1435 10.8105 8.10783
O 6.82321 16.3909 10.0911
O 9.40735 12.1894 10.2079
Si 10.3989 13.0251 5.29028
Si 12.8737 8.5944 5.5082
Si 11.469 15.1963 9.26227
Si 13.7805 11.0671 9.46194
Si 11.6044 10.9793 7.26495
Si 13.773 15.0978 7.173
O 11.0706 14.0619 10.3961
O 13.4076 9.88274 10.4978
O 12.5655 11.228 8.51535
O 0.110558 15.2505 7.88682
O 12.1043 9.53479 6.61841
O 13.8329 13.7194 6.21674
O 11.2581 11.9674 6.08008
O 13.3335 16.241 6.27277
O 12.8037 14.7721 8.37751
O -0.00110828 10.675 8.53078
O 11.8173 16.5083 10.2634
O 14.397 12.2375 10.3183
Si 0.116309 4.40966 11.3319
Si 2.52404 17.4224 10.7417
Si 0.837532 6.83276 14.9134
Si 3.85929 1.89634 14.5639
Si 1.20698 1.89475 12.8315
Si 3.1907 6.67909 12.8824
O 0.770903 5.72087 16.0545
O 3.63696 0.988622 15.9057
O 2.46816 2.03375 13.7563
O 4.55695 6.84528 13.8206
O 1.35233 0.673577 11.8025
O 3.75312 5.49176 11.8919
O 0.837742 3.24298 12.0416
O 3.14095 7.95413 11.9722
O 1.9384 6.45228 13.8074
O 4.98711 1.50341 13.5826
O 1.38204 8.09687 15.7667
O 4.07176 3.44822 15.3708
Si 4.7331 4.57991 11.0902
Si 7.80587 17.3083 11.1056
Si 5.99007 6.76502 14.6329
Si 8.68659 2.30147 14.6187
Si 6.16552 2.10635 12.6397
Si 8.53507 6.49659 12.8705
O 5.68691 5.57104 15.6477
O 8.67269 0.931707 15.5837
O 7.41917 2.3904 13.7047
O 9.51709 7.08063 14.056
O 6.80764 1.05468 11.5399
O 9.20854 5.25157 12.0625
O 5.52322 3.38471 11.8727
O 8.4155 7.6085 11.9198
O 7.18727 6.19529 13.6777
O 9.8688 2.22408 13.6097
O 6.58906 8.01945 15.2723
O 8.9886 3.55454 15.5295
Si 10.1766 4.44701 11.1408
Si 12.61 0.147072 11.2588
Si 11.0566 6.66776 14.6529
Si 13.8142 2.15344 14.8372
Si 11.4155 2.42381 12.8684
Si 13.6532 6.51965 13.053
O 10.8272 5.3041 15.4505
O 13.6952 1.06533 15.9986
O 12.4036 2.40903 14.1182
O 14.5408 7.0324 14.2593
O 11.7479 1.26523 11.8123
O 14.2716 5.20478 12.4393
O 11.2911 3.81849 12.0469
O 13.6706 7.58849 11.8533
O 12.184 6.35681 13.5806
O 14.9451 1.78519 13.6851
O 11.6801 7.76037 15.5209
O 14.2386 3.58768 15.5087
Si 0.120934 13.2794 11.0951
Si 2.41408 8.92736 10.8375
Si 1.30107 15.3427 14.8392
Si 3.85715 10.7442 14.7288
Si 1.33162 11.1626 12.7944
Si 3.63876 15.0115 12.8162
O 0.631041 14.2169 15.7333
O 3.55321 9.3441 15.4382
O 2.37452 11.1154 14.0619
O 4.78738 15.5756 13.6574
O 1.76596 10.0738 11.6716
O 4.17139 13.769 11.9443
O 1.17576 12.6716 12.1425
O 3.14627 16.215 11.7034
O 2.39879 14.8004 13.6674
O 5.06439 10.8418 13.7609
O 1.94644 16.4372 15.6877
O 4.36045 12.0057 15.7415
Si 5.1672 12.9475 10.9899
Si 7.72869 8.81853 10.9977
Si 6.02652 15.3977 14.7087
Si 8.71133 11.2015 14.8905
Si 6.31449 10.9846 12.911
Si 8.64655 15.0532 13.0821
O 5.65457 14.3834 15.8984
O 8.29721 9.86244 15.6579
O 7.36949 11.5189 14.0067
O 9.82643 15.4724 14.1906
O 6.968 9.79505 11.9718
O 9.18833 13.9285 12.2379
O 6.07031 12.0467 11.9117
O 8.37897 16.32 12.1071
O 7.3015 14.788 13.9083
O 9.87772 10.7532 13.9032
O 6.68167 16.6911 15.28
O 9.36229 12.4531 15.6842
Si 10.1679 13.0208 11.1881
Si 12.6244 8.75453 11.2546
Si 11.3026 15.3372 14.8139
Si 13.8743 10.7654 14.5875
Si 11.1317 10.6257 13.078
Si 13.9215 15.3273 13.076
O 11.2144 14.34 16.1288
O 13.5231 9.49526 15.443
O 12.57 11.1093 13.7811
O 14.9749 15.7108 14.1558
O 11.668 9.30695 12.4845
O 14.3405 14.2136 12.0843
O 10.799 11.8279 11.9695
O 13.4577 16.6626 12.237
O 12.5455 14.9 13.925
O 15.0851 10.858 13.5012
O 11.8051 16.65 15.5442
O 14.265 11.8666 15.7164
324
 Atoms. Timestep: 1000
Si -0.0467735 4.44682 0.214016
Si 2.66432 17.3009 0.267315
Si 1.11559 6.46143 3.64665
Si 3.90354 1.95443 3.71179
Si 1.3636 2.12376 2.03853
Si 3.45693 6.38769 1.63311
O 0.799534 5.17077 4.62226
O 3.1666 0.527831 4.02336
O 2.64489 2.61623 2.79518
O 4.81022 6.29436 2.58457
O 1.87534 1.0601 0.906245
O 3.68631 5.19194 0.614872
O 0.744724 3.28576 0.960422
O 3.07692 7.68697 0.850717
O 2.26229 6.17793 2.59262
O 5.28734 1.98659 2.99036
O 1.48957 7.65916 4.5006
O 4.08504 3.03409 5.02904
Si 4.69016 4.24496 16.3922
Si 7.23591 0.166435 16.3088
Si 6.10448 6.17714 3.4832
Si 8.98205 1.93679 3.71187
Si 6.29887 2.37198 1.84762
Si 8.73323 6.46234 1.9363
O 5.79175 5.05089 4.73793
O 8.40531 0.727145 4.55322
O 7.80077 2.39776 2.61788
O 9.92143 6.69505 2.89047
O 6.52364 1.17569 0.81372
O 9.2457 5.47087 0.920526
O 5.80464 3.59184 0.820322
O 8.21073 7.7155 0.980502
O 7.53468 5.81359 2.76396
O 10.4746 1.82481 3.25177
O 6.41007 7.57692 4.16661
O 9.12003 3.15443 4.78867
Si 9.9076 4.30441 0.211047
Si 12.5129 0.104617 16.4488
Si 10.9901 6.61313 3.86307
Si 13.8424 1.9265 3.46976
Si 11.3375 2.05757 1.9218
Si 13.5442 6.65124 1.88426
O 10.7061 5.35736 4.75129
O 13.0281 0.731971 4.22112
O 12.9079 2.40498 2.30372
O 14.7678 6.73016 2.97325
O 11.4674 0.811981 0.91779
O 13.9963 5.24533 1.14394
O 10.4913 3.38528 1.23361
O 13.3487 7.93037 0.97843
O 12.3246 6.47292 2.86828
O 0.289259 1.77319 3.12588
O 11.1954 7.98862 4.73402
O 14.1948 3.05986 4.61942
Si 0.0239484 12.9597 0.107738
Si 2.51931 8.8835 16.4716
Si 0.919211 15.0292 3.68474
Si 3.82355 10.6998 3.99119
Si 1.43901 10.9924 2.00596
Si 3.54166 15.1812 1.96909
O 0.689 13.5737 4.39919
O 3.20429 9.6376 4.80821
O 2.66107 11.1333 3.07275
O 4.71053 15.3622 3.04443
O 1.9826 9.983 0.825808
O 4.01531 14.0627 0.955427
O 0.886373 12.3318 1.20886
O 3.62917 16.654 1.1762
O 2.17083 15.0181 2.63647
O 5.26371 10.4001 2.97965
O 1.32252 16.2319 4.78797
O 4.39228 11.9661 4.72013
Si 4.86394 12.8523 0.147163
Si 7.35092 8.73581 16.5834
Si 6.15579 15.3173 3.79575
Si 8.95597 10.6253 3.67514
Si 6.43614 10.8793 1.93095
Si 8.50201 15.5924 1.63088
O 6.29015 13.7011 4.30635
O 8.43679 9.34062 4.4046
O 7.79698 10.962 2.66731
O 9.65789 15.8006 2.81271
O 6.60847 9.60819 0.929136
O 9.09873 14.1779 0.950466
O 5.77251 12.0088 1.18842
O 8.37274 16.6521 0.625573
O 7.21995 15.4664 2.59193
O 10.4722 10.7367 2.84687
O 6.63001 16.2186 4.92969
O 9.17936 11.7258 4.89214
Si 10.0539 13.0044 0.127965
Si 12.2778 8.70246 0.0132405
Si 11.0363 15.2924 3.57025
Si 13.928 10.4711 3.54632
Si 11.6552 11.0959 1.77057
Si 13.5941 15.3061 1.8456
O 10.6561 13.8585 4.39883
O 13.3649 9.16388 4.26723
O 12.9778 11.1086 2.3843
O 14.6244 15.5401 3.02105
O 11.7158 9.90645 0.76716
O 14.0893 14.0359 0.966292
O 11.2417 12.5155 1.01481
O 13.4003 16.7807 0.965969
O 12.2355 15.0084 2.48606
O 0.210267 10.4382 2.77701
O 11.5319 16.1463 4.82415
O 14.0417 11.5054 4.79572
Si 14.9135 4.16555 5.52152
Si 2.48809 17.1525 5.30121
Si 1.20435 6.50038 9.38622
Si 4.17418 2.26991 9.20872
Si 1.56715 2.1285 7.30063
Si 3.55979 6.46665 7.59643
O 0.916308 5.41487 10.4976
O 3.4037 1.10855 10.1359
O 3.0687 2.3478 7.9524
O 4.79344 6.90011 8.50872
O 1.88072 0.760409 6.27388
O 4.08763 5.37161 6.4768
O 0.933105 3.46211 6.57244
O 3.2498 7.76078 6.65741
O 2.20819 6.09782 8.31165
O 5.57013 1.97982 8.82489
O 1.6355 7.89466 10.2184
O 4.08883 3.64512 10.0277
Si 4.89629 4.24056 5.7725
Si 7.5263 17.3117 5.64834
Si 6.04532 6.81667 9.4382
Si 9.08739 2.12765 9.08921
Si 6.47354 2.07596 7.50591
Si 8.55958 6.53127 7.52204
O 5.8492 5.54773 10.316
O 8.81898 0.92485 10.0526
O 7.99707 2.21757 7.86852
O 9.94402 6.89351 8.21301
O 6.64666 0.933867 6.40113
O 8.95486 5.01826 6.82758
O 5.90742 3.4747 6.81664
O 7.97255 7.29762 6.20714
O 7.31149 6.61675 8.59128
O 10.5424 1.86746 8.58926
O 6.54592 8.14691 10.2076
O 9.12655 3.49075 9.99481
Si 9.93489 4.2657 5.69028
Si 12.461 17.276 5.43088
Si 11.2273 6.74594 9.09414
Si 14.232 1.92605 9.1021
Si 11.6439 2.29573 7.40068
Si 13.7464 6.3197 7.43508
O 10.6935 5.66455 10.3013
O 13.1473 0.98525 9.87399
O 13.1555 2.43527 7.90295
O 15.0137 6.58769 8.38212
O 11.6269 0.923433 6.43642
O 14.0138 5.17684 6.43289
O 11.0788 3.57893 6.6818
O 13.3102 7.67701 6.61055
O 12.4066 6.2195 8.29986
O 0.50237 1.45302 8.29519
O 11.8948 7.94972 9.85864
O 14.4828 3.12623 10.1216
Si 14.7876 12.8098 5.4783
Si 2.33843 8.46613 5.56451
Si 1.60752 15.0174 8.8787
Si 3.99698 10.8162 9.17676
Si 1.42548 10.8753 7.30116
Si 4.22281 15.3372 7.18291
O 0.936514 13.9975 9.92108
O 3.39192 9.74866 10.076
O 2.90179 11.0185 7.96265
O 5.26106 15.8549 8.21992
O 1.46002 9.59353 6.39357
O 4.82618 14.0745 6.20296
O 0.7507 12.1039 6.4724
O 3.66178 16.2738 5.96323
O 2.95997 14.9652 8.08972
O 5.50937 10.9017 8.56364
O 1.83691 16.3652 9.83001
O 3.92522 12.3043 9.94611
Si 5.44904 12.8612 5.40773
Si 7.28728 8.43008 5.14858
Si 6.34417 15.5003 9.34078
Si 9.26891 10.4953 9.20006
Si 6.65919 10.561 7.33326
Si 8.85306 15.307 7.37054
O 5.80548 14.0905 9.98246
O 8.84586 9.31905 10.1474
O 8.0757 10.5094 8.04081
O 10.2565 15.6241 8.03113
O 6.39495 9.45451 6.2569
O 8.89417 14.019 6.3343
O 6.32762 11.8842 6.4346
O 8.59195 16.5191 6.41052
O 7.82818 15.3872 8.59016
O 10.5711 10.6174 8.46403
O 6.7839 16.5006 10.425
O 9.32549 11.9505 10.1611
Si 9.85096 13.0169 5.51916
Si 12.4722 8.66435 5.58096
Si 11.449 15.3468 9.04901
Si 13.9382 10.9275 9.25571
Si 11.7133 11.2503 7.34924
Si 14.0581 15.4017 7.01922
O 11.0686 13.9702 9.83605
O 13.6036 9.56743 10.1081
O 12.813 11.5209 8.3359
O 0.408006 15.082 7.80154
O 12.0114 9.98466 6.42422
O 13.8804 13.8205 6.1335
O 11.0315 12.4526 6.62625
O 13.6841 16.6587 6.11397
O 12.8189 15.4201 8.15096
O 0.293917 10.6033 8.47188
O 11.471 16.4135 10.1792
O 14.2196 12.1923 10.394
Si 0.0436811 4.20076 11.1603
Si 2.50388 17.4459 10.7808
Si 1.15215 6.78511 14.6719
Si 3.7711 1.84742 14.5969
Si 1.22382 1.94035 12.8452
Si 3.65795 6.97985 12.9096
O 0.752855 5.703 16.0045
O 3.51294 0.48217 15.5277
O 2.77992 1.86926 13.4794
O 5.03833 7.28056 13.5264
O 1.2656 0.871937 11.6852
O 3.80463 5.76949 11.6562
O 0.918873 3.56375 12.3159
O 3.0863 8.32483 12.221
O 2.60518 6.50299 14.0303
O 5.11606 1.78319 13.8476
O 1.44418 8.20878 15.5429
O 3.96999 3.1317 15.5471
Si 4.81623 4.59269 11.0231
Si 7.7734 0.151845 10.988
Si 5.90611 6.54915 14.7866
Si 8.67778 2.35383 14.6523
Si 6.1765 2.3291 12.7947
Si 8.53994 6.29308 13.0039
O 5.34127 5.27296 15.3285
O 8.0273 1.03297 15.2141
O 7.3522 2.88043 13.6893
O 9.95186 6.29774 13.8386
O 6.84723 1.26349 11.8051
O 8.74488 5.03272 11.9061
O 5.58433 3.66253 12.1503
O 8.1355 7.51866 12.0038
O 7.32521 6.43439 14.1802
O 9.93081 2.35508 13.7216
O 6.24273 7.60028 16.0191
O 9.05669 3.36915 15.7534
Si 10.0111 4.5279 11.0023
Si 12.2859 0.194045 11.0121
Si 11.2816 6.23831 14.8443
Si 13.7472 2.25788 14.5601
Si 11.2441 2.42013 12.8873
Si 13.717 6.39208 12.8588
O 11.1567 4.9825 15.8261
O 13.1627 1.0807 15.4916
O 12.6685 2.76683 13.5464
O 15.0531 6.97651 13.6487
O 11.5218 1.23922 12.0459
O 14.1041 5.10395 11.9923
O 10.8497 3.63838 12.0207
O 13.151 7.75129 12.0083
O 12.6179 6.23844 13.9723
O 0.179801 1.7284 14.0303
O 11.5021 7.51492 15.8568
O 14.3611 3.5013 15.547
Si 15.0534 13.316 11.087
Si 2.34169 9.04866 11.0138
Si 1.28137 15.1671 14.8855
Si 3.92318 10.9124 14.4902
Si 1.31825 11.1846 12.7994
Si 3.78785 15.2996 12.8251
O 0.856195 13.6977 15.4925
O 3.41775 9.54326 15.1958
O 2.76249 11.3863 13.4464
O 5.20012 15.1835 13.6462
O 1.46306 10.2265 11.5582
O 3.89023 14.1433 11.6327
O 0.89052 12.5458 12.1117
O 3.40026 16.6335 11.8771
O 2.58651 15.0289 13.9655
O 5.3644 10.8248 13.7746
O 1.64931 16.1425 16.1493
O 4.08639 11.8497 15.7667
Si 4.87848 13.3092 10.8841
Si 7.66883 8.74993 11.0682
Si 6.44878 14.9899 14.7308
Si 9.01639 10.8214 14.9137
Si 6.57524 11.1911 12.8058
Si 8.80104 15.2616 12.8592
O 5.89281 13.8073 15.7035
O 8.34966 9.53231 15.4962
O 7.9778 11.3929 13.6975
O 10.1514 15.5524 13.588
O 7.07848 10.0603 11.7539
O 9.02651 14.4122 11.5751
O 6.06592 12.5029 11.9094
O 8.37997 16.7472 12.2146
O 7.76144 14.7082 13.944
O 10.5682 10.6673 14.1447
O 6.5734 16.4847 15.2942
O 9.04323 11.9274 16.0378
Si 10.0399 13.1578 10.9714
Si 12.5786 8.79116 11.0345
Si 11.3226 15.2302 14.6277
Si 14.008 10.6835 14.8522
Si 11.4987 11.1687 12.9352
Si 13.8794 15.6566 12.8457
O 10.819 13.8835 15.5493
O 13.285 9.31188 15.333
O 13.0199 11.2807 13.7223
O 0.0765344 15.7279 13.9692
O 11.7203 10.0802 11.7632
O 14.2323 14.4682 11.8236
O 10.9137 12.5205 12.2383
O 13.2015 16.9508 12.2325
O 12.7079 15.1341 13.8595
O 0.286945 10.6851 13.9485
O 11.7085 16.5199 15.5284
O 14.2648 11.7888 15.9754
324
 Atoms. Timestep: 1500
Si 14.6607 4.45776 16.4779
Si 2.51608 -0.000417294 16.5147
Si 1.01937 6.54042 3.65369
Si 3.62526 2.03854 3.74068
Si 1.19001 2.26538 1.69062
Si 3.40112 6.66183 1.52327
O 0.784951 5.25808 4.65907
O 2.93882 0.839705 4.49114
O 2.52827 2.31822 2.62452
O 4.50067 7.09605 2.66384
O 1.60246 1.28547 0.54009
O 3.98002 5.30657 0.856529
O 0.574318 3.63882 0.875561
O 3.11131 7.86909 0.615159
O 1.9715 6.37667 2.40175
O 5.04401 1.46664 2.98572
O 1.60038 7.65362 4.65988
O 3.94242 3.10022 4.81358
Si 4.79697 4.25135 0.0742235
Si 7.57691 0.147241 0.0482847
Si 5.88574 6.65807 3.51768
Si 8.58393 2.10787 3.72349
Si 6.16585 2.16714 1.94786
Si 8.57097 6.48412 1.86463
O 5.36697 5.24912 4.17757
O 8.24094 0.842888 4.61973
O 7.50859 2.49515 2.77074
O 9.5072 6.69044 3.13146
O 6.55165 1.21995 0.725474
O 8.94104 5.33337 0.909993
O 5.47989 3.35994 1.22336
O 8.69868 7.81423 1.07328
O 7.11174 6.31779 2.60711
O 9.9188 1.924 2.76689
O 6.15847 7.58328 4.62256
O 9.01891 3.32742 4.69486
Si 10.1134 4.38223 0.0802902
Si 12.3751 17.2304 16.4266
Si 10.982 6.46335 3.77443
Si 13.9918 1.87408 3.74558
Si 11.3067 2.12655 1.94343
Si 13.6134 6.66709 1.94264
O 10.9595 5.13962 4.79928
O 13.7879 0.591048 4.69251
O 12.4407 1.97985 3.14648
O 14.8185 7.01287 2.95603
O 11.4923 1.10015 0.829287
O 13.8877 5.58413 0.868772
O 11.0451 3.82569 1.33756
O 13.125 8.04733 1.18859
O 12.1679 6.25341 2.69743
O 0.031582 1.69417 2.62571
O 11.3048 7.72342 4.61419
O 14.1758 3.3252 4.60503
Si 14.947 13.2253 0.217084
Si 2.18217 8.85077 0.00814081
Si 1.3105 15.0729 3.46088
Si 3.94863 10.7992 3.75535
Si 1.325 11.0488 1.98088
Si 3.91852 15.1833 1.61674
O 0.64407 13.9934 4.30882
O 3.41008 9.56296 4.62024
O 2.7195 11.4059 2.81771
O 5.21248 15.2045 2.54717
O 1.35798 9.65899 1.24123
O 4.35818 14.4155 0.256127
O 0.86647 12.2058 1.03729
O 3.13989 16.6759 1.1229
O 2.67808 14.7342 2.63331
O 5.17493 10.4068 2.65559
O 1.64173 16.2708 4.49774
O 4.44363 11.888 4.78576
Si 5.20152 13.1454 16.2889
Si 7.73303 8.67024 0.0579007
Si 6.49592 14.9461 3.45541
Si 8.66064 10.876 3.66854
Si 6.35024 11.0272 1.71645
Si 8.94853 15.1905 1.58505
O 6.24978 13.8276 4.73147
O 7.91669 9.51518 4.08048
O 7.54203 11.5076 2.78733
O 10.3584 15.0438 2.47069
O 7.10235 9.90706 0.937437
O 9.11275 14.1267 0.519167
O 5.65655 12.3516 1.05285
O 8.50802 16.6796 0.804702
O 7.79921 14.9025 2.5626
O 9.96635 10.4684 3.03503
O 6.71827 16.3192 4.42956
O 8.9884 11.9412 4.89222
Si 10.0913 12.953 16.5462
Si 12.3899 8.9652 0.10337
Si 11.422 14.899 3.70585
Si 13.8757 10.9347 3.76865
Si 11.1028 10.9947 2.05897
Si 13.6765 15.3078 1.9985
O 10.7531 13.7579 4.50391
O 13.5344 9.47723 4.54576
O 12.5432 11.026 2.8488
O 15.0837 15.6889 2.69601
O 11.1477 9.89359 0.733465
O 14.1728 14.1881 1.0452
O 10.6892 12.3317 1.25012
O 13.102 16.5328 1.06755
O 12.8889 14.3523 3.04094
O 0.218824 10.9681 3.10067
O 11.9712 16.0839 4.49156
O 13.9424 12.0775 4.80801
Si 14.9063 4.36608 5.56331
Si 2.22089 17.2886 5.52593
Si 1.1502 6.713 9.23845
Si 3.93514 2.33906 9.25557
Si 1.50348 2.20645 7.34708
Si 4.01323 6.50767 7.33399
O 0.507892 5.38089 9.8771
O 3.57542 1.07176 10.1632
O 2.93747 2.54816 7.97974
O 5.13693 6.65862 8.45835
O 1.3441 0.764744 6.63147
O 4.12518 5.23499 6.44516
O 0.954291 3.3973 6.40752
O 3.752 7.65929 6.23996
O 2.63558 6.4455 8.29552
O 5.27393 2.52132 8.33782
O 1.67485 7.72362 10.3188
O 4.0556 3.34508 10.5295
Si 4.83422 4.29809 5.3265
Si 7.38219 17.2743 5.54109
Si 6.44618 6.42771 9.38829
Si 8.87654 2.22152 8.97187
Si 6.38041 2.25165 7.0963
Si 8.9805 6.54979 7.2941
O 6.05411 5.23896 10.2982
O 8.59015 1.16873 10.2157
O 7.78558 2.17393 7.81557
O 10.2721 7.03956 8.03983
O 6.36129 0.857601 6.32954
O 9.34655 5.24107 6.67334
O 5.91148 3.30033 6.04668
O 8.40641 7.6502 5.97378
O 7.75328 6.31143 8.32567
O 10.5041 1.87209 8.38482
O 6.89856 7.67663 10.4776
O 8.73107 3.48304 9.88738
Si 9.95527 4.20828 5.59475
Si 12.6857 17.0639 5.54167
Si 11.2363 6.63058 9.22295
Si 14.0216 1.98339 9.0863
Si 11.5004 1.84106 7.16437
Si 13.8398 6.58065 7.22133
O 10.7434 5.22641 9.80463
O 13.9266 0.702102 10.1911
O 12.8613 1.95563 8.06869
O 15.0507 6.98916 8.19864
O 11.7214 0.654186 6.11129
O 14.054 5.28072 6.39838
O 10.9756 3.06575 6.27609
O 13.2174 7.50389 6.15279
O 12.588 6.1606 8.3505
O 0.399487 2.28432 8.5515
O 11.6142 7.80999 10.1934
O 13.9096 3.27761 10.1662
Si 15.0545 13.0745 5.41132
Si 2.59839 8.57481 5.57773
Si 1.58242 15.2572 9.46678
Si 4.11868 10.7529 9.22783
Si 1.50594 10.9222 7.44
Si 3.9497 15.2113 7.29911
O 1.20234 14.0755 10.3446
O 3.33448 9.78521 10.0812
O 2.80575 11.4774 8.28303
O 4.99792 15.5055 8.44997
O 2.13442 9.5385 6.79517
O 4.173 13.9752 6.35352
O 0.96163 11.7836 6.06675
O 3.55946 16.3983 6.33096
O 2.62282 15.07 8.22302
O 5.40729 10.1475 8.50437
O 1.94949 16.6308 10.1967
O 4.55732 12.0104 10.2628
Si 5.22323 12.962 5.67973
Si 7.24639 8.61938 5.19275
Si 6.25197 15.6688 9.44121
Si 8.99383 10.7135 9.19083
Si 6.48183 10.5819 7.46866
Si 8.94751 15.3536 7.49392
O 6.12838 14.4024 10.4982
O 8.66381 9.60273 10.3043
O 7.90505 10.8347 8.12949
O 10.3795 15.7441 8.18218
O 6.6762 9.41714 6.29414
O 9.30399 13.9837 6.69241
O 5.92398 12.0046 6.96786
O 8.41129 16.5931 6.55687
O 7.56877 15.5159 8.51486
O 10.4314 10.6473 8.5452
O 6.40856 17.2394 9.96223
O 8.96265 12.1339 10.0726
Si 9.92337 12.926 5.57541
Si 12.4495 8.6504 5.34643
Si 11.4985 15.1265 9.14322
Si 14.0068 10.9992 9.17015
Si 11.4882 11.022 7.41743
Si 14.1333 15.1213 7.73903
O 10.8397 14.022 10.1101
O 13.4753 9.7737 9.89914
O 12.9364 11.4006 8.02462
O 0.179186 15.4828 8.59716
O 11.8631 9.72136 6.37273
O 14.5658 14.0567 6.69768
O 11.046 12.1083 6.43067
O 13.4953 16.3324 6.87774
O 12.791 14.5886 8.30565
O 0.23986 10.6486 8.32173
O 12.0281 16.41 10.0022
O 14.2696 12.1293 10.2184
Si 14.7468 4.44187 10.9684
Si 2.7308 0.173126 11.2088
Si 1.15632 6.61153 14.5916
Si 3.69277 1.88485 14.7762
Si 1.22275 2.32572 12.9257
Si 3.73571 6.55741 12.8327
O 0.373766 5.33039 15.3398
O 3.34407 0.438405 15.346
O 2.65908 2.41752 13.7115
O 5.22466 6.71024 13.4346
O 1.58883 1.19655 12.1218
O 3.91691 5.38803 11.7577
O 0.657331 3.51547 11.9236
O 3.51126 8.06588 12.1559
O 2.65653 6.33174 14.0284
O 5.03016 1.91344 13.8638
O 1.38185 7.99377 15.4643
O 3.9388 3.09579 15.9444
Si 4.99957 4.32327 11.2009
Si 7.51691 0.411101 11.0534
Si 6.35957 6.32229 14.7617
Si 9.02983 2.13316 14.5339
Si 6.39051 2.46975 13.137
Si 8.87546 6.58619 12.8436
O 5.74342 5.10018 15.5724
O 8.56801 1.02393 15.6325
O 7.69017 2.62437 13.9764
O 10.31 6.77628 13.6098
O 6.82462 1.41409 12.0785
O 8.99498 5.46777 11.7079
O 5.97597 3.66839 12.2596
O 8.64305 8.09636 12.3199
O 7.81245 6.41994 13.9818
O 10.0841 1.77569 13.5161
O 6.59357 7.66922 15.8421
O 9.70414 3.22247 15.5519
Si 9.84184 4.36474 10.7855
Si 12.7367 0.0570124 10.9284
Si 11.4462 6.58328 14.7395
Si 13.682 2.14617 14.7748
Si 11.2968 2.30317 12.5369
Si 13.9843 6.55679 12.8296
O 10.8104 5.49507 15.7374
O 13.1891 0.748506 15.5085
O 12.7231 2.40733 13.5822
O 0.346053 6.66015 13.2842
O 11.8195 1.27096 11.3223
O 13.9023 5.39838 11.7629
O 10.8222 3.67481 11.9179
O 13.4552 7.80649 11.9144
O 12.8006 6.31611 13.8539
O 0.0982152 1.99155 14.0467
O 11.8733 8.00962 15.4325
O 13.7985 3.24427 15.8497
Si 0.0877818 13.297 11.0901
Si 2.44745 8.91646 11.124
Si 1.24322 15.0746 14.8434
Si 3.76192 10.9182 14.6481
Si 1.20185 10.9327 12.8597
Si 3.76105 15.0686 12.9743
O 0.775821 13.875 15.7042
O 3.08736 9.85534 15.803
O 2.43679 11.2236 13.8806
O 5.16543 15.0473 13.6952
O 1.62976 9.72695 12.1204
O 3.87905 14.0058 11.7637
O 0.996645 12.2313 11.938
O 3.58263 16.5041 12.0864
O 2.44266 14.9563 13.9395
O 4.98199 10.3008 13.7799
O 1.49815 16.1902 15.9575
O 4.53315 12.0291 15.4734
Si 5.11147 13.1732 11.1265
Si 7.64468 8.7919 11.3169
Si 6.43153 15.224 14.5999
Si 8.70494 10.8267 14.5496
Si 6.25859 10.8175 12.8031
Si 8.77022 15.3418 12.6944
O 6.25928 13.933 15.5283
O 8.42306 9.46245 15.2626
O 7.57208 11.2595 13.6281
O 10.2627 15.4161 13.466
O 6.60649 9.86692 11.6721
O 8.9579 14.1136 11.7582
O 5.61031 12.2639 12.4354
O 8.01975 16.5338 11.8334
O 7.6828 15.2752 13.8567
O 10.1255 10.5543 13.9444
O 6.75395 16.4324 15.778
O 9.05247 11.8014 15.8434
Si 9.86417 13.0887 10.9577
Si 12.6625 8.78435 11.0026
Si 11.2112 14.9267 14.6256
Si 13.7936 11.0198 14.7897
Si 11.2083 10.8213 12.8488
Si 13.8192 15.2485 13.0824
O 10.8034 13.684 15.3401
O 13.5658 9.7972 16.011
O 12.4906 11.1418 13.7748
O 15.0433 15.5551 14.0623
O 11.639 9.63621 11.8896
O 14.3502 14.3034 11.9802
O 10.892 12.1835 11.912
O 13.2967 16.9198 12.4042
O 12.4892 14.7402 13.6581
O 15.0257 10.9703 13.8514
O 11.3678 16.0154 15.751
O 13.8983 12.2712 15.9006
324
 Atoms. Timestep: 2000
Si 15.0524 4.2168 16.3871
Si 2.53249 0.130349 -0.0180239
Si 1.05907 6.44914 3.61245
Si 3.46996 2.32832 3.62683
Si 0.981692 1.90539 1.89707
Si 3.80903 6.78147 1.92022
O 0.849788 5.0958 4.47106
O 3.33744 1.21532 4.77487
O 2.18886 2.52597 2.88833
O 4.846 7.03888 2.97297
O 1.65882 0.626463 1.35555
O 4.3428 5.48245 1.20723
O 0.709357 2.93411 0.562243
O 3.27883 7.91441 0.90834
O 2.38743 6.40592 2.75181
O 4.70085 1.74428 2.82098
O 1.24436 7.65167 4.58542
O 4.31588 3.73088 3.87458
Si 5.13218 4.48551 0.340932
Si 7.8152 0.156906 0.508987
Si 6.42605 6.67604 3.56091
Si 8.74354 2.15626 3.56121
Si 6.15681 2.24554 2.2754
Si 8.8092 6.39248 2.03222
O 6.05858 5.44529 4.58099
O 8.41953 0.734294 4.38644
O 7.28608 2.45303 3.3544
O 9.83938 6.82773 3.03421
O 6.62565 0.913205 1.45126
O 9.40366 5.53009 0.746258
O 6.0688 3.57324 1.25148
O 8.04257 7.72067 1.38686
O 7.5889 5.76974 2.81942
O 9.68067 2.1071 2.32459
O 7.11863 7.86996 4.21675
O 9.48 3.24378 4.44762
Si 10.1562 4.56345 16.3402
Si 12.7726 0.0134629 0.0498116
Si 11.2625 6.57591 3.60612
Si 13.5478 2.26049 3.68654
Si 11.0332 2.27001 1.74558
Si 13.6757 6.54815 1.69972
O 11.1174 5.24367 4.47775
O 13.2642 0.857895 4.44505
O 12.1809 2.68578 3.07712
O 14.6932 6.65758 2.93305
O 11.8304 0.960501 1.08246
O 14.4578 5.20679 0.899278
O 11.1185 3.55975 0.778639
O 13.379 7.77301 0.669073
O 12.1672 6.45048 2.33659
O 14.6816 2.04409 2.50938
O 11.5806 7.87663 4.411
O 14.1671 3.14579 4.8603
Si 15.0527 13.0758 16.3707
Si 2.18506 8.67568 16.5088
Si 1.48317 15.3236 4.00108
Si 3.38324 10.7692 3.46249
Si 0.642311 10.699 1.5987
Si 4.1538 15.5934 1.87637
O 1.2991 14.0479 4.87349
O 3.27404 9.38789 4.152
O 1.97634 10.9176 2.67524
O 5.64159 15.7537 2.32566
O 0.980685 9.3596 0.824636
O 4.28682 14.1774 1.12025
O 0.562394 12.0613 0.781385
O 3.49168 16.6339 0.780814
O 3.02231 15.5089 3.00282
O 4.74189 10.8094 2.62395
O 1.6515 16.5905 4.90105
O 3.55314 12.1104 4.57001
Si 5.0644 13.1855 16.5712
Si 7.63148 8.62414 0.270381
Si 6.28323 15.1428 3.7426
Si 8.8396 10.95 3.76283
Si 6.1717 11.0126 1.70352
Si 8.77689 14.9547 2.17683
O 5.46994 14.0244 4.53067
O 8.73989 9.86599 4.82422
O 7.46086 10.8071 2.76248
O 10.1189 15.2557 2.91343
O 6.27092 9.63394 0.772827
O 9.18703 13.9151 1.16554
O 5.99398 12.2998 0.937833
O 8.55149 16.4341 1.3416
O 7.58295 14.5437 3.08414
O 10.1223 10.8009 2.77393
O 6.52928 16.2782 4.74084
O 8.90198 12.4121 4.56307
Si 9.89399 13.1153 -0.00188157
Si 12.272 8.9124 0.0511376
Si 11.5126 15.0067 3.81225
Si 13.6979 11.245 3.83094
Si 11.4455 11.1999 2.01676
Si 14.0613 15.4411 1.82968
O 11.2454 13.595 4.51828
O 12.9514 9.9456 4.55132
O 12.6055 11.8937 2.88193
O 0.228327 15.454 2.83479
O 11.9836 9.92619 1.42248
O 14.3798 14.2493 0.745579
O 10.9708 12.1181 0.830339
O 13.6789 16.7542 1.14342
O 12.7131 14.9597 2.52742
O 14.5793 10.4022 2.71808
O 11.6122 16.1729 4.8609
O 14.6566 12.0758 4.95498
Si 0.0696371 4.15738 5.52142
Si 2.88142 0.0605087 5.63761
Si 1.60953 6.57497 9.00403
Si 3.86701 2.29363 9.14824
Si 1.25573 2.13617 7.40856
Si 4.05598 6.26273 7.10691
O 0.979352 5.49269 10.1058
O 3.48387 0.899216 10.0038
O 2.60072 2.6071 8.40201
O 5.45445 6.68847 7.72798
O 1.854 0.79697 6.76594
O 4.127 4.78635 6.34333
O 1.17606 3.13111 6.22729
O 3.24132 7.30403 6.26649
O 3.0116 6.27184 8.34775
O 4.92086 2.04809 7.81031
O 1.84428 7.83054 9.98569
O 4.74973 3.34647 9.98402
Si 5.08119 4.36059 5.15295
Si 7.59785 17.3527 5.45567
Si 6.34859 6.57292 8.99401
Si 8.46309 2.26059 8.99622
Si 6.18427 2.15029 6.96515
Si 8.90002 6.44299 7.37358
O 5.92821 5.41711 10.1386
O 8.11234 1.11258 9.97152
O 7.22868 2.64302 8.236
O 10.303 6.64423 8.33084
O 6.8718 0.923076 6.38269
O 9.33662 5.22888 6.35049
O 5.98012 3.34256 6.01281
O 8.47356 7.82201 6.44483
O 7.84394 6.30156 8.49408
O 9.68385 1.86327 7.95525
O 6.5451 7.67884 10.0891
O 9.32223 3.45266 9.82897
Si 10.2787 4.191 5.36937
Si 12.5227 17.3638 5.58563
Si 11.6704 6.59096 9.17689
Si 13.7512 2.29601 9.2009
Si 11.2368 2.10914 7.42336
Si 14.2429 6.69961 7.21817
O 11.25 5.29506 10.0176
O 13.5046 0.937927 10.0825
O 12.3111 2.60491 8.62678
O 0.540778 7.1051 7.93628
O 12.0757 0.878296 6.71602
O 14.4859 5.25677 6.41775
O 11.0664 3.28937 6.37061
O 13.6154 7.78798 6.20514
O 13.0553 6.56479 8.23478
O 0.00221818 2.09945 8.31075
O 12.0131 7.80257 9.98515
O 14.3206 3.51772 10.0998
Si 0.458981 13.0403 5.81754
Si 2.3492 8.48201 5.37315
Si 1.23981 15.1822 9.4782
Si 3.73448 10.9304 9.53584
Si 1.59298 10.7754 7.42692
Si 3.77775 15.2219 7.56945
O 1.04235 13.8785 10.4358
O 3.5539 9.62605 10.3501
O 2.48419 11.2298 8.72083
O 4.90956 15.0384 8.6365
O 2.24503 9.54814 6.60929
O 4.00203 13.9804 6.54618
O 1.25534 12.131 6.71776
O 3.81866 16.5025 6.3781
O 2.42817 15.0162 8.46939
O 5.02388 10.8336 8.58035
O 1.62718 16.4366 10.4638
O 3.72901 12.0958 10.7719
Si 4.56842 13.0368 5.43804
Si 7.63081 8.73036 5.4004
Si 6.2546 14.7567 9.50231
Si 8.70822 10.8174 9.19367
Si 6.09306 10.8015 7.39178
Si 8.81675 15.073 7.43368
O 5.92402 13.4765 10.1698
O 8.24741 9.5755 10.1542
O 7.44767 11.0663 8.13475
O 10.126 15.5956 8.16309
O 6.5804 9.52187 6.33862
O 9.47271 13.8795 6.55831
O 5.48585 12.0191 6.38887
O 8.40563 16.316 6.27867
O 7.5069 14.5139 8.41103
O 10.0719 10.6322 8.33137
O 6.5668 16.1101 10.3524
O 8.89004 11.9563 10.3074
Si 10.177 12.8387 5.42963
Si 12.4632 8.72383 5.539
Si 11.3083 15.0413 9.0903
Si 13.7977 10.7284 8.73297
Si 11.1665 10.5113 7.34393
Si 13.9215 15.1272 7.43798
O 10.6265 13.9682 9.9738
O 13.3996 9.82349 9.97262
O 12.4939 10.9645 7.97375
O 15.0525 15.3631 8.78588
O 11.5154 9.1615 6.67212
O 14.6431 13.9425 6.75256
O 10.7835 11.5656 6.14421
O 13.4961 16.3141 6.38884
O 12.6144 14.5954 8.32351
O 0.110613 10.2256 7.85803
O 12.1265 16.2917 9.97816
O 14.2422 12.2455 9.45071
Si 14.8592 4.67181 10.9696
Si 2.53005 0.074386 10.9608
Si 1.3558 6.42487 14.6135
Si 3.63452 2.44859 14.6959
Si 1.19365 2.44853 12.697
Si 3.97118 6.3476 12.9079
O 0.917329 5.06813 15.4641
O 3.23027 1.23323 15.6685
O 2.50119 2.84298 13.7478
O 5.44173 6.66648 13.7847
O 1.63791 1.11485 11.8817
O 4.3941 4.89572 12.2215
O 0.780992 3.89232 11.943
O 3.44304 7.56238 12.0972
O 2.97548 6.29092 14.1899
O 4.8849 2.12495 13.6698
O 1.50331 7.47848 15.6772
O 4.17611 3.63616 15.7464
Si 5.32297 4.30354 11.0245
Si 7.41585 -0.133715 10.9534
Si 6.58207 6.32495 14.7698
Si 8.72484 2.12268 14.873
Si 6.242 2.15464 12.9453
Si 8.91333 6.40316 12.795
O 6.12935 5.23216 15.8163
O 8.45587 1.3373 16.233
O 7.48375 2.46316 13.9402
O 10.1016 7.05529 13.6702
O 6.63588 0.739117 12.1011
O 9.44524 5.22465 11.8707
O 6.29945 3.39725 11.9307
O 8.49384 7.73532 11.9865
O 7.68102 5.79569 13.6633
O 9.99256 1.50546 13.7992
O 7.02338 7.6573 15.6714
O 9.3257 3.54978 15.5293
Si 10.4321 4.23485 10.9804
Si 12.7903 17.3482 11.1133
Si 11.28 6.77788 14.7111
Si 13.8667 2.33492 14.5588
Si 11.2889 1.92414 12.9142
Si 13.839 6.98118 12.7455
O 11.0002 5.3351 15.2495
O 13.2149 0.970775 15.5315
O 12.6379 2.44632 13.4833
O 0.350059 6.7266 13.2625
O 11.6624 0.845486 11.8779
O 13.9193 5.82991 11.5651
O 10.8239 3.20606 11.9803
O 13.5748 8.41317 12.0953
O 12.5892 6.75346 13.7406
O 0.115423 2.04475 13.8551
O 11.3339 7.94824 15.8154
O 14.0391 3.64354 15.424
Si 14.7291 12.9801 10.6891
Si 2.67554 8.4398 11.2072
Si 1.55807 15.048 14.5225
Si 3.39762 11.0999 14.8507
Si 1.0462 10.7258 12.8087
Si 4.27666 15.7025 12.8844
O 1.20288 13.7279 15.5187
O 2.71015 10.0416 15.8253
O 2.30087 11.186 13.697
O 5.16718 16.4958 13.9551
O 1.57187 9.35409 11.9678
O 5.01749 14.479 12.3345
O 0.322882 11.7243 11.6797
O 3.64879 16.632 11.6362
O 2.84727 15.248 13.4724
O 4.6415 10.4853 14.0024
O 1.62878 16.4908 15.439
O 4.08681 12.2588 15.6253
Si 4.91973 12.988 11.2649
Si 7.36418 8.50592 11.1345
Si 6.25854 15.7101 14.8359
Si 8.54746 10.8337 14.7516
Si 5.85019 10.5534 13.0964
Si 8.79488 15.6149 12.7382
O 5.56455 14.4114 15.4964
O 8.47947 9.57284 15.9651
O 7.21809 10.8892 13.9096
O 10.1443 15.7052 13.6563
O 6.31451 9.27932 12.0838
O 8.97753 14.1017 11.9207
O 5.67334 12.033 12.2934
O 8.86765 16.5994 11.4786
O 7.53401 15.612 13.7574
O 9.91571 10.6022 14.0905
O 6.95538 16.5683 15.9092
O 8.94736 12.1585 15.6917
Si 9.78787 13.1379 11.1099
Si 12.597 8.89021 10.9477
Si 11.2297 15.3638 14.6299
Si 13.5751 11.0468 14.5366
Si 11.0294 10.7292 12.8404
Si 13.8566 14.9992 12.9451
O 10.4629 14.2014 15.523
O 13.0019 10.1974 15.7223
O 12.5011 11.0865 13.3214
O 0.16531 15.3107 13.7958
O 11.2916 9.54385 11.6307
O 13.9522 13.7785 11.7456
O 10.6975 12.1036 12.0719
O 13.5788 16.2689 12.0325
O 12.4555 14.6782 13.741
O 14.9553 10.3034 13.9268
O 11.8308 16.3578 15.9554
O 14.055 12.5222 14.9855
324
 Atoms. Timestep: 2500
Si 0.272932 4.22987 16.4231
Si 2.2842 0.0769004 16.2834
Si 1.38924 6.359 3.57631
Si 3.70605 2.08416 3.7224
Si 1.13938 1.92923 1.8735
Si 4.02714 6.63139 1.92654
O 1.03697 5.13422 4.49071
O 3.48137 0.97035 4.88562
O 2.41212 2.171 2.82792
O 5.41095 7.12951 2.74237
O 1.41541 0.774546 0.758755
O 4.32729 5.48184 0.792001
O 0.808823 3.11641 0.889741
O 3.84438 8.01473 1.06297
O 2.61888 6.19254 2.49451
O 5.07701 1.85787 2.79572
O 1.8555 7.48163 4.72079
O 3.85543 3.64074 4.18068
Si 5.19167 4.50654 16.4656
Si 7.86081 17.295 0.155604
Si 6.61411 6.62419 4.00503
Si 8.65264 2.28462 3.75446
Si 6.14861 2.22147 1.80095
Si 8.9407 6.55715 1.97798
O 6.02595 5.30877 4.52509
O 8.13461 0.939397 4.67594
O 7.32785 2.74128 2.87099
O 10.5251 6.68336 2.39832
O 6.77404 0.961274 1.05407
O 9.0582 5.19762 1.10683
O 5.88211 3.40513 0.843665
O 8.64754 7.72056 0.897688
O 7.85847 6.44732 3.1619
O 9.74603 2.02307 2.55421
O 6.6977 7.77587 4.98203
O 9.31899 3.38501 4.65622
Si 9.71893 4.42251 16.3862
Si 12.7499 0.0194444 0.0489951
Si 11.6218 6.40262 3.5079
Si 13.6325 2.29678 3.50404
Si 10.9963 2.27358 1.58118
Si 14.0196 6.42305 1.75312
O 10.9544 5.37365 4.41841
O 13.2827 1.27038 4.98582
O 12.3707 2.32641 2.62472
O 0.293704 6.677 2.47799
O 11.5149 0.959886 0.766026
O 14.3129 5.18902 0.728327
O 10.9439 3.59415 0.840094
O 13.4714 7.66554 0.885229
O 13.1466 6.0159 2.88321
O 15.02 1.50168 2.7752
O 12.041 7.751 4.46483
O 14.0901 3.67625 3.94369
Si 15.0034 13.0298 0.205655
Si 2.86802 8.78746 0.113924
Si 1.25067 15.5362 3.73376
Si 3.5937 10.8635 3.56304
Si 0.900536 10.4661 1.6808
Si 3.55151 15.2247 1.58113
O 1.09822 13.9746 4.46619
O 3.29973 9.75512 4.75792
O 2.23683 10.807 2.56846
O 5.06661 15.5204 2.4459
O 1.45806 9.24047 0.797553
O 3.89437 13.6904 0.915312
O 0.68363 11.7383 0.633964
O 3.0976 16.3556 0.431494
O 2.4848 15.4449 2.64058
O 5.04924 10.5696 2.959
O 1.47094 16.627 4.81344
O 3.80086 12.2584 4.39933
Si 4.95041 13.0496 16.4709
Si 7.88973 8.85565 16.6012
Si 6.21956 15.2754 3.79231
Si 8.59364 11.0886 3.63794
Si 5.99727 10.7752 1.63417
Si 8.92266 15.0077 2.32221
O 5.46807 14.1469 4.50447
O 7.98548 10.2658 4.82188
O 7.37041 11.3657 2.48512
O 10.0082 15.391 3.29008
O 6.72342 9.59158 0.890629
O 9.50738 13.8896 1.236
O 5.40166 11.7276 0.578174
O 8.6933 16.2895 1.2236
O 7.65004 14.9185 3.14248
O 9.7361 10.4733 2.74161
O 6.64138 16.3472 4.87291
O 9.29653 12.5505 3.92445
Si 10.4641 13.2162 0.0721022
Si 12.5175 8.7467 16.5352
Si 11.4039 15.2232 4.00351
Si 13.6197 10.9362 3.72681
Si 11.1733 10.5591 1.99652
Si 13.8882 15.241 2.04624
O 11.2769 13.9261 4.9657
O 13.5209 9.6925 4.6188
O 12.2096 11.0655 2.98624
O 0.100757 15.6964 2.83771
O 11.7186 9.386 0.99278
O 14.4229 13.9158 1.34491
O 10.9789 11.9777 0.899426
O 13.4488 16.1929 0.801631
O 12.6996 15.0499 3.07217
O 14.7077 10.6202 2.58896
O 11.7944 16.686 4.38676
O 14.2657 12.1688 4.63863
Si 14.9536 4.38303 5.17804
Si 2.49448 0.18012 5.83564
Si 1.35757 6.91785 9.14822
Si 3.69603 2.23631 9.14526
Si 0.867995 2.39146 7.37252
Si 3.8599 6.37304 7.16307
O 0.866027 5.73198 10.265
O 3.47272 0.815701 9.95832
O 2.47521 2.69879 8.27276
O 5.24103 6.44279 8.02162
O 1.21964 1.1151 6.65176
O 4.0032 5.17782 6.15998
O 0.340628 3.50853 6.45883
O 3.57723 7.79623 6.35636
O 2.80184 6.25004 8.36893
O 4.67135 1.84519 7.98178
O 1.93589 7.8524 10.1949
O 4.59869 3.35443 9.96175
Si 4.88569 4.25764 5.25287
Si 7.54282 17.3095 5.7578
Si 6.482 6.45682 9.17884
Si 8.33124 2.42334 9.54069
Si 5.98243 2.09725 7.22894
Si 9.10673 6.78527 7.28445
O 6.20506 5.13317 10.0224
O 8.04788 0.951868 10.3884
O 6.92093 2.53836 8.66609
O 10.5583 6.9258 8.11289
O 6.60176 0.756886 6.79991
O 9.18551 5.60653 6.18023
O 5.65315 3.05915 5.89019
O 8.73302 8.10653 6.48844
O 7.77348 6.57437 8.24938
O 9.56995 2.06593 8.08676
O 6.2113 7.72816 10.251
O 9.18865 3.5186 10.0962
Si 10.1305 4.50253 5.47566
Si 12.5148 0.162083 5.63042
Si 11.4184 6.04875 9.10696
Si 13.4784 2.38877 9.62712
Si 11.1184 2.2984 7.6392
Si 13.9454 6.6235 7.49118
O 10.866 4.8805 9.86315
O 13.2246 1.14755 10.6299
O 12.1193 2.59132 8.81054
O -0.0292416 7.2482 8.41288
O 11.5919 1.06353 6.6707
O 14.3794 5.68712 6.12826
O 11.057 3.73716 6.59099
O 13.3457 7.82077 6.6887
O 12.8931 5.77759 8.43551
O 14.7756 2.1925 8.55754
O 11.8081 7.13298 10.38
O 14.0808 3.60315 10.4371
Si 0.167134 13.0701 5.36428
Si 2.48579 8.62514 5.50869
Si 1.06678 15.3056 9.39969
Si 3.60449 11.1463 9.20942
Si 1.03556 10.871 7.4377
Si 3.56402 15.0765 7.4173
O 0.872812 14.0507 10.348
O 3.58691 9.834 10.1027
O 2.22065 11.4913 8.49568
O 4.94559 14.9017 8.34504
O 1.62154 9.4868 6.49953
O 3.85491 13.8519 6.53871
O 0.902297 12.0607 6.48667
O 3.1934 16.5043 6.75811
O 2.4289 15.0299 8.57122
O 4.66528 10.8032 7.92761
O 1.3271 16.5631 10.1833
O 4.45022 12.4197 10.0177
Si 4.68495 13.0489 5.44276
Si 7.50125 8.89725 5.77298
Si 6.3762 14.8027 9.12131
Si 8.46652 11.1703 9.14303
Si 6.02857 11.1784 7.20484
Si 8.83732 15.1419 7.30039
O 6.42144 14.0737 10.4952
O 7.88575 9.92217 9.84882
O 7.1945 11.8883 8.26557
O 10.2476 15.1309 8.1451
O 6.72476 9.79166 6.87446
O 9.27474 13.9807 6.16698
O 5.60425 11.9558 5.97907
O 8.45649 16.5979 6.83239
O 7.62987 14.6664 8.11395
O 9.56891 10.5288 8.0387
O 6.92108 16.202 9.74331
O 9.13465 12.2852 10.0501
Si 9.98598 12.9011 5.14039
Si 12.6823 8.66755 5.6124
Si 11.5365 15.0974 9.11379
Si 13.4388 10.9729 9.05113
Si 10.8114 10.654 7.20814
Si 13.9614 15.1566 7.32741
O 11.0474 14.1418 10.3623
O 13.058 9.65237 10.0789
O 12.0505 11.2223 8.24787
O 15.0571 15.6366 8.35099
O 11.3829 9.65275 6.18928
O 14.327 14.0513 6.40968
O 10.4285 11.8314 6.18949
O 13.3934 16.4903 6.5721
O 12.6973 14.5895 8.22965
O 14.4869 10.4384 7.89044
O 11.6721 16.5868 10.0109
O 14.1081 11.9834 9.94441
Si 15.1151 4.59338 11.2127
Si 2.53701 -0.203127 10.9184
Si 1.5629 6.56947 14.6713
Si 3.70357 2.37014 14.6579
Si 1.30096 2.36761 12.7235
Si 3.96824 6.36268 12.8855
O 1.22204 5.36919 15.6798
O 3.23241 1.29218 15.7437
O 2.25915 2.70009 13.8621
O 5.139 6.62231 13.907
O 1.9196 1.26746 11.7216
O 4.41806 5.08842 11.9311
O 1.13166 3.64062 11.951
O 3.77564 7.69964 11.9618
O 2.63447 6.10078 13.5247
O 4.6098 1.79782 13.5248
O 2.33086 7.65958 15.5177
O 4.40912 3.58613 15.388
Si 5.44503 4.14706 11.0392
Si 7.30976 17.0195 10.9448
Si 6.47341 6.68596 14.6227
Si 8.82462 2.02299 14.5661
Si 6.08841 1.79479 12.9035
Si 8.84928 6.68273 12.596
O 6.33329 5.48971 15.9358
O 8.51902 0.913443 15.772
O 7.24134 1.95241 14.1446
O 10.0589 7.0596 13.5257
O 6.30636 0.234625 12.1042
O 9.45442 5.23799 12.1601
O 6.17495 2.96361 11.7696
O 8.55091 7.74234 11.253
O 7.48783 6.62739 13.3605
O 10.0764 1.54764 13.7764
O 7.07174 8.14891 15.2971
O 9.0144 3.38642 15.32
Si 10.2362 4.17064 11.1785
Si 12.525 17.2341 11.2105
Si 11.2475 6.81024 14.4943
Si 14.072 1.99863 14.5718
Si 11.3551 1.73085 12.8888
Si 14.0248 6.86672 13.0551
O 10.3476 5.56448 15.3452
O 13.7505 1.0826 15.8805
O 12.7007 2.31847 13.7313
O 0.238068 7.05222 13.983
O 11.5934 0.264919 12.3789
O 14.3081 5.51647 12.2804
O 10.9497 2.96076 11.9013
O 13.4861 7.77857 11.9856
O 12.7504 6.49149 14.0295
O 14.9462 1.51414 13.3689
O 11.6019 8.03151 15.5545
O 14.589 3.30797 15.0233
Si 15.0371 12.8698 11.1259
Si 2.95818 8.61435 11.0824
Si 1.355 15.1423 14.8764
Si 3.89023 10.9551 14.4117
Si 1.30391 10.8644 12.6434
Si 3.7345 15.3671 12.9845
O 1.011 13.9936 16.0916
O 3.48656 10.0126 15.7519
O 2.43117 11.1746 13.7711
O 5.16927 15.5996 14.1685
O 1.83014 9.46017 12.0036
O 4.29639 14.1841 11.9524
O 1.12906 11.8899 11.6291
O 3.37015 16.342 11.917
O 2.53037 14.6956 14.0521
O 5.05689 10.3 13.5395
O 1.539 16.6974 15.205
O 4.5033 12.4283 15.0209
Si 5.24486 13.2257 11.0826
Si 7.24031 8.81272 10.8375
Si 6.48513 15.1926 14.9508
Si 8.87888 11.0725 14.8519
Si 6.32688 10.8839 12.9653
Si 8.95193 15.2924 12.969
O 6.22704 13.983 16.0481
O 8.82972 9.96506 15.9181
O 7.44084 11.2479 14.0796
O 10.1793 15.5774 13.9007
O 6.79947 9.72177 12.069
O 9.2177 14.1463 12.006
O 5.89961 12.1822 12.1515
O 8.43117 16.5216 12.154
O 7.75777 14.8448 13.8474
O 9.70619 10.3738 13.7563
O 6.91152 16.3182 16.0043
O 9.55301 12.4468 15.396
Si 10.0245 13.125 11.2123
Si 12.6155 8.55949 11.2382
Si 11.5857 15.4916 14.7962
Si 13.7403 11.0829 14.6754
Si 11.1132 10.7771 13.0909
Si 13.8821 14.9096 12.928
O 11.3985 14.3947 15.933
O 13.4434 9.74588 15.6291
O 12.2921 11.1362 13.9585
O 0.142469 15.2017 13.7351
O 11.6222 9.50198 12.078
O 14.1401 13.5701 12.2242
O 10.9006 12.1136 12.146
O 13.5974 16.078 11.709
O 12.6309 14.8714 13.9082
O 14.9954 10.8081 13.3976
O 11.9899 16.8292 15.3045
O 14.0322 12.3703 15.5127
324
 Atoms. Timestep: 3000
Si 0.321416 4.30935 0.0815723
Si 2.20053 0.061229 -0.029778
Si 1.97936 6.60479 3.65351
Si 3.79791 2.17123 3.91738
Si 1.45953 2.3647 2.11423
Si 4.22355 6.50503 1.70907
O 1.32382 5.52527 4.62468
O 3.26077 0.800377 4.59633
O 2.49182 2.53796 3.17115
O 5.33651 7.20275 2.76232
O 1.49157 0.965557 0.998119
O 4.98403 5.31984 1.00543
O 1.21867 3.45972 0.947844
O 3.63854 7.61868 0.6293
O 3.1478 5.97049 2.755
O 5.01073 2.0015 2.91243
O 2.37877 7.71765 4.57989
O 4.08318 3.16624 5.2637
Si 5.64568 4.47389 16.3998
Si 7.40838 17.3702 16.1308
Si 6.53683 6.46064 3.72392
Si 8.84379 2.52501 3.59269
Si 6.28142 2.08103 1.59735
Si 9.09033 6.55145 1.88294
O 6.01176 4.86408 4.18753
O 8.23898 1.66337 4.76493
O 7.88556 2.58316 2.40187
O 10.7598 6.53237 2.44739
O 6.64789 0.745207 0.866277
O 9.1537 5.30157 0.933053
O 6.15671 3.15859 0.450798
O 8.65222 7.77428 1.02963
O 8.17309 6.28423 3.11963
O 10.2101 1.98645 3.0086
O 6.80543 7.6646 4.83614
O 9.11251 3.85975 4.54971
Si 9.82895 4.21315 0.14247
Si 12.5921 17.4545 16.3408
Si 11.6874 6.4412 3.76487
Si 13.932 2.44988 3.51464
Si 11.5753 2.02632 1.89402
Si 14.3255 6.59922 2.20284
O 11.2846 5.33711 4.76494
O 13.0526 1.20395 4.67021
O 12.7713 2.76417 2.69665
O 0.789015 7.29514 2.76338
O 11.8904 0.721652 1.10523
O 14.8014 5.22841 1.33993
O 10.7312 2.98943 0.927706
O 13.6987 7.65744 1.172
O 13.2827 6.30296 3.38288
O 15.1155 1.96351 2.65854
O 11.4835 8.02555 4.53254
O 14.576 3.62014 4.45158
Si 15.0059 13.0982 16.5551
Si 2.80717 8.92772 16.4206
Si 1.06839 15.2393 3.50638
Si 3.74738 10.9709 4.09475
Si 1.51788 10.753 1.97363
Si 3.66184 15.4428 1.87093
O 0.843431 13.7514 4.29265
O 3.45803 9.97006 5.27764
O 2.57373 11.0563 3.03105
O 4.65736 15.7505 3.14477
O 2.11936 9.9224 0.734413
O 4.34864 14.2725 1.09914
O 0.9266 12.2269 1.02977
O 3.35465 16.6228 0.860122
O 2.27709 14.9311 2.39679
O 5.03214 10.3149 3.23082
O 1.35975 16.4641 4.46644
O 4.21622 12.3545 4.43876
Si 4.95703 13.1402 0.198074
Si 7.47935 8.6489 0.0452289
Si 6.23557 15.5285 3.41753
Si 8.75167 10.821 3.81631
Si 6.25716 10.7317 2.12353
Si 8.69796 15.5554 1.64821
O 6.31376 14.178 4.54816
O 8.32886 9.49735 4.54642
O 7.37805 11.4219 3.0152
O 9.74769 16.0022 2.75681
O 6.92936 9.69974 1.02111
O 9.35127 14.1841 0.949677
O 5.43932 11.7252 1.05971
O 8.48936 16.6281 0.574912
O 7.05976 15.2219 2.08792
O 9.75407 10.6232 2.66383
O 6.88378 16.9285 4.18305
O 9.24692 11.914 4.82187
Si 10.0113 12.995 0.05091
Si 12.7488 8.33109 0.200591
Si 11.1647 15.695 3.52559
Si 13.8294 10.5674 3.58248
Si 11.1418 10.5586 1.69921
Si 13.7116 15.345 1.76628
O 10.4523 14.3312 4.36364
O 13.6638 9.25184 4.58444
O 12.3942 10.8141 2.76666
O 14.9839 15.6267 2.70055
O 11.643 9.35725 0.78133
O 13.9024 13.705 1.31893
O 10.9785 11.8754 0.970398
O 13.6562 16.3164 0.491825
O 12.3823 15.5368 2.59837
O 15.0927 10.3044 2.60778
O 11.4063 16.4936 4.87611
O 14.2282 11.8253 4.62409
Si 0.421117 4.52373 5.55239
Si 2.2821 17.4251 5.39993
Si 1.1223 6.17056 9.09716
Si 3.61015 2.08416 9.3154
Si 1.17141 2.2648 7.32634
Si 3.58337 6.51814 7.42534
O 0.725945 5.0519 10.083
O 3.3422 0.898591 10.6615
O 2.35659 2.22316 8.51607
O 4.8301 6.93372 8.37192
O 1.30097 1.21114 6.05645
O 4.49608 5.52573 6.44139
O 1.40448 3.63573 6.48263
O 2.65096 7.75827 6.88507
O 2.38299 5.71858 8.25188
O 4.9702 1.67378 8.44915
O 1.60013 7.35376 10.1334
O 3.85943 3.50922 10.2178
Si 5.24424 4.36019 5.6197
Si 7.48157 0.398193 5.34669
Si 6.12283 6.63711 9.34434
Si 8.57713 1.58498 9.39326
Si 6.28597 2.00887 7.36003
Si 8.77003 6.91238 7.58332
O 5.95384 5.09593 10.1626
O 8.44967 0.727154 10.6421
O 7.48614 1.46044 8.38721
O 10.1263 7.25136 8.48732
O 6.30915 1.05864 6.0509
O 9.20416 5.82157 6.48142
O 6.10923 3.44766 6.75129
O 8.31417 8.30355 6.9415
O 7.41433 6.50609 8.39748
O 9.86986 1.50972 8.45028
O 6.67248 7.48327 10.4994
O 8.7211 3.16325 10.1471
Si 10.0238 4.61946 5.6401
Si 12.265 0.232579 5.55401
Si 11.2373 6.35381 9.23686
Si 13.7286 2.13538 9.07769
Si 11.0109 2.20908 7.54059
Si 13.6823 6.40891 7.50621
O 10.2772 5.25901 9.83682
O 13.2498 0.84665 9.83573
O 12.2973 2.2998 8.49356
O 0.00171836 6.82988 8.16033
O 11.4959 1.3523 6.40225
O 14.3485 5.27042 6.45649
O 10.5264 3.6967 6.88905
O 12.7833 7.78251 6.81647
O 12.5424 5.8601 8.39844
O 14.8929 2.1521 7.9396
O 11.9446 7.09083 10.5952
O 14.1517 3.23512 10.2031
Si 14.9603 13.1584 5.26794
Si 2.30365 8.93777 5.82156
Si 1.36042 15.0375 9.23575
Si 3.55807 10.832 8.98109
Si 0.913474 10.9915 7.37989
Si 3.73949 15.4141 7.10316
O 1.02315 13.5467 9.96958
O 2.76144 9.75291 9.90056
O 2.43016 11.1543 7.97879
O 5.0014 16.0438 7.91804
O 1.07994 9.79468 6.36339
O 4.14219 14.42 5.99364
O 0.597998 12.3735 6.50014
O 2.95521 16.5826 6.42742
O 2.67409 14.7577 8.26621
O 4.78632 10.353 8.27242
O 1.60328 16.1275 10.3972
O 3.87682 12.1644 9.96458
Si 5.29806 13.2132 5.32465
Si 7.46413 8.8745 5.59353
Si 6.05377 15.5614 9.07924
Si 8.70453 10.9409 9.11869
Si 6.10804 10.8422 7.40064
Si 8.6637 15.5361 7.31687
O 5.66904 14.2409 9.95627
O 8.2447 9.52633 9.90601
O 7.33216 10.9801 8.28257
O 10.0691 15.9474 8.01782
O 6.22482 9.70434 6.23203
O 8.97095 14.0534 6.50619
O 5.76677 12.2209 6.48518
O 8.28181 16.7452 6.34052
O 7.3509 15.3501 8.17908
O 9.75992 10.9961 7.83186
O 6.42674 16.639 10.1696
O 9.00987 12.2488 9.91855
Si 9.99077 13.1845 5.56397
Si 12.4599 8.86104 5.69642
Si 11.2394 15.3118 8.9963
Si 13.5229 10.6045 9.35124
Si 11.2988 11.3634 7.303
Si 13.9193 15.4677 7.16497
O 10.9092 13.8379 9.59737
O 13.0821 9.25569 10.2045
O 12.2489 10.7589 8.55876
O 0.109805 15.5259 8.25494
O 11.7355 10.1713 6.14224
O 14.073 14.3036 5.89041
O 11.276 12.6428 6.40701
O 13.6883 16.7944 6.06773
O 12.7345 15.1798 8.19442
O 14.675 10.611 8.19413
O 11.3756 16.4078 10.1266
O 14.2294 11.8626 10.3609
Si 15.0376 4.14658 11.1233
Si 2.6668 17.0338 11.3074
Si 1.45105 6.6582 14.6936
Si 3.84266 2.3892 14.8624
Si 1.22077 1.90604 12.9965
Si 3.66542 6.73824 12.5848
O 1.18355 5.42442 15.6717
O 3.30682 1.17098 15.8141
O 2.49021 2.32897 13.8453
O 4.85753 6.98793 13.859
O 1.70715 0.284319 12.3112
O 4.29134 5.31704 12.04
O 0.827886 3.30766 12.04
O 3.45188 8.04464 11.7648
O 2.43209 6.59105 13.5009
O 5.14607 1.83728 13.894
O 1.64185 8.05483 15.6194
O 4.34496 3.68547 15.5446
Si 4.91375 4.25694 11.1852
Si 7.4285 17.2437 11.3427
Si 6.18972 6.77918 14.6356
Si 8.87782 2.33427 14.3217
Si 6.37933 2.05244 12.9193
Si 9.11778 6.73217 12.9347
O 6.23757 5.23646 15.3002
O 8.06919 0.975021 15.0925
O 7.64035 2.92559 13.3948
O 10.1256 6.74605 14.1569
O 6.87309 0.625083 12.6295
O 9.07211 5.39398 11.9885
O 5.61469 2.89152 11.852
O 8.98691 7.93813 11.9457
O 7.55471 6.91536 13.7531
O 10.0451 1.85885 13.5696
O 6.57891 7.67241 16.0162
O 9.09181 3.43226 15.5187
Si 9.50727 4.31232 10.9543
Si 12.3733 17.3318 10.9385
Si 11.4526 6.15694 15.0268
Si 13.5929 2.45947 14.7757
Si 11.2406 2.2613 12.6178
Si 13.9669 6.36774 13.0684
O 11.0443 5.02712 16.1347
O 13.0261 1.42816 15.9217
O 12.3907 2.68698 13.7142
O 0.00574566 6.62494 14.0276
O 11.7347 0.845108 12.1373
O 14.1089 5.01346 12.0607
O 10.6164 3.30059 11.5606
O 13.8573 7.5949 12.1635
O 12.5235 6.04817 13.8247
O 15.0409 1.70647 13.8566
O 12.1171 7.16671 15.8919
O 14.2645 3.56416 15.6056
Si 0.0993065 12.9794 11.1227
Si 2.26971 8.64503 10.8741
Si 1.31658 15.3546 14.478
Si 4.03598 11.131 14.4763
Si 1.38824 10.7272 12.8391
Si 3.81588 14.8326 12.9342
O 0.915616 14.2376 15.673
O 3.86633 9.82779 15.4433
O 2.70763 10.8398 13.6661
O 4.67265 14.9976 14.2888
O 1.25696 9.46357 11.7813
O 4.35141 13.5304 12.3472
O 0.944297 12.1016 12.1061
O 3.84313 15.9472 11.9616
O 2.24336 14.9243 13.3281
O 5.19224 10.8155 13.4401
O 1.7135 16.6192 15.2969
O 4.02431 12.4497 15.4535
Si 4.95769 13.0746 10.866
Si 7.90288 8.60575 11.1103
Si 6.13749 14.8568 14.8806
Si 8.79863 10.9753 14.5615
Si 6.38034 11.0109 12.5629
Si 8.67592 14.8303 12.8359
O 6.12342 13.6516 15.9534
O 8.19971 9.64917 15.3948
O 7.64616 11.4001 13.5421
O 9.77007 15.2285 13.986
O 7.05374 9.54104 11.9957
O 9.34563 13.6525 11.931
O 6.0823 11.9689 11.1659
O 8.2644 15.9231 11.7628
O 7.24641 14.5971 13.7529
O 10.2448 10.453 13.8173
O 6.78608 16.2745 15.2558
O 9.06392 11.9189 15.8156
Si 10.07 12.9575 10.8034
Si 12.6622 8.28852 11.2957
Si 11.2841 15.1347 14.6826
Si 14.0634 10.7979 14.733
Si 11.5481 10.7968 13.025
Si 13.7743 15.2131 12.8946
O 11.0205 13.6833 15.4588
O 13.6151 9.42615 15.4949
O 12.7709 11.3229 13.8782
O 14.8139 15.7112 14.0309
O 11.9826 9.26335 12.3954
O 14.5939 14.3026 11.7363
O 11.0768 11.8207 11.8501
O 13.4088 16.4858 11.9374
O 12.5316 14.7603 13.7027
O 0.0436772 10.7088 13.6859
O 11.689 16.5584 15.4678
O 14.369 12.0216 15.5127
324
 Atoms. Timestep: 3500
Si 14.7447 4.51119 0.139413
Si 2.76524 17.3207 -0.0076938
Si 1.26584 6.88044 3.96513
Si 4.01021 2.44522 3.51208
Si 1.59807 2.52368 1.67057
Si 3.85188 6.45485 2.07584
O 1.15944 5.54616 4.95946
O 3.39608 1.05288 3.91957
O 2.94136 2.98969 2.41838
O 5.22039 6.52048 2.96944
O 2.19307 1.1957 0.811006
O 4.14115 5.1813 1.2126
O 0.74552 3.60127 0.944669
O 3.37364 7.79043 1.10773
O 2.53854 6.52037 3.01654
O 5.50684 2.34617 2.99495
O 1.96197 7.93514 4.84406
O 4.13331 3.48747 4.88858
Si 4.78103 4.07765 0.123889
Si 7.39189 17.4337 16.0463
Si 6.54762 6.28137 3.73644
Si 8.85922 2.11952 3.73932
Si 6.64402 2.01106 1.65822
Si 9.06498 6.53978 2.02209
O 6.17434 5.36514 5.03709
O 8.2792 1.24929 4.85526
O 8.17656 2.21618 2.34811
O 10.0343 7.35896 3.11903
O 6.68909 0.742196 0.825507
O 9.29233 5.50328 0.667152
O 5.98263 3.33105 0.827292
O 8.67105 7.89571 1.19109
O 7.74676 5.77548 2.62673
O 10.5001 1.99117 3.57934
O 6.99624 7.90668 4.20687
O 8.79919 3.7048 4.71728
Si 10.1677 4.41955 16.5489
Si 12.222 0.23368 0.164241
Si 11.2251 6.73255 3.9301
Si 14.4515 2.02422 3.62197
Si 11.3435 2.38232 2.13183
Si 13.7221 6.77145 2.03897
O 10.8324 5.29679 4.38194
O 13.7937 0.986816 4.7985
O 13.0667 2.44534 2.81178
O -0.235064 6.98412 3.19541
O 11.3197 1.00056 1.25527
O 13.9401 5.42736 1.12738
O 10.7841 3.72304 1.37278
O 13.5026 8.06386 1.03565
O 12.4452 6.45292 2.72354
O 0.64008 1.91529 2.55519
O 11.8324 7.77494 5.02516
O 14.7967 3.42281 4.3692
Si 15.1073 12.9775 0.119491
Si 2.57414 8.78176 0.118251
Si 0.89317 15.0941 3.7424
Si 4.18118 11.179 3.88861
Si 1.72893 11.1078 2.14522
Si 3.46941 14.8823 1.9708
O 0.521757 14.1343 4.97991
O 3.56071 10.0417 4.81113
O 3.0175 11.5196 2.95263
O 4.81359 15.1996 3.04755
O 2.04676 10.0319 0.974042
O 3.8191 13.5783 0.998092
O 0.951596 12.2141 1.10632
O 3.54959 16.338 1.1249
O 2.08393 14.8625 2.69358
O 5.43003 10.5455 3.06162
O 1.67853 16.3936 4.55044
O 4.86427 12.5818 4.5192
Si 5.09811 12.8006 0.164792
Si 7.62512 8.50021 -0.0292543
Si 6.35505 15.3508 3.52304
Si 9.12496 10.8276 4.06631
Si 6.71027 10.6683 2.01583
Si 8.77696 15.2832 1.44087
O 6.8411 14.2695 4.67508
O 8.99245 9.49018 5.1453
O 8.11475 10.8647 2.61634
O 9.8246 15.6754 2.49729
O 6.53007 9.34314 1.05687
O 9.09618 13.8134 0.720355
O 6.27001 12.2326 1.15166
O 8.36064 16.1886 0.235497
O 7.43406 15.3444 2.38179
O 10.4434 10.6562 3.33566
O 6.73071 16.6828 4.38917
O 8.9709 12.1397 4.96187
Si 10.2866 13.0099 16.388
Si 12.3909 8.72894 0.00375148
Si 11.1246 15.1666 3.27635
Si 13.9224 11.1963 3.53022
Si 11.2874 10.8296 1.90531
Si 13.6175 15.1272 1.73238
O 10.5886 14.05 4.26366
O 13.5984 9.90241 4.56674
O 12.9864 10.9342 2.21024
O 14.8045 15.5366 2.85848
O 11.4879 9.54606 0.923711
O 13.8094 13.6877 0.863555
O 10.9452 12.0391 0.86201
O 13.2581 16.3365 0.836397
O 12.2484 14.6535 2.40496
O 0.611473 11.1154 3.27674
O 11.9158 16.6413 3.91245
O 13.6902 12.4192 4.42896
Si -0.0024296 4.58854 5.64084
Si 2.59244 0.159849 5.03085
Si 1.41361 6.28072 9.34394
Si 3.52872 1.99959 9.28675
Si 1.15956 1.97526 7.11659
Si 4.09459 6.78411 7.46987
O 1.00965 4.91937 10.0203
O 2.85242 1.1273 10.2777
O 2.3993 2.3322 8.13487
O 5.32722 7.30562 8.27105
O 1.84382 1.08151 5.96922
O 4.09703 5.57971 6.45362
O 0.504365 3.55992 6.74525
O 4.02021 8.00525 6.41963
O 2.84094 6.60408 8.53677
O 5.03967 1.62764 8.57123
O 1.39872 7.31743 10.5695
O 4.0102 3.40041 9.81254
Si 5.07401 4.46709 5.84242
Si 7.27835 0.323835 5.54344
Si 6.24832 6.47122 9.37157
Si 8.8983 2.15837 9.29372
Si 6.20448 2.1855 7.649
Si 8.2692 6.65463 7.41494
O 5.26162 5.37479 9.86872
O 8.49884 0.70478 10.1737
O 7.71366 2.4538 8.27624
O 9.62577 6.63251 8.20062
O 6.19661 0.943943 6.53734
O 8.90333 5.70666 6.12651
O 5.82709 3.45123 6.65692
O 7.70747 7.84989 6.54988
O 7.39859 5.93671 8.38705
O 10.4882 1.91241 8.58811
O 6.82154 7.32156 10.5554
O 9.06168 3.40228 10.4288
Si 9.88648 4.68042 5.444
Si 12.3649 0.20157 5.21058
Si 11.0677 6.53162 8.85203
Si 13.6833 2.01496 8.71713
Si 11.198 2.15471 7.08157
Si 13.8977 6.62284 7.32374
O 10.7336 5.52028 10.057
O 13.0679 0.828241 9.54379
O 12.6824 2.49287 7.57778
O 15.1553 6.66384 8.35869
O 11.2743 0.999945 6.09003
O 13.8734 5.46515 6.23878
O 10.737 3.42318 6.26316
O 14.1681 8.07899 6.50401
O 12.2669 6.35609 7.86745
O 15.0803 1.34401 7.80386
O 11.4959 7.74867 9.76923
O 14.3776 2.98294 9.7157
Si 14.7096 13.0389 5.67041
Si 2.98793 8.78877 5.70025
Si 1.02506 15.3142 9.02458
Si 3.53329 10.7115 9.10454
Si 1.14048 10.7386 7.38358
Si 3.61964 15.589 7.15363
O 0.753029 14.0668 9.98141
O 2.90575 9.5202 9.89979
O 2.25653 11.2946 8.42009
O 4.71275 15.5206 8.23966
O 1.96233 9.59596 6.62558
O 4.49403 14.4777 6.10774
O 0.455677 11.9277 6.4076
O 3.47729 16.7517 6.15761
O 2.12888 15.2593 7.7028
O 4.8749 10.847 7.96247
O 1.4201 16.6172 10.0988
O 4.00076 11.8521 10.1104
Si 5.61966 13.5352 5.53032
Si 7.4913 8.88745 5.45346
Si 5.98184 15.0961 9.05981
Si 8.86442 10.4874 9.15637
Si 6.35838 11.2526 7.27311
Si 8.60414 15.451 7.42352
O 5.2974 13.9819 10.0852
O 8.55334 9.06101 9.87003
O 7.55781 10.9965 8.24607
O 9.91463 15.474 8.4669
O 6.70819 10.2672 5.915
O 9.28252 14.3187 6.41971
O 6.46184 12.7799 6.7112
O 8.37025 16.6735 6.48057
O 7.32097 14.9402 8.28723
O 10.2005 10.5905 8.2052
O 6.52975 16.5544 10.1463
O 9.15399 11.588 10.1715
Si 10.0133 13.2527 5.51427
Si 12.9599 8.83288 5.6674
Si 11.0956 15.1122 9.45355
Si 13.7932 10.7946 9.21287
Si 11.4833 11.2311 7.33935
Si 13.415 15.1782 7.34335
O 10.9771 13.7537 10.1722
O 13.4188 9.4407 10.0781
O 12.5502 11.559 8.55698
O 14.7445 15.2668 8.14493
O 12.178 10.0698 6.48063
O 13.5847 13.6352 6.75555
O 10.8461 12.3265 6.54485
O 12.8143 16.3063 6.32933
O 12.4599 15.065 8.55385
O 14.8502 10.3503 8.16683
O 11.2738 16.3169 10.7148
O 14.0563 11.832 10.568
Si 0.0773147 3.86875 10.8455
Si 2.39766 17.3164 11.1605
Si 1.23689 6.35113 14.8901
Si 3.82973 2.0643 14.7334
Si 1.05776 1.68465 12.8284
Si 3.7259 6.47593 12.9887
O 0.596756 5.13445 15.6511
O 3.8538 0.497719 15.4438
O 2.51111 2.0325 13.6707
O 5.17323 6.74519 13.5435
O 1.34454 0.295179 12.2636
O 3.62319 5.21878 12.0131
O 0.972573 2.89261 11.865
O 3.24913 7.45193 11.9433
O 2.70358 6.3271 14.2337
O 5.16665 2.20236 13.8966
O 1.59506 7.64082 15.9187
O 3.65245 3.08385 15.9664
Si 4.47854 4.35822 10.8671
Si 7.44385 17.4522 11.1944
Si 6.08288 6.2758 14.6631
Si 8.78615 2.20579 14.6676
Si 6.36367 2.33999 12.7253
Si 8.72484 6.70304 13.0394
O 5.37586 4.99067 15.3456
O 8.3853 0.883595 15.2806
O 7.65635 2.77603 13.6348
O 10.2089 6.54834 13.8426
O 6.70051 0.996336 11.9935
O 9.22208 5.59439 11.9552
O 5.63798 3.47872 11.7019
O 8.20181 8.01423 12.4114
O 7.4846 6.04769 13.9397
O 10.1804 1.96715 13.9214
O 6.7597 7.90967 15.4865
O 9.31659 3.12027 15.7513
Si 9.92925 4.50976 11.0794
Si 12.3265 17.4139 10.8369
Si 11.6444 6.20668 14.6285
Si 13.7129 2.44112 14.7343
Si 11.5095 2.38896 12.8972
Si 14.1851 6.38768 12.6771
O 11.1804 4.82667 15.3191
O 13.1378 1.2319 15.984
O 12.7267 2.73842 13.7191
O 0.208778 6.58827 13.7426
O 11.7086 1.19709 11.7746
O 14.4081 4.90936 11.8778
O 10.8699 3.56155 12.0458
O 13.7121 7.57329 11.859
O 12.8761 6.06199 13.671
O 14.9589 1.62955 13.9265
O 11.8379 7.33695 15.7112
O 13.9422 3.53768 15.7694
Si 14.9488 13.0555 10.9503
Si 2.26454 8.63739 11.0889
Si 1.19503 15.4789 14.7184
Si 3.91351 10.573 14.7041
Si 1.40985 11.0503 13.0198
Si 3.5953 14.9654 12.6021
O 0.741181 14.3981 16.0735
O 3.60574 9.16654 15.4664
O 2.76997 11.3944 13.8586
O 5.09423 14.9631 13.5387
O 1.78065 9.868 12.031
O 3.48502 13.7575 11.6824
O 0.87715 12.2383 12.0746
O 3.4846 16.1554 11.6832
O 2.25955 14.813 13.7167
O 5.17376 10.1238 13.5735
O 1.99415 16.4771 15.5812
O 4.7041 11.6388 15.68
Si 4.6865 12.9275 11.001
Si 7.67189 8.64167 11.1191
Si 6.17099 15.0438 14.7097
Si 8.96077 10.8118 14.6621
Si 6.392 10.8498 12.893
Si 8.63264 14.8728 12.8323
O 5.53515 14.0466 15.9165
O 8.38999 9.67235 15.7058
O 7.68449 11.1804 13.6419
O 10.0248 15.5292 13.6289
O 6.822 9.91936 11.597
O 8.96937 13.7059 11.8504
O 5.71858 12.2085 12.0973
O 8.09201 16.1658 12.0417
O 7.5144 14.5955 14.0297
O 10.1706 10.2016 13.9883
O 6.48079 16.5968 15.0918
O 9.71271 12.2239 15.1064
Si 9.97926 12.7661 10.9865
Si 12.557 8.33393 10.9919
Si 11.2346 15.5693 14.7285
Si 13.9778 10.7749 14.6712
Si 11.3907 10.7338 12.9326
Si 13.9028 15.5955 12.9632
O 11.1569 14.2365 15.6231
O 13.1876 9.59653 15.6419
O 12.8854 11.23 13.4691
O 15.0319 16.0496 13.9954
O 11.7762 9.27658 12.2846
O 14.3236 14.1494 11.9994
O 10.7922 11.8049 11.9571
O 13.4707 16.7016 11.7538
O 12.5672 15.4749 13.8812
O 0.345372 10.1751 13.9841
O 11.3876 16.6718 15.8734
O 14.5948 12.2819 15.3609
324
 Atoms. Timestep: 4000
Si 0.372691 4.3136 0.105164
Si 2.23916 17.2071 0.112545
Si 0.836129 6.46101 3.9302
Si 4.00231 2.09792 3.73747
Si 1.41967 2.03722 1.99498
Si 3.24394 6.17678 1.81466
O 0.36497 5.27526 4.6763
O 3.63126 1.03054 4.92681
O 2.75141 2.19786 2.84311
O 4.58155 6.71654 2.75806
O 1.57038 0.616979 1.19418
O 3.91724 5.26591 0.585119
O 1.16677 3.35703 0.997874
O 2.85138 7.46589 0.811365
O 2.11678 5.95882 2.95236
O 5.2758 1.5285 2.90354
O 1.25051 7.79255 4.82736
O 4.49502 3.49156 4.36358
Si 5.16391 4.48172 16.5213
Si 7.51389 0.0588976 16.3971
Si 6.05582 6.70669 3.67056
Si 8.94491 2.22358 3.6106
Si 6.27977 2.12768 1.86653
Si 8.5823 6.49227 1.80649
O 5.92202 5.46652 4.73794
O 8.44125 0.992347 4.59402
O 7.67957 2.36848 2.64253
O 9.63363 7.16725 2.82289
O 6.54847 1.30913 0.568185
O 9.29363 5.36645 1.14037
O 6.0279 3.64645 1.12911
O 8.17911 7.33893 0.483324
O 7.40869 6.74575 2.74959
O 10.274 2.10498 2.72592
O 6.34874 7.73 4.86201
O 9.04537 3.53121 4.47318
Si 10.1819 4.4474 0.220871
Si 12.4746 17.1568 0.0172649
Si 10.717 6.50536 3.68987
Si 14.0436 1.91042 3.81918
Si 11.6407 2.19531 1.73055
Si 13.6502 6.4619 1.92581
O 10.5874 5.41567 4.68723
O 13.6473 0.478136 4.51145
O 12.996 2.19525 2.73601
O 14.9813 6.82204 2.75309
O 11.4857 0.873095 0.727639
O 14.2701 5.126 1.02082
O 11.5116 3.6465 0.989655
O 13.1718 7.65815 0.843662
O 12.3732 6.20069 2.81305
O 0.405945 1.81641 2.99875
O 11.4005 7.90409 4.40923
O 14.1951 3.0543 4.90038
Si 0.149485 13.0692 16.4427
Si 2.27633 8.72376 16.4391
Si 1.34435 15.1953 3.48609
Si 3.95949 10.9508 3.43737
Si 1.51454 11.062 1.73602
Si 3.81776 15.0426 1.892
O 0.611305 14.3384 4.7223
O 3.1945 9.54356 4.09907
O 3.13036 11.3839 2.19543
O 4.9237 15.1962 3.04315
O 1.60767 9.66146 1.03371
O 4.53314 14.0297 0.928368
O 1.11907 12.1488 0.798221
O 3.2086 16.2712 1.03073
O 2.54456 14.5193 2.65433
O 5.49925 10.7967 2.95121
O 1.95663 16.5473 4.53456
O 3.94804 12.043 4.73225
Si 5.19907 13.1001 16.446
Si 7.48515 8.66769 16.4334
Si 6.21758 14.979 3.9132
Si 9.02937 10.8814 3.4068
Si 6.52057 10.8606 1.75288
Si 8.66557 15.1348 1.95854
O 5.85254 13.7774 4.77455
O 8.3664 9.55062 4.23479
O 8.00426 11.1969 2.20126
O 10.0804 15.0624 2.87836
O 6.52553 9.43105 0.922995
O 8.90634 14.1071 0.753713
O 6.37096 12.2216 0.477086
O 8.21464 16.6863 1.20956
O 7.55073 14.6385 2.97457
O 10.5066 10.6074 2.93924
O 6.53347 16.5235 4.65465
O 9.22772 12.097 4.47719
Si 9.95736 12.9769 0.0187215
Si 12.9314 8.68288 16.2829
Si 11.3421 15.0057 3.86017
Si 14.2014 11.1176 3.62097
Si 11.53 10.9091 1.78958
Si 13.8511 14.9475 1.8443
O 10.8867 14.0049 4.92886
O 13.6876 9.70196 4.42013
O 13.0584 11.4786 2.43173
O 0.0685299 15.6383 2.71562
O 11.9526 9.92261 0.629881
O 14.5012 13.9293 0.943853
O 10.713 12.3181 1.26435
O 13.2672 16.2645 1.00273
O 12.7731 14.7697 3.10173
O 0.581748 10.8704 3.06209
O 11.7182 16.482 4.3583
O 14.4151 11.937 4.93627
Si 14.9151 4.29019 5.80732
Si 2.54948 0.0685394 5.6609
Si 1.17195 6.66257 9.0667
Si 3.86759 2.08434 9.02864
Si 1.13152 2.31518 7.41859
Si 3.71229 6.50976 7.02499
O 1.02678 5.442 10.1176
O 3.65059 0.96955 10.0878
O 2.45175 2.24865 8.41628
O 5.0805 6.84908 7.90558
O 1.72818 1.13655 6.46826
O 3.76901 5.38407 5.9729
O 1.02009 3.77214 6.66806
O 3.30656 8.02099 6.34715
O 2.66101 6.37598 8.33087
O 5.02051 1.88829 7.95224
O 1.39311 7.86171 10.1817
O 4.05128 3.27061 10.1084
Si 5.03221 4.47636 5.39549
Si 7.69594 17.1699 5.42401
Si 6.20124 6.67579 9.259
Si 8.76545 2.13761 8.84992
Si 6.34744 2.2508 7.13879
Si 8.79715 6.5794 7.3133
O 5.53379 5.42752 10.0856
O 8.31513 0.932319 9.72153
O 7.49255 2.72216 8.12572
O 10.1966 6.84779 8.11262
O 6.96957 0.855582 6.40229
O 9.07454 4.97431 6.71438
O 5.89637 3.66956 6.49719
O 8.41538 7.77664 6.43921
O 7.61797 6.4483 8.4366
O 10.0136 1.75874 7.92479
O 6.25418 7.96617 10.1992
O 9.34394 3.25269 9.74478
Si 9.90132 4.21612 5.58182
Si 12.5911 17.3154 5.42525
Si 11.3448 6.62938 9.22929
Si 13.6579 2.49159 9.35827
Si 11.3715 2.26291 7.12904
Si 13.6688 6.66734 7.08961
O 11.3448 5.09288 9.73975
O 13.3327 1.14413 10.1814
O 12.4072 2.69479 8.36589
O 15.0522 6.97416 8.04531
O 11.8965 1.05887 6.34616
O 13.8535 5.09939 6.81046
O 11.1159 3.50311 6.28413
O 13.374 7.50964 5.7841
O 12.654 6.8077 8.29199
O 14.9056 2.16908 8.12245
O 11.2614 7.90461 10.2632
O 14.376 3.52431 10.3942
Si 0.0242818 13.3587 5.73036
Si 2.39426 8.88928 5.29156
Si 0.799531 15.4372 9.10993
Si 4.09995 10.6385 9.27095
Si 1.57465 11.2696 7.39681
Si 3.50695 15.3919 7.6329
O 0.864058 14.2937 10.3352
O 3.5294 9.50187 10.2008
O 2.68551 11.1949 8.57302
O 4.45099 15.6421 8.8923
O 1.66711 10.0428 6.3861
O 4.02553 14.0312 6.69718
O 1.32611 12.5525 6.43516
O 3.22798 16.4751 6.6422
O 1.9764 14.9434 8.25031
O 5.00897 10.1274 7.9903
O 1.42605 16.9115 9.6183
O 4.68369 11.9141 10.0857
Si 4.825 12.9827 5.75779
Si 7.60472 8.84229 5.42439
Si 5.88019 15.3195 9.36141
Si 8.96105 10.5718 9.45581
Si 6.32013 10.8762 7.45103
Si 8.33248 15.0648 7.40775
O 5.83238 14.2439 10.5871
O 8.54946 9.52313 10.6146
O 7.49742 10.9099 8.71631
O 9.75893 15.3866 8.32682
O 6.98078 9.92273 6.40161
O 8.68308 13.7141 6.46549
O 5.58327 12.044 6.76488
O 8.45203 16.1059 6.3051
O 6.828 14.9954 8.06567
O 10.4201 10.4385 8.67855
O 6.8151 16.3466 10.1637
O 9.1808 12.009 10.1813
Si 9.9169 12.9876 5.61959
Si 12.5794 8.82152 5.20748
Si 10.9763 15.3516 9.36966
Si 13.992 10.9515 9.00573
Si 11.5788 10.7209 7.53062
Si 13.3041 14.9752 7.3575
O 10.556 14.2829 10.3459
O 13.3991 9.56061 9.92815
O 12.8122 11.3449 8.05241
O 14.4039 15.2732 8.72216
O 12.0435 9.57212 6.51026
O 13.9874 13.8515 6.56179
O 10.831 12.0001 6.65257
O 13.2331 16.295 6.43299
O 11.9739 14.8211 8.19702
O 0.174831 11.1366 8.15523
O 11.6197 16.7156 9.99837
O 13.9637 12.0251 10.2158
Si 0.26857 4.53046 11.1252
Si 2.31862 0.0989718 10.7741
Si 1.20108 6.71381 14.7333
Si 3.75412 1.9644 14.8
Si 1.34346 2.31838 12.693
Si 3.86075 6.48767 12.8906
O 0.922502 5.30427 15.6003
O 2.98153 0.890136 15.7146
O 2.88947 2.41576 13.5429
O 5.34353 6.84955 13.5157
O 1.61536 0.857841 11.8006
O 3.88474 5.2938 11.9396
O 1.15324 3.5481 11.9377
O 3.29574 7.7108 12.0129
O 2.51946 6.50331 13.9094
O 5.11655 1.30972 13.875
O 1.08335 8.02138 15.6542
O 4.42884 3.39265 15.5391
Si 4.76347 4.28435 11.0951
Si 7.73145 17.371 11.1526
Si 6.4818 6.43396 14.517
Si 8.80455 2.61183 15.0118
Si 6.29918 2.0815 13.126
Si 8.98692 6.1701 12.5243
O 6.15189 5.42736 15.7059
O 8.52759 0.970405 15.5716
O 7.28969 2.74768 14.1648
O 10.3101 6.7339 13.2454
O 7.03363 1.11094 11.9655
O 9.34836 5.09732 11.4007
O 5.71394 3.44344 12.0928
O 8.20902 7.45538 11.8915
O 7.79151 5.94576 13.6568
O 9.99 2.68095 13.8849
O 6.79469 7.97999 15.2631
O 9.02253 3.5443 16.0951
Si 10.4726 4.08486 10.5913
Si 12.4611 0.185248 11.1176
Si 11.4146 6.49182 14.5886
Si 13.8541 1.99525 14.7876
Si 11.3514 2.51452 13.0845
Si 13.7685 6.76562 12.8099
O 10.8892 5.45104 15.7285
O 13.545 0.606392 15.7541
O 12.5694 2.44429 14.1318
O 14.9887 6.89279 13.7827
O 11.5362 1.0489 12.4055
O 14.4017 5.50739 11.9758
O 11.405 3.4221 11.8335
O 13.2807 7.98067 11.8394
O 12.7031 5.94863 13.8012
O 0.00241466 2.03852 13.5892
O 12.1191 7.90356 15.2433
O 14.4684 3.1094 15.7031
Si 15.112 13.1436 10.9752
Si 2.38373 8.79842 10.9757
Si 1.07536 15.22 14.4799
Si 3.89387 10.7917 15.135
Si 1.61038 11.0998 12.8078
Si 3.55066 15.1168 12.6399
O 1.036 13.8208 15.3234
O 3.27996 9.45862 15.5845
O 2.73737 11.2488 13.973
O 4.93188 15.6143 13.5471
O 1.54153 9.67082 12.0172
O 4.02501 13.819 11.9777
O 1.31404 12.3675 11.8043
O 2.97764 16.3417 11.6244
O 2.51773 15.1133 13.7958
O 5.33942 10.737 14.3095
O 1.44749 16.3389 15.6049
O 3.97125 11.8598 16.1528
Si 5.19243 12.9841 11.3271
Si 7.31081 8.5912 11.3656
Si 6.11464 15.184 14.5999
Si 9.04007 10.5967 14.7723
Si 6.47063 10.9687 13.2313
Si 8.70735 15.2829 12.7623
O 5.7652 13.8659 15.2012
O 8.68512 9.57554 15.8709
O 7.91788 10.9434 13.8273
O 9.76295 15.4687 14.0512
O 6.65076 9.66589 12.3371
O 8.95339 13.7146 12.1095
O 5.89263 12.2065 12.4163
O 8.78327 16.4362 11.7345
O 7.28606 15.2517 13.5917
O 10.3133 10.3606 13.8467
O 6.64447 16.3932 15.7647
O 9.24915 11.9612 15.7539
Si 9.96958 13.043 11.0004
Si 12.3564 8.78739 10.9118
Si 11.1198 15.0739 14.6714
Si 14.175 10.8385 14.6778
Si 11.6377 10.996 12.8986
Si 13.6897 15.3281 12.8881
O 10.7244 13.7112 15.4955
O 13.9941 9.74672 15.7473
O 12.8497 11.0438 14.02
O 14.7699 15.5322 13.9709
O 11.6242 9.77003 11.8634
O 14.2608 14.3846 11.7962
O 10.982 12.1506 11.9901
O 13.2655 16.7937 12.2614
O 12.2151 14.8962 13.5987
O 0.081702 11.0747 13.5439
O 11.7781 16.3049 15.6431
O 14.1664 12.0665 15.6449
324
 Atoms. Timestep: 4500
Si 0.0353553 4.17857 0.0519605
Si 2.32677 0.266427 16.4154
Si 0.954606 6.53888 3.36117
Si 3.86405 2.21263 3.80773
Si 1.13884 1.89934 1.90191
Si 3.78257 6.58494 1.74954
O 0.54448 5.16117 4.54021
O 3.50899 1.27173 5.04728
O 2.49023 2.25303 2.72107
O 4.78327 6.88648 2.89712
O 1.36368 0.80042 0.903798
O 4.05366 5.33009 0.97134
O 0.84729 3.20372 0.988674
O 3.49139 7.7739 0.78278
O 2.37926 6.33799 2.62882
O 5.18058 1.80052 2.8914
O 1.51879 7.60318 4.40835
O 4.13452 3.67913 4.33443
Si 5.01675 4.44224 0.116223
Si 7.54725 17.3377 0.165313
Si 6.2537 6.71929 3.55963
Si 9.02374 1.996 3.50584
Si 6.39115 2.14207 1.90235
Si 8.68305 6.41419 1.67158
O 6.06016 5.39278 4.45524
O 8.40825 0.743188 4.24648
O 7.68072 2.35946 2.70116
O 9.9089 6.90738 2.6273
O 6.86318 0.923276 1.15516
O 8.96651 4.95239 1.05729
O 5.58964 3.31557 1.13885
O 8.26429 7.3597 0.577624
O 7.19498 6.44191 2.33294
O 10.4001 1.55228 2.59174
O 6.54498 7.90062 4.42651
O 9.61025 3.16998 4.40704
Si 9.90927 4.36161 16.5006
Si 12.8021 17.3474 16.4105
Si 11.2234 6.6625 3.42359
Si 13.6856 2.23096 3.76173
Si 11.4506 2.18181 1.64356
Si 13.6804 6.48263 1.43491
O 10.8492 5.49415 4.59092
O 13.3248 0.72776 4.38469
O 12.6066 2.69141 2.6975
O 14.924 6.82498 2.43473
O 12.0794 1.11119 0.810251
O 13.9725 5.1444 0.677677
O 10.9944 3.54719 0.902601
O 13.4318 7.64438 0.3736
O 12.5362 6.47071 2.51199
O 14.9475 1.95604 2.90822
O 11.5753 7.93797 4.35418
O 13.997 3.43149 4.8948
Si 14.875 12.9673 0.35643
Si 2.73 8.85916 16.4303
Si 1.48349 15.4669 4.03592
Si 3.83578 10.5931 3.53229
Si 1.23021 10.7393 2.06481
Si 3.6837 15.4989 1.99426
O 1.23333 14.3977 5.05305
O 3.70484 9.25455 4.40779
O 2.45573 10.8806 3.0821
O 5.2264 15.5342 2.58644
O 1.59514 9.5527 0.937353
O 3.97636 14.165 0.868812
O 0.680323 12.0771 1.38748
O 3.17711 16.7409 1.11519
O 2.82292 15.2942 3.25805
O 4.77045 10.6193 2.20574
O 1.52495 16.745 4.89534
O 4.47968 11.8304 4.40202
Si 4.97045 13.3104 16.3236
Si 7.41438 8.55135 16.2636
Si 6.25326 15.396 3.94412
Si 8.79503 10.9898 3.57402
Si 6.17718 10.9223 1.46192
Si 8.75127 15.2082 2.17779
O 5.65675 14.0804 4.46281
O 8.55828 9.57322 4.46372
O 7.51287 10.8719 2.48143
O 9.95722 15.7793 3.28633
O 6.51077 9.58548 0.597081
O 9.2395 13.8691 1.46331
O 5.76191 12.235 0.636551
O 8.27172 16.1097 0.864382
O 7.72545 15.0047 3.48065
O 10.1484 10.9177 2.74816
O 6.49726 16.6631 4.80134
O 9.0093 12.0946 4.55222
Si 10.1565 13.092 0.211902
Si 12.4578 8.7351 0.0144915
Si 11.1508 15.2924 4.20072
Si 13.9875 10.9684 4.00474
Si 11.4348 11.0168 1.92453
Si 13.732 15.5506 2.07655
O 11.0624 13.7175 4.86651
O 13.365 9.88473 4.97964
O 12.619 11.2485 3.08299
O 0.287085 15.4552 3.04072
O 11.9444 9.83724 1.10989
O 14.0943 14.0665 1.37095
O 11.4926 12.3007 0.843343
O 13.5384 16.4256 0.862018
O 12.5283 15.5115 3.11634
O 0.0475589 10.3462 3.07006
O 11.6151 16.2755 5.36314
O 14.4607 12.439 4.53597
Si 15.0382 4.22603 5.7549
Si 2.70521 0.0251716 5.75555
Si 1.20564 6.64777 9.13627
Si 4.04214 2.25 8.96402
Si 1.28124 2.04975 7.60208
Si 3.68175 6.23396 7.45083
O 0.72556 5.40342 10.0051
O 3.62999 0.878433 9.67494
O 2.49852 2.59022 8.54373
O 4.9261 6.57117 8.55689
O 1.94048 0.648192 7.0234
O 4.36544 4.98416 6.61359
O 0.893378 3.2817 6.41504
O 3.58442 7.39081 6.28139
O 2.22294 5.91358 8.06181
O 4.90788 2.00895 7.628
O 1.98054 8.02735 9.67487
O 4.78756 3.1893 10.0621
Si 5.0473 4.4963 5.33075
Si 7.76055 0.124071 5.5544
Si 6.36091 6.42462 9.11901
Si 8.82057 2.48865 8.97115
Si 6.35856 2.43594 7.22727
Si 8.90498 6.47019 7.21425
O 6.25342 5.19323 10.11
O 8.30893 1.02365 9.67973
O 7.21904 2.99185 8.32605
O 10.1272 7.10469 8.30294
O 7.09549 1.27651 6.37149
O 9.14681 5.08147 6.4662
O 6.14458 3.64699 5.97301
O 8.37674 7.43972 6.04033
O 7.75439 6.33592 8.19855
O 9.76292 2.23552 7.80485
O 6.61777 7.96551 9.80741
O 9.19699 3.80941 9.92433
Si 10.1271 4.28023 5.38246
Si 12.5615 17.4118 5.56516
Si 11.3179 6.95016 9.37147
Si 13.7599 2.08482 9.15062
Si 11.283 2.36415 7.12132
Si 13.7677 6.41483 7.32666
O 10.8223 5.70142 10.2997
O 13.6758 0.752558 10.2022
O 12.3792 2.30397 8.3695
O 14.7792 7.10466 8.70584
O 11.7144 1.14039 6.34922
O 14.5186 5.19258 6.91752
O 11.1157 3.66143 6.36034
O 13.4234 7.53824 6.29067
O 12.4146 6.36035 8.41293
O 14.9962 1.7966 8.25779
O 11.9494 8.25563 10.0109
O 13.9672 3.44404 10.0998
Si 0.32879 13.1081 5.6135
Si 2.7507 8.28961 5.30731
Si 1.18174 15.2186 9.5742
Si 4.0225 10.8145 9.44289
Si 1.6528 10.6123 7.23913
Si 3.58699 14.9796 7.58979
O 1.08183 13.9558 10.5749
O 3.62596 9.79069 10.4829
O 2.81234 10.9072 8.32145
O 4.53834 15.1844 8.75016
O 1.79923 9.31463 6.44579
O 4.23347 13.7181 6.76663
O 1.18119 11.9676 6.32036
O 3.36288 16.0874 6.45595
O 2.16275 14.8638 8.31724
O 5.29429 10.909 8.41912
O 1.59616 16.6046 10.1483
O 3.99628 12.15 10.281
Si 5.04715 12.9596 5.43866
Si 7.63906 8.6898 5.49167
Si 6.14191 15.1522 9.11053
Si 9.05279 10.9717 9.08262
Si 6.45501 11.0768 7.4272
Si 8.67502 15.0558 7.34085
O 6.06772 13.9691 10.2622
O 8.19355 9.87093 10.1343
O 7.96457 11.4062 8.01327
O 9.82855 15.1988 8.39461
O 7.13825 9.79037 6.50142
O 9.08834 13.8467 6.39003
O 5.99847 12.1727 6.39308
O 8.39246 16.4422 6.61582
O 7.22596 14.5805 7.97166
O 10.3165 10.4987 8.3646
O 6.67709 16.4659 9.74267
O 9.35952 12.1215 10.2599
Si 10.0028 12.7859 5.77001
Si 12.6333 8.60742 5.49707
Si 11.2953 15.1183 9.02221
Si 14.2067 10.627 9.19351
Si 11.4629 10.5618 7.30111
Si 13.9503 15.3649 7.38365
O 11.0619 14.0844 10.2544
O 13.592 10.0286 10.4966
O 12.928 10.4548 8.01067
O 14.862 15.6018 8.56776
O 11.3678 9.45011 6.19676
O 14.413 13.9492 6.59126
O 10.8794 11.9796 6.70089
O 13.7188 16.7412 6.60641
O 12.4782 15.0531 7.9729
O 0.374017 10.3173 8.2141
O 11.7755 16.4708 9.72003
O 14.5539 12.0366 9.76942
Si 14.8657 4.60034 10.9965
Si 2.66347 0.0760415 10.8517
Si 1.19739 6.38706 14.6994
Si 3.65117 2.53988 14.7398
Si 1.44565 2.53385 12.4948
Si 3.51221 6.23891 12.7187
O 1.09364 5.32643 15.8959
O 3.11198 1.38189 15.5815
O 2.46628 3.14465 13.7595
O 4.5419 6.38733 13.9407
O 2.08635 1.33957 11.7832
O 4.19449 5.17577 11.73
O 0.789929 3.60587 11.615
O 2.99807 7.58055 12.0668
O 2.07765 5.85646 13.5068
O 4.87463 2.20062 13.7212
O 2.06453 7.74313 15.3775
O 4.17709 3.54493 15.7257
Si 5.44465 4.23023 11.1587
Si 7.40638 0.0665717 10.7232
Si 6.0532 6.45543 14.7122
Si 8.9143 1.9729 14.7357
Si 6.24215 1.96239 12.8424
Si 8.46351 6.38853 12.8255
O 6.03044 5.42575 15.8407
O 8.63553 0.790254 15.8508
O 7.61591 2.00524 13.8665
O 9.58067 6.92506 13.9225
O 6.43074 0.858303 11.6236
O 8.92827 5.14274 11.8908
O 6.13418 3.57855 12.3138
O 8.60581 7.6119 11.6694
O 7.03667 6.25445 13.5661
O 10.0469 1.79132 13.7014
O 6.17703 7.90649 15.3419
O 9.16913 3.3313 15.5795
Si 10.0805 4.47054 10.8977
Si 12.7261 17.1708 10.8508
Si 10.8143 6.78772 14.8961
Si 14.0956 1.88461 14.5168
Si 11.3709 1.84937 12.8618
Si 13.6189 6.80193 13.0906
O 10.7709 5.42646 15.7288
O 13.7135 0.500239 15.2208
O 12.5863 2.31798 13.7401
O 14.9694 6.91002 13.9667
O 11.7746 0.486192 12.067
O 13.846 5.61772 11.884
O 10.6691 3.02348 11.7295
O 13.2701 8.09244 12.2399
O 12.1496 6.55745 13.924
O 0.187851 2.06464 13.4002
O 11.1648 7.97202 15.8534
O 14.4712 3.11207 15.526
Si 15.0669 12.9362 11.0721
Si 2.48006 8.71881 11.0112
Si 0.96652 15.3232 14.5321
Si 3.84857 10.9864 14.7206
Si 1.23253 10.5639 12.9442
Si 3.53512 15.2811 13.0975
O 0.33905 14.0971 15.6434
O 3.45683 10.0623 15.9534
O 2.59259 10.8424 13.7205
O 4.68533 15.892 14.111
O 1.31616 9.35617 11.9141
O 4.13252 13.9575 12.1893
O 0.575078 11.8031 11.958
O 3.38294 16.4696 12.045
O 2.27527 14.8059 13.7656
O 5.19687 10.4987 13.8991
O 1.53895 16.44 15.5334
O 4.08905 12.3462 15.3457
Si 5.12113 13.0354 11.1458
Si 7.54455 8.60306 10.8483
Si 6.10722 15.3141 14.6825
Si 9.08143 10.9074 14.6885
Si 6.49846 10.8528 12.8465
Si 8.59471 15.3245 12.6682
O 6.10263 14.0385 15.7371
O 8.44741 9.56329 15.5632
O 7.84077 10.997 13.7179
O 9.75874 15.6292 13.6407
O 6.79259 9.53015 11.9633
O 9.09874 14.078 11.9793
O 5.83244 12.1789 12.1803
O 8.43638 16.6972 11.8636
O 7.14392 14.9781 13.5075
O 10.5022 10.6578 14.0103
O 6.52564 16.5357 15.6428
O 9.19587 11.919 15.9482
Si 10.1564 13.1872 11.117
Si 12.5584 9.03024 11.2356
Si 10.8365 15.447 14.6844
Si 14.0347 10.8421 14.9883
Si 11.655 11.3805 12.9584
Si 13.461 14.834 12.7511
O 10.4885 14.4281 15.7985
O 13.3059 9.65091 15.5486
O 12.9371 11.4613 13.8916
O 15.0153 15.3048 13.4091
O 11.8827 10.1366 12.1472
O 13.9386 13.5163 12.0266
O 11.2608 12.5145 12.0789
O 13.3068 15.9898 11.7165
O 12.2176 15.0183 13.936
O 0.26851 10.439 14.1932
O 11.5469 17.0039 15.5659
O 14.1359 11.9604 16.098
324
 Atoms. Timestep: 5000
Si 0.111188 4.23985 16.3588
Si 2.53424 0.000569091 16.2591
Si 1.29612 6.54612 3.48513
Si 3.68106 2.19384 3.53346
Si 1.04331 2.06726 1.64842
Si 3.88903 6.58703 1.68855
O 1.00759 5.43535 4.60127
O 3.43022 0.978777 4.57861
O 2.03339 2.2442 2.83114
O 5.02868 6.9234 2.78746
O 1.76557 0.890275 0.803053
O 4.41402 5.0923 1.16095
O 1.08114 3.40683 0.785755
O 3.44705 7.7659 0.687105
O 2.46536 6.4416 2.47271
O 5.11368 2.09295 2.63784
O 1.47338 7.80594 4.57797
O 4.09263 3.40324 4.45883
Si 5.25879 4.27768 16.4481
Si 7.78041 17.3988 0.0373435
Si 6.29934 6.50659 3.74025
Si 8.85694 2.27888 3.95004
Si 6.6014 2.26429 1.94206
Si 8.64586 6.54956 1.72657
O 5.85749 5.30829 4.63393
O 8.6598 1.00339 4.77789
O 7.72082 2.60875 2.98245
O 9.87164 6.42525 2.67701
O 7.08219 0.832558 1.12648
O 8.87851 5.19763 0.708369
O 6.1987 3.34739 0.674463
O 8.49967 7.70979 0.556141
O 7.40166 6.34923 2.62997
O 10.0324 1.70182 2.9218
O 6.77196 7.61106 4.79818
O 9.24077 3.60504 4.60841
Si 9.74537 4.26317 16.2885
Si 12.7437 17.4346 0.161566
Si 11.2276 6.55852 3.39144
Si 13.762 2.30177 3.70646
Si 11.1956 2.1347 1.92392
Si 14.0612 6.31434 1.67777
O 11.1233 5.36202 4.63444
O 13.268 1.04943 4.84594
O 12.3675 2.7761 3.03921
O 15.0561 6.61903 2.75308
O 11.9314 0.965018 1.13318
O 14.3256 5.19938 0.68306
O 10.8801 3.26489 0.789325
O 13.8528 7.88674 0.947127
O 12.5031 6.31713 2.40495
O 14.6614 1.75236 2.45344
O 11.2228 7.98388 4.271
O 14.7339 3.18346 4.49117
Si 0.394407 12.9926 0.112596
Si 2.57789 8.88094 16.4792
Si 1.36466 15.2298 3.72693
Si 3.77396 10.3402 3.95259
Si 1.07617 10.6971 2.09558
Si 3.67491 15.5525 1.61276
O 1.19162 13.8134 4.40918
O 3.6194 9.32529 5.23678
O 2.26423 10.4525 3.28827
O 4.94609 15.9149 2.64635
O 1.60098 9.53014 1.1443
O 4.07341 14.1554 0.824867
O 1.17253 12.0988 1.21714
O 3.45144 16.4983 0.344612
O 2.53381 15.2201 2.51196
O 4.67838 10.361 2.57124
O 1.99997 16.3553 4.70761
O 4.22266 11.7567 4.60658
Si 4.98862 13.1835 16.5309
Si 7.42322 8.81806 16.4584
Si 6.14277 15.5025 3.65471
Si 8.61581 10.9425 3.68042
Si 6.12284 10.8043 2.00965
Si 8.67153 15.1418 2.01346
O 5.59251 14.2511 4.60231
O 8.37544 9.92923 4.90257
O 7.27214 11.1279 3.01507
O 9.97757 15.4992 3.1123
O 6.72196 9.45028 1.1452
O 8.99188 13.8017 1.10486
O 5.59793 12.014 1.07154
O 8.66048 16.3204 0.790118
O 7.3334 15.0792 2.63838
O 9.47888 10.1892 2.40819
O 6.61173 16.6651 4.41598
O 9.32684 12.4068 4.24876
Si 9.84851 13.0003 0.0590637
Si 12.6235 8.53141 0.192464
Si 11.6798 15.2568 3.64232
Si 13.3532 10.8692 3.68365
Si 10.8705 10.8225 1.82078
Si 13.9683 15.2711 1.80069
O 11.2866 14.1804 4.71867
O 13.1314 9.55025 4.57403
O 11.8958 11.159 3.08578
O 14.8885 15.5431 3.06292
O 11.6758 9.46736 1.05942
O 14.7075 14.0208 1.12667
O 10.8077 12.1046 0.895294
O 13.8452 16.4663 0.813442
O 12.4955 15.2153 2.3078
O 14.5001 10.7033 2.50239
O 11.7345 16.5197 4.70738
O 13.9764 12.0601 4.57883
Si 0.154965 4.36761 5.53359
Si 2.61657 17.3966 5.69313
Si 1.14934 6.42308 9.30243
Si 3.95983 2.15035 9.46124
Si 1.31675 2.35198 7.51698
Si 3.54942 6.28113 7.51512
O 0.522718 5.28441 10.2701
O 3.92676 0.611874 10.3198
O 2.72467 2.37608 8.47612
O 4.64026 6.92855 8.48249
O 1.55895 1.21409 6.3233
O 4.08555 5.15967 6.70187
O 1.074 3.65727 6.63101
O 3.0676 7.27287 6.4432
O 2.39463 5.73531 8.39084
O 5.06806 1.78055 8.40259
O 1.89486 7.76401 9.85011
O 4.50439 3.1803 10.5274
Si 4.85534 4.29611 5.54555
Si 7.66554 17.4161 5.47688
Si 6.13483 6.51817 9.20844
Si 8.77219 2.53551 9.40003
Si 6.19421 2.11269 7.18219
Si 8.86993 6.54441 7.29545
O 5.84817 5.53243 10.3894
O 8.3128 1.15708 10.0267
O 7.44064 2.80826 8.06762
O 9.97828 6.58021 8.37588
O 6.78051 0.898829 6.51453
O 9.20713 5.32975 6.45596
O 5.66723 3.19565 6.27722
O 8.66277 8.08309 6.59886
O 7.47421 6.33048 8.07605
O 10.1473 2.48046 8.74184
O 6.88463 7.91992 9.8781
O 9.064 3.60499 10.5902
Si 10.2435 4.3777 5.60135
Si 12.5594 17.3708 5.74886
Si 11.3232 6.35627 9.38435
Si 13.6319 2.29572 9.28194
Si 11.2597 2.35885 7.52496
Si 13.6981 6.32543 7.11544
O 10.9404 5.37264 10.5828
O 13.6617 0.949794 10.163
O 12.7069 2.75615 8.11113
O 14.8971 6.64224 8.18363
O 11.5399 1.05482 6.73053
O 13.9755 5.07178 6.22077
O 10.8977 3.31436 6.46498
O 13.2274 7.56269 6.2199
O 12.4997 5.94664 8.27962
O 14.9208 2.17846 8.35254
O 11.546 7.85796 10.0419
O 13.8467 3.38387 10.4379
Si 0.328512 13.0006 5.27353
Si 2.37204 8.42498 5.71778
Si 1.41447 15.0888 9.18177
Si 4.09632 11.0595 9.21975
Si 1.42304 10.7797 7.34384
Si 3.89641 15.0201 7.31901
O 0.996013 13.8759 9.90918
O 3.84842 9.69564 10.129
O 2.76048 10.9381 8.29781
O 5.37747 15.1395 7.69902
O 1.4814 9.38139 6.6059
O 4.02926 13.7479 6.32781
O 0.89354 11.8079 6.12311
O 3.52289 16.4905 6.67282
O 2.50439 14.6091 8.15492
O 5.45266 10.9025 8.50394
O 2.13633 16.1635 10.0237
O 3.93917 12.3722 10.1533
Si 4.99485 12.9784 5.36757
Si 7.60601 8.6961 5.70171
Si 6.45073 15.2063 8.90038
Si 9.08124 11.0774 9.4099
Si 6.44029 11.0169 7.28438
Si 9.03653 15.1773 7.32392
O 5.86917 14.1885 9.97292
O 8.63642 9.77918 10.061
O 7.88309 11.1352 8.14214
O 10.365 15.5937 8.15686
O 6.60954 9.50475 6.5591
O 9.24141 13.8473 6.4008
O 6.12005 12.1941 6.18644
O 8.12481 16.3427 6.48805
O 7.94765 14.7666 8.41881
O 10.6484 11.0121 8.83193
O 6.77737 16.616 9.54734
O 8.77618 12.4915 10.2215
Si 10.2506 13.0537 5.34276
Si 12.2511 8.70329 5.40801
Si 11.6292 15.0504 9.2605
Si 13.9246 10.9274 9.06263
Si 11.4537 10.9216 7.30274
Si 14.147 15.0763 7.36573
O 10.862 13.9289 10.1276
O 13.2976 9.682 9.80639
O 12.8421 11.1784 7.88493
O -0.0137725 15.6071 8.50145
O 11.5505 9.55268 6.54983
O 14.6885 14.0956 6.23425
O 10.905 11.9722 6.26351
O 13.6435 16.4563 6.52175
O 12.8227 14.6068 8.30211
O 0.312661 10.8444 8.42935
O 12.2463 16.215 10.1807
O 13.9946 12.1717 10.0644
Si 14.8431 4.35089 11.303
Si 2.74631 17.3338 11.1347
Si 0.963828 6.49253 14.5064
Si 3.80518 2.26426 14.7233
Si 1.27027 2.1796 12.5643
Si 3.62015 6.46192 13.0328
O 1.00468 5.08522 15.3058
O 3.37822 0.906009 15.3536
O 2.39806 2.39274 13.6694
O 4.5076 7.00505 14.1676
O 1.73931 1.08803 11.454
O 4.27089 5.19022 12.2213
O 0.84548 3.53051 11.9554
O 3.60545 7.48944 11.6186
O 2.10474 6.54562 13.5112
O 5.06824 1.98462 13.6802
O 1.62735 7.87428 15.3902
O 4.01526 3.5627 15.5227
Si 5.30378 4.39274 11.2921
Si 7.38367 -0.00199099 10.7456
Si 5.90938 6.61392 14.7794
Si 8.89575 2.0397 14.6192
Si 6.25148 1.886 12.7827
Si 8.41193 6.63757 13.107
O 6.01278 5.18745 15.4908
O 8.69003 0.999024 15.7908
O 7.49171 1.94574 13.6763
O 9.25928 7.25873 14.3726
O 6.34313 0.66652 11.7742
O 9.3613 5.52236 12.5998
O 6.33091 3.49569 12.2229
O 8.38215 7.67974 11.8808
O 6.90155 6.61029 13.5326
O 10.2445 1.64352 13.9156
O 6.4172 7.83854 15.651
O 8.80036 3.48386 15.2722
Si 10.095 4.39525 11.4279
Si 12.8263 -0.0157552 11.056
Si 10.7149 6.68409 14.7808
Si 13.9775 1.77206 14.5713
Si 11.3452 1.87302 12.8669
Si 13.27 6.64176 12.8713
O 10.6568 5.27273 15.5091
O 13.7133 1.17588 15.9727
O 12.6308 1.83604 13.6435
O 14.4781 6.70659 13.9811
O 11.6951 0.984834 11.541
O 13.8413 5.16696 12.2342
O 10.8998 3.37825 12.2945
O 13.4381 7.78773 11.6689
O 11.854 6.65698 13.5468
O 0.0606465 1.64603 13.4526
O 11.6064 7.50347 16.0411
O 14.3904 3.37458 15.2726
Si 15.0197 12.9806 10.9397
Si 2.94471 8.68384 10.9118
Si 1.06349 15.1889 14.8319
Si 3.84782 11.0437 14.671
Si 1.61086 10.8444 12.7926
Si 3.73295 15.1598 13.256
O 1.07647 14.0237 15.8393
O 3.43088 9.78899 15.5463
O 2.60218 11.516 13.6821
O 5.01745 15.3363 14.0443
O 2.26774 9.65922 11.9348
O 4.17685 14.4442 11.885
O 0.932598 12.1583 11.7874
O 2.90671 16.6821 12.6311
O 2.29088 14.7778 13.9359
O 5.00844 10.8793 13.6455
O 1.40241 16.702 15.534
O 4.18616 12.3448 15.4919
Si 4.93633 13.4689 11.015
Si 7.6584 8.81415 10.9331
Si 6.4262 15.1527 14.8154
Si 8.63257 10.9746 14.6164
Si 6.28104 11.1031 12.7273
Si 8.84502 15.8209 13.0374
O 6.16053 14.0085 15.7694
O 8.04012 9.73225 15.4358
O 7.47751 11.5626 13.7557
O 9.94645 15.9569 14.0838
O 6.85467 10.088 11.6824
O 9.35722 14.4389 12.2084
O 6.11371 12.5221 11.9587
O 8.43688 16.5702 11.644
O 7.51845 15.2492 13.7432
O 10.0296 10.765 13.8005
O 6.7875 16.5107 15.5621
O 9.00639 12.1766 15.6946
Si 9.90381 13.3081 11.1275
Si 12.4015 8.8691 10.7519
Si 11.1465 15.2889 14.7778
Si 14.0906 10.742 14.7283
Si 11.2994 10.8417 12.8873
Si 13.6294 15.0575 12.8451
O 10.5117 14.1892 15.7728
O 13.4167 9.55784 15.6198
O 12.8134 11.1691 13.8249
O 14.7533 15.4279 13.9672
O 11.5097 9.73665 11.8785
O 14.1987 14.1705 11.8013
O 10.784 12.022 11.6953
O 13.4792 16.4584 12.2015
O 12.2194 14.6428 13.7137
O 0.405762 10.5649 13.9352
O 11.9393 16.4709 15.78
O 14.6209 11.988 15.6039
324
 Atoms. Timestep: 5500
Si 14.9403 4.53267 0.0423058
Si 2.74606 17.3152 0.151986
Si 1.30158 6.65806 3.8464
Si 3.4836 2.21598 3.56749
Si 1.38338 2.47115 1.65411
Si 3.77765 6.4036 1.83917
O 1.03208 5.51055 4.98857
O 2.73984 1.03385 4.24903
O 2.52742 3.25062 2.63746
O 4.94399 7.09538 2.71919
O 2.05436 1.15794 0.973368
O 4.35424 5.23172 0.970191
O 0.757112 3.26799 0.455242
O 3.12511 7.40174 0.622674
O 2.54274 6.57394 2.79352
O 4.7407 1.81346 2.74088
O 1.41491 7.9351 4.6243
O 4.02605 3.11927 4.78897
Si 5.13474 4.45543 16.3878
Si 7.54584 0.0961022 16.5253
Si 6.17934 6.51065 3.77822
Si 8.69179 2.23118 3.59995
Si 6.11124 2.00415 1.76892
Si 8.81216 6.16093 1.92767
O 5.46042 5.29528 4.80757
O 8.11688 1.09334 4.64254
O 7.25888 2.68938 2.64453
O 9.95396 6.69645 3.00809
O 6.852 0.766568 1.24451
O 9.1975 4.90747 1.02675
O 5.75733 2.89732 0.281384
O 8.48909 7.30958 0.66569
O 7.58587 6.26206 2.91133
O 9.7032 1.82766 2.54054
O 6.61759 7.88111 4.54816
O 9.25484 3.40766 4.5673
Si 10.3983 4.4032 0.0681007
Si 12.2852 17.1947 16.5244
Si 11.4003 6.36708 3.75796
Si 13.8458 2.1488 3.64092
Si 11.2067 2.03516 2.00464
Si 13.6547 6.34207 2.07206
O 10.932 5.49997 5.07613
O 13.8255 0.790162 4.71462
O 12.3416 2.37863 3.10581
O 14.8695 6.61955 3.19369
O 11.5717 0.685826 1.07954
O 14.4047 5.18676 1.24088
O 11.2494 3.4053 0.988808
O 13.2916 7.53807 1.17046
O 12.3551 5.79329 2.80211
O 15.0027 2.1207 2.56627
O 11.9671 7.54259 4.44188
O 14.1383 3.37065 4.75687
Si 0.144029 12.9316 -0.00675376
Si 2.55037 8.76222 0.0377902
Si 1.14098 14.8925 3.48253
Si 3.57528 10.966 3.67326
Si 0.942395 10.6092 1.96831
Si 3.79143 15.2353 1.99105
O 1.17772 13.8367 4.69571
O 3.19374 9.83865 4.77031
O 2.13028 11.1146 2.88061
O 5.01592 15.6469 3.13443
O 1.48922 9.45663 1.03316
O 4.46797 13.8624 1.28509
O 0.507794 11.7748 0.89192
O 3.76439 16.5714 1.18708
O 2.32462 14.8914 2.50844
O 4.97614 10.4531 3.06083
O 1.63264 16.1952 4.44527
O 3.91956 12.4379 4.47222
Si 5.06414 12.8161 0.0921391
Si 7.67064 8.58293 0.260476
Si 6.47227 15.3165 3.7838
Si 9.09677 10.5189 3.81607
Si 6.3782 10.7658 2.33455
Si 8.66648 15.2564 1.68763
O 6.22932 13.7988 4.3226
O 8.89015 9.34524 4.93293
O 7.62922 10.6826 3.30472
O 9.67975 15.5489 2.82329
O 6.97848 9.48813 1.40344
O 9.27161 13.984 0.895687
O 5.99133 11.7411 1.12955
O 8.54567 16.476 0.703606
O 7.29047 15.3191 2.41853
O 9.96887 10.5982 2.54926
O 6.80778 16.4436 4.72818
O 9.26812 12.0289 4.49402
Si 10.0851 12.9562 16.3676
Si 12.5698 8.63684 0.152524
Si 11.1963 15.1777 3.59916
Si 13.7623 10.5891 3.65775
Si 11.378 10.6793 1.65631
Si 13.6087 15.0901 1.61218
O 10.9556 13.9263 4.5598
O 13.5204 9.56167 4.78004
O 12.4563 10.7857 2.6186
O 14.8021 15.0715 2.84845
O 11.2955 9.45042 0.809875
O 14.102 13.7971 0.818373
O 10.8875 12.0298 0.760074
O 13.4161 16.1684 0.48958
O 12.1614 15.0396 2.23408
O 14.8855 10.1282 2.76859
O 11.9668 16.2877 4.42738
O 14.303 12.1282 4.1355
Si 0.0194562 4.21781 5.62525
Si 2.33269 17.2138 5.3387
Si 1.06052 6.47078 9.27385
Si 3.69588 2.5563 8.98976
Si 1.37635 1.83591 7.30426
Si 3.64516 6.55893 7.31253
O 1.17086 5.25006 10.4638
O 2.88205 1.33348 9.74632
O 2.73574 2.38315 7.58324
O 4.92047 6.99453 8.30671
O 1.63252 0.44743 6.63051
O 3.98654 4.91389 6.79057
O 0.809867 2.92587 6.22121
O 3.19965 7.75427 6.52127
O 2.42498 6.1175 8.31661
O 5.16063 2.13238 8.58015
O 1.23783 7.7084 10.2264
O 3.71898 3.73485 10.0653
Si 4.94996 4.14741 5.73148
Si 7.60099 0.0925107 5.86121
Si 5.9923 6.39672 9.26298
Si 9.30879 2.13507 9.20557
Si 6.48815 2.25206 7.67733
Si 8.5047 6.36961 7.57237
O 5.34736 5.50009 10.4076
O 8.40962 0.960929 9.967
O 8.05343 2.51745 8.14054
O 9.95473 6.52036 8.36749
O 6.64842 0.84966 6.79621
O 8.81124 5.24808 6.45405
O 6.01035 3.41725 6.60268
O 7.97048 7.64175 6.77349
O 7.18515 5.65977 8.39272
O 10.5876 1.67693 8.4624
O 6.77649 7.61777 10.0088
O 9.40706 3.57454 9.96069
Si 9.97089 4.31757 5.66163
Si 12.7126 17.3849 5.47169
Si 11.3018 6.49467 9.19589
Si 14.0495 2.1667 9.03962
Si 11.5276 2.09611 7.30264
Si 13.7153 6.29031 7.37603
O 11.0752 5.35994 10.314
O 13.6792 1.14396 10.1624
O 12.929 2.29266 7.99035
O 15.0042 6.76352 8.30686
O 11.7161 0.970385 6.2077
O 14.2252 5.08963 6.59258
O 10.7954 3.48619 6.76565
O 13.4526 7.35588 6.19743
O 12.5488 6.17257 8.3603
O 0.542283 1.99053 8.53404
O 11.6624 7.99445 9.94306
O 14.1645 3.56909 9.97745
Si 14.9128 13.0642 5.28016
Si 2.27651 8.77121 5.77142
Si 1.57552 15.3783 9.03731
Si 3.67117 11.2913 8.92347
Si 1.08073 11.2611 7.40042
Si 4.23321 15.5767 7.15417
O 1.03039 14.161 9.86301
O 3.2333 9.88145 9.73521
O 2.51287 11.8883 7.88886
O 5.42221 15.7211 8.07561
O 1.46537 9.82965 6.70481
O 4.27621 14.4628 5.96886
O 0.154772 12.1855 6.54116
O 3.60392 16.8735 6.401
O 3.0565 15.1012 8.31113
O 4.80515 10.8412 7.96766
O 1.69115 16.7044 9.78271
O 4.30194 12.2661 9.96872
Si 5.11989 13.2762 5.33064
Si 7.62275 8.74423 5.78565
Si 6.67099 15.2407 9.0773
Si 8.7542 10.9724 9.0171
Si 6.20423 11.1313 7.40154
Si 9.28799 15.2066 7.31383
O 6.2201 13.8479 9.86847
O 8.19615 9.69287 9.75153
O 7.44321 11.5325 8.17901
O 10.5992 15.2226 8.22154
O 6.70527 10.0424 6.28831
O 9.31256 14.1008 6.24924
O 5.71217 12.4801 6.59361
O 8.87942 16.5885 6.30914
O 8.01879 15.1164 8.20066
O 9.8793 10.6271 7.78351
O 6.8963 16.2452 10.1373
O 9.34768 11.9742 10.1021
Si 10.1488 12.9031 5.42646
Si 12.6687 8.42162 5.45711
Si 11.79 15.2651 9.38403
Si 13.8099 10.9028 9.12391
Si 11.3585 10.694 7.15883
Si 14.1539 15.406 7.10877
O 11.4874 13.8868 10.1906
O 13.5384 9.56073 10.0362
O 12.6697 11.1621 8.14857
O 0.532397 15.4067 7.56448
O 11.9078 9.37122 6.43261
O 13.9165 14.1712 5.97693
O 11.2657 11.7574 6.10076
O 13.4974 16.7729 6.57115
O 13.0263 15.2576 8.33171
O 0.271778 10.8418 8.74711
O 11.906 16.6261 10.211
O 13.9074 12.2795 10.201
Si 14.9421 4.45816 11.038
Si 2.39942 0.343974 10.8735
Si 1.15286 6.79563 14.7976
Si 3.85699 2.00204 14.7768
Si 1.11717 2.15049 13.0022
Si 3.74101 6.74283 12.8488
O 0.780873 5.48124 15.7091
O 3.55036 0.589466 15.474
O 2.686 2.27146 13.6687
O 5.19319 7.03478 13.5429
O 1.37416 1.07898 11.8228
O 3.813 5.24621 12.282
O 0.640764 3.34294 12.1282
O 3.37074 7.8 11.4825
O 2.54514 6.90484 13.8164
O 5.19263 1.86622 13.9866
O 1.53618 8.21593 15.4419
O 3.96551 3.60952 15.4868
Si 4.57424 4.35818 11.1701
Si 7.8003 17.3421 10.8867
Si 6.34705 6.8062 14.6685
Si 8.978 2.31811 14.7889
Si 6.44154 2.24798 12.9657
Si 8.79985 6.77812 12.7024
O 5.96477 5.60241 15.7922
O 8.21592 1.28197 15.7096
O 7.81533 2.77556 13.7027
O 10.0567 6.80286 13.7846
O 6.99175 0.932577 12.0167
O 8.90406 5.51779 11.8122
O 5.63447 3.41406 12.1051
O 8.533 8.2246 11.8738
O 7.60094 6.48174 13.7386
O 10.1042 1.58415 13.9172
O 6.63774 7.88869 15.6745
O 9.79722 3.57217 15.4283
Si 10.0016 4.52752 11.2055
Si 12.7163 0.424265 11.1138
Si 11.3294 6.51802 14.745
Si 13.7421 2.27911 14.918
Si 11.2598 2.22448 12.9198
Si 13.6898 6.46119 12.9753
O 11.1773 5.62972 15.9689
O 13.1706 1.15784 15.816
O 12.6882 2.3268 13.5235
O 15.0436 6.76672 13.791
O 11.3721 1.17327 11.7467
O 13.9831 5.50221 11.6969
O 10.7043 3.61851 12.315
O 13.2009 7.86145 12.1345
O 12.3186 5.9133 13.624
O 14.9784 2.24794 14.116
O 12.136 7.73583 15.3915
O 13.6095 3.79791 15.7183
Si 15.0372 13.2681 10.9309
Si 2.47478 8.96197 10.824
Si 1.58032 15.0046 14.8052
Si 3.69172 10.8266 14.8984
Si 1.20054 11.2857 12.7518
Si 3.64712 15.0966 12.7905
O 1.2201 13.7859 15.7876
O 3.65764 9.80131 16.0812
O 2.28907 11.2935 13.9717
O 4.71114 15.4099 13.9863
O 1.76027 10.102 11.7368
O 4.31097 14.0993 11.7428
O 0.836091 12.4207 11.8039
O 3.12965 16.4257 11.9509
O 2.55184 14.4059 13.7712
O 4.77224 10.3204 13.9306
O 1.78476 16.2675 15.8206
O 3.92915 12.2504 15.7373
Si 5.216 13.0996 10.8949
Si 7.54132 8.87965 10.834
Si 6.29616 15.0774 14.9524
Si 8.54522 10.7846 14.7572
Si 5.93666 10.6714 12.8556
Si 8.6639 14.8808 12.8289
O 5.86823 13.883 15.8371
O 8.56711 9.60577 15.822
O 7.30931 10.8325 13.9146
O 9.8101 15.3169 13.9668
O 6.36262 9.70645 11.7531
O 9.22033 13.9068 11.712
O 5.99119 12.118 12.0623
O 8.63934 16.3591 11.8888
O 7.35629 14.6859 13.7789
O 9.76685 10.3348 13.5552
O 6.62612 16.4382 15.6382
O 9.16355 12.0052 15.4867
Si 10.3055 13.0098 10.9965
Si 12.6285 8.73469 10.9661
Si 11.2316 15.0188 14.6998
Si 13.7609 11.0783 14.858
Si 11.2545 10.8272 12.9967
Si 13.8671 15.4843 13.0177
O 11.0872 13.7308 15.5296
O 13.5602 9.9343 16.1289
O 12.3409 10.8389 14.1705
O 0.156129 15.4347 13.8986
O 11.9195 9.86408 11.9315
O 14.1727 14.2689 11.8708
O 10.9008 12.3852 12.3994
O 13.527 16.9928 12.311
O 12.4947 15.1369 13.6397
O 15.0341 10.8772 13.6829
O 11.5228 16.334 15.5091
O 14.2896 12.4385 15.2628
324
 Atoms. Timestep: 6000
Si 0.38493 4.37704 16.4354
Si 2.68737 17.3508 0.161597
Si 0.914521 6.68376 3.74567
Si 3.56178 2.15336 3.52877
Si 1.13163 2.07909 1.89604
Si 3.46809 6.16857 2.09746
O 0.366655 5.58935 4.71506
O 3.85487 0.966673 4.59496
O 1.98147 2.37371 3.07728
O 4.48388 6.38343 3.23544
O 1.56706 0.730219 1.04697
O 3.93452 5.11201 1.12524
O 1.44775 3.35145 0.706585
O 3.32632 7.69855 1.2327
O 2.03479 5.84329 2.75015
O 4.49766 2.06997 2.21861
O 2.12419 7.69466 4.53715
O 4.23158 3.46313 4.32714
Si 4.83928 4.46883 16.4662
Si 7.51004 0.197351 16.3644
Si 6.04345 6.45362 3.79461
Si 8.82467 2.11323 3.72159
Si 6.15159 2.17886 1.79434
Si 8.59147 6.53597 2.03654
O 6.03671 5.30046 4.8598
O 8.82364 1.06914 4.69111
O 7.28228 2.15096 2.99505
O 9.86762 6.97758 2.99221
O 6.46034 1.1924 0.530553
O 9.11429 5.20858 1.27042
O 6.10289 3.58482 0.855122
O 8.31572 7.82926 1.10777
O 7.30799 6.40323 2.85986
O 9.9506 2.02954 2.60846
O 6.38843 7.986 4.34111
O 8.95133 3.57677 4.59902
Si 9.96772 4.40019 16.3805
Si 12.5339 17.3509 16.456
Si 11.3106 6.61289 3.84978
Si 13.7786 2.11067 3.43562
Si 11.0767 2.08245 1.52658
Si 13.8195 6.58146 1.69854
O 10.9992 5.2096 4.56698
O 13.6413 0.776931 4.34006
O 12.3369 2.26347 2.55041
O 14.7888 7.21859 2.81475
O 11.3762 0.89074 0.605594
O 14.5458 5.14835 1.07422
O 10.844 3.42026 0.661908
O 13.517 7.65975 0.592669
O 12.5411 6.47139 2.73027
O 14.7991 1.92643 2.49387
O 11.6257 7.96423 4.75882
O 14.4699 3.10945 4.72779
Si 0.19735 13.1432 16.2959
Si 2.36333 8.73741 0.297248
Si 1.35737 15.3223 3.54481
Si 3.88486 11.1901 3.41914
Si 1.33052 11.2901 1.76523
Si 3.96074 14.9908 1.92959
O 0.579316 14.2317 4.5378
O 3.33432 9.91891 4.30213
O 2.39298 11.9532 2.77855
O 5.05628 15.4899 2.95213
O 1.74068 9.89623 1.15569
O 4.68419 13.8601 0.955551
O 1.02412 12.2764 0.627281
O 3.64294 16.111 0.819786
O 2.60371 14.7037 2.82179
O 4.81956 10.9711 2.14811
O 2.02772 16.5909 4.38632
O 4.56314 11.9484 4.61954
Si 5.26557 12.9519 16.2817
Si 7.53666 8.63975 0.0135024
Si 6.44339 15.2279 3.56183
Si 8.62907 10.5848 3.93052
Si 6.36913 10.9128 1.74166
Si 8.88134 15.347 1.77948
O 6.38055 13.9021 4.56066
O 8.4673 9.43801 5.00838
O 7.5104 11.0089 2.89732
O 9.88505 15.6442 2.89331
O 6.44663 9.46706 0.947513
O 9.26559 14.2814 0.572862
O 6.49516 11.9575 0.43884
O 8.39407 16.8347 0.845032
O 7.54786 14.7942 2.5601
O 10.056 10.6162 2.84833
O 7.06356 16.4565 4.43067
O 8.96779 11.8714 4.84526
Si 10.1628 13.0473 0.0110408
Si 12.3906 8.54072 16.3658
Si 11.292 15.1442 3.61028
Si 13.9461 10.7349 3.75855
Si 11.2594 10.8991 1.84922
Si 13.9671 15.0627 1.70602
O 10.9427 13.9392 4.63964
O 13.7241 9.47087 4.58596
O 12.7638 10.9742 2.73802
O 0.166116 15.8597 2.44643
O 11.4704 9.29991 0.98487
O 14.6421 13.9564 1.02679
O 11.0311 12.0234 0.841067
O 13.2806 16.201 0.658183
O 12.5851 14.635 2.53985
O 0.0613052 11.1027 2.66589
O 11.8264 16.4495 4.1853
O 13.8818 12.069 4.76723
Si 15.0857 4.33808 5.59717
Si 3.14555 17.4501 5.41602
Si 1.34169 6.77305 9.36287
Si 3.91925 2.02121 9.11961
Si 1.62372 2.12588 7.11422
Si 3.60988 6.84128 7.30509
O 1.08918 5.34808 10.0238
O 3.19615 0.904977 9.95302
O 2.87934 2.60362 8.0755
O 4.87598 6.90289 8.47166
O 2.07581 0.846416 6.37072
O 4.10329 5.70374 6.27597
O 1.03423 3.64776 6.55647
O 3.64819 8.22233 6.50835
O 2.4576 6.82293 8.20088
O 5.34257 1.39431 8.38504
O 1.50353 7.79102 10.3818
O 4.41325 3.14283 10.2605
Si 5.02853 4.26593 5.64123
Si 7.86633 17.2852 5.4023
Si 6.1622 6.57203 9.33805
Si 9.26806 1.76069 9.08357
Si 6.51967 2.0235 7.2754
Si 8.51941 6.39273 7.67252
O 5.62432 5.59907 10.4605
O 8.76233 0.806654 10.1863
O 7.84662 2.08721 8.01452
O 9.66557 6.97383 8.67972
O 6.79195 1.08323 6.00926
O 9.20131 5.35437 6.64974
O 5.71189 3.35498 6.60722
O 7.91949 7.29131 6.41405
O 7.3108 5.88616 8.45143
O 10.292 1.60293 7.93398
O 6.74091 7.73387 10.3016
O 9.52369 3.04956 9.72089
Si 9.89824 4.54788 5.49288
Si 12.6177 17.3876 5.2171
Si 11.1394 6.67374 9.03212
Si 14.0242 2.2427 9.01305
Si 11.4354 2.19183 7.13643
Si 13.8567 6.52594 7.39795
O 11.1712 5.54497 10.1692
O 13.6229 1.19521 10.2374
O 12.627 2.3142 8.18448
O 15.0454 6.72914 8.4775
O 11.9079 1.08729 6.07881
O 13.8504 5.07495 6.59446
O 10.9479 3.51465 6.33555
O 13.9209 7.80853 6.45978
O 12.3667 6.41152 8.12726
O -0.0500366 1.68995 7.79113
O 11.6149 7.92978 9.81936
O 14.436 3.51428 9.94532
Si 14.8552 13.122 5.43817
Si 2.73482 8.96359 5.38356
Si 1.15991 15.2143 8.98491
Si 3.78149 10.743 9.33159
Si 1.09968 10.8294 7.46859
Si 3.97323 15.2806 7.31194
O 1.02046 14.2798 10.2981
O 3.17877 9.97638 10.3574
O 2.41737 10.8772 8.31221
O 5.2714 15.6906 8.23545
O 1.52277 9.68502 6.2453
O 4.32833 14.0037 6.3652
O 0.728272 12.1487 6.49083
O 3.8582 16.3365 6.15221
O 2.69897 14.9921 8.3847
O 4.9947 10.3467 8.51789
O 1.39134 16.5826 10.0164
O 4.19762 12.1273 9.92976
Si 5.39991 13.1508 5.49713
Si 7.27909 8.46594 5.59419
Si 6.30766 15.5065 9.45986
Si 8.58947 10.7625 9.28871
Si 6.00605 10.6311 7.46002
Si 9.02571 15.2913 7.60771
O 5.99112 14.184 10.272
O 8.29026 9.73749 10.4316
O 7.38704 10.9925 8.3496
O 10.0857 16.0911 8.6258
O 6.62743 9.34728 6.69917
O 9.47929 13.9643 6.81033
O 5.91971 12.0313 6.65808
O 8.78837 16.2999 6.38792
O 7.73505 15.1212 8.64508
O 10.0629 10.2164 8.42822
O 6.63735 16.869 10.1833
O 9.10617 12.0446 10.1572
Si 10.1327 12.9374 5.60688
Si 12.7994 8.71636 5.665
Si 11.2787 15.4686 9.415
Si 13.8263 11.1203 9.5562
Si 11.419 10.7159 7.56478
Si 13.506 15.1936 7.40311
O 11.0248 14.0487 10.1784
O 13.5571 9.75885 10.6599
O 12.3 11.5523 8.95293
O 14.7684 14.9945 8.19941
O 12.2941 9.58632 6.87837
O 13.9022 13.9064 6.46183
O 11.0542 11.6546 6.39683
O 13.3194 16.459 6.34257
O 12.2973 15.1963 8.29547
O 15.0067 10.4952 8.49271
O 11.8908 16.581 10.4331
O 14.4142 12.4265 10.2354
Si 0.55885 4.22976 10.8621
Si 2.56813 17.1823 10.8024
Si 1.37433 6.75805 14.6466
Si 3.63462 2.05163 14.8439
Si 1.25127 1.93028 12.7491
Si 3.81105 6.67197 12.6682
O 0.814959 5.53361 15.4867
O 3.64969 0.839734 15.9976
O 2.29131 2.3126 13.9917
O 5.29557 6.42733 13.3806
O 1.79205 0.650809 11.9774
O 3.46639 5.52471 11.6759
O 1.47361 3.16542 11.6388
O 3.50393 8.13655 12.0892
O 2.81386 6.41235 13.9526
O 4.80789 1.63925 13.6695
O 1.66478 7.81727 15.8701
O 3.96017 3.42834 15.5633
Si 4.57118 4.61455 10.9523
Si 7.57121 0.387424 11.2259
Si 6.3743 6.31807 14.6949
Si 8.57579 2.50363 14.4571
Si 5.84921 2.50833 12.964
Si 8.94806 6.09468 12.7896
O 5.66075 5.73191 15.9018
O 8.17993 1.098 15.2069
O 7.24926 2.93109 13.6646
O 10.3332 6.06477 13.4513
O 6.73294 1.52548 11.8093
O 9.09773 4.97594 11.6749
O 5.21205 3.75354 12.3253
O 8.53012 7.66002 12.3988
O 7.86785 5.80774 13.8934
O 9.82318 2.38343 13.4925
O 6.83417 7.80667 15.3337
O 8.83786 3.57695 15.6409
Si 10.2658 4.30715 10.8235
Si 12.6722 0.272875 11.269
Si 11.5027 6.27796 14.5629
Si 13.9728 2.19487 14.7085
Si 11.3327 2.51032 12.9171
Si 13.9867 6.35735 12.8033
O 11.0236 5.23445 15.6535
O 13.5253 0.943796 15.8596
O 12.5585 2.61756 13.9278
O 0.135976 7.11109 13.7544
O 11.7518 1.10454 12.1013
O 14.8095 5.1379 12.0242
O 11.2201 3.60776 11.7747
O 13.2288 7.44546 12.0308
O 12.9862 5.98646 14.0486
O 14.7358 1.92766 13.3643
O 11.7644 7.54361 15.5143
O 14.505 3.28165 15.7757
Si 0.108577 13.2474 11.208
Si 2.45153 8.97787 11.179
Si 1.35602 15.4792 14.5199
Si 3.53194 10.7942 14.8738
Si 0.977544 10.8978 13.073
Si 3.80891 14.8343 12.7904
O 0.97441 14.2445 15.4611
O 3.2203 9.53325 15.8457
O 2.08596 11.0174 14.283
O 5.2359 15.4189 13.3645
O 1.54201 9.88873 12.0403
O 4.1418 13.4863 12.248
O 0.639942 12.1411 12.1881
O 3.46338 15.9179 11.4179
O 2.33343 14.8422 13.5479
O 4.48147 10.6079 13.6058
O 2.113 16.402 15.5508
O 4.15637 12.0359 15.8968
Si 5.04786 13.1335 10.9795
Si 7.64737 8.69945 11.5849
Si 6.20759 15.2536 14.582
Si 8.35708 11.02 15.0373
Si 5.95488 10.8237 12.9721
Si 8.78811 15.1194 12.9192
O 5.65816 13.8895 15.0734
O 8.3532 9.69288 15.9589
O 6.97507 11.3001 14.2744
O 10.1259 15.0915 13.7227
O 6.52865 9.56833 12.4686
O 9.13088 13.9844 11.752
O 5.82282 12.0102 11.9857
O 8.12302 16.6779 12.2596
O 7.61874 14.9516 13.9478
O 9.42093 10.5244 13.6267
O 6.26778 16.4082 15.6322
O 8.97166 12.0966 15.8781
Si 10.153 13.0176 10.8697
Si 12.3733 8.65667 11.1048
Si 11.6072 14.9572 14.5555
Si 13.502 11.01 14.6579
Si 10.7444 10.8108 12.928
Si 14.0025 15.5497 12.9578
O 11.0348 13.91 15.536
O 13.1742 9.81556 15.8347
O 12.009 10.9552 14.0481
O 14.9695 16.1401 14.0229
O 11.3729 9.52586 11.9534
O 14.8582 14.5462 12.1484
O 10.8163 12.0887 11.94
O 13.5861 16.871 12.1712
O 12.9184 14.6737 13.5351
O 14.607 10.4963 13.7349
O 11.6974 16.3137 15.3229
O 14.1526 12.3299 15.42
324
 Atoms. Timestep: 6500
Si 15.1082 4.19111 0.103855
Si 2.65824 17.3482 0.303987
Si 1.10266 6.72883 3.36145
Si 3.97597 2.24694 3.85915
Si 1.32443 2.19048 2.27086
Si 3.72439 6.5213 1.71621
O 0.579741 5.37952 4.30498
O 3.6831 0.918539 4.83154
O 2.68431 2.52073 2.95896
O 5.0938 6.53455 2.39083
O 1.80087 0.929583 1.32106
O 3.96224 5.55417 0.355831
O 0.711914 3.36576 1.36316
O 3.50674 8.0455 1.35707
O 2.40297 6.30888 2.63122
O 5.42984 2.24177 3.03958
O 1.34741 7.85617 4.42487
O 4.30039 3.30329 4.95031
Si 4.97026 4.38849 16.3167
Si 7.70653 0.0840061 0.361253
Si 6.40093 6.36899 3.33644
Si 9.09229 2.21656 3.68945
Si 6.59462 2.55267 1.90632
Si 9.06092 6.60492 1.6317
O 6.1762 5.42563 4.60431
O 8.5156 1.11842 4.7346
O 7.98324 2.78201 2.69857
O 10.289 6.82914 2.74297
O 7.16164 1.42331 0.976604
O 9.44744 5.69848 0.385175
O 5.82536 3.63176 0.983995
O 8.35465 7.95476 0.737507
O 7.71997 6.27591 2.67201
O 10.1748 1.70475 2.52284
O 6.16776 7.81165 4.37024
O 9.73565 3.35632 4.53549
Si 10.2154 4.34184 16.3806
Si 12.8801 -0.0670389 0.200429
Si 11.5316 6.59205 3.52936
Si 13.6652 2.11621 3.78673
Si 11.4148 2.28973 1.76123
Si 13.7296 6.17463 1.60051
O 11.3773 5.469 4.82743
O 13.5146 0.944337 4.80592
O 12.5801 2.39623 2.7334
O 0.0582179 6.59458 2.14616
O 11.7216 0.968949 0.850243
O 13.8717 4.96825 0.639982
O 10.8742 3.54923 0.919197
O 13.0962 7.40324 0.751497
O 12.6107 5.73148 2.71754
O -0.0138573 1.95699 3.02862
O 12.1354 7.85432 4.23453
O 13.7552 3.30184 4.83805
Si 14.9964 13.1843 0.167044
Si 2.54045 8.811 0.169365
Si 1.30347 15.4485 3.97714
Si 3.75361 10.9231 3.99378
Si 1.54024 11.0922 1.90076
Si 3.8331 15.1248 1.99472
O 1.12144 14.302 5.07143
O 3.11398 9.70794 4.71605
O 2.66738 11.5027 2.95964
O 5.15697 15.0359 2.86735
O 1.89691 10.0144 0.871812
O 3.81866 14.1114 0.776434
O 0.767069 12.2949 0.962404
O 3.37452 16.5323 1.3313
O 2.53302 15.0149 2.86009
O 4.88406 10.6817 3.03665
O 1.70317 16.8915 4.48872
O 4.58311 11.9074 5.02289
Si 4.66521 13.1886 16.1827
Si 7.52324 8.97545 16.4375
Si 6.48247 14.966 3.78017
Si 8.26914 10.903 3.57286
Si 5.84317 10.8765 1.81627
Si 8.85898 15.0303 2.09277
O 6.30525 13.6886 4.73964
O 7.79523 9.73046 4.33516
O 7.33095 11.3726 2.37944
O 10.0358 15.6404 3.03021
O 6.4251 9.54379 1.0251
O 9.56679 14.019 1.02323
O 5.26978 11.9715 0.907988
O 8.22235 16.3603 1.40674
O 7.85444 14.541 3.18953
O 9.78211 10.7363 2.68818
O 6.7867 16.5074 4.45339
O 8.64989 12.0948 4.67063
Si 10.1963 13.0421 16.2766
Si 12.2521 8.53458 16.5168
Si 11.2986 15.1786 4.03371
Si 13.7814 11.1566 3.37337
Si 11.0756 11.0029 1.71428
Si 13.8804 15.2142 2.14443
O 10.5991 14.0422 5.09956
O 13.2627 10.1737 4.46925
O 12.4085 11.4083 2.51561
O -0.143343 15.3713 3.20356
O 11.6545 9.49517 1.09898
O 13.9987 14.2399 0.973528
O 10.9229 11.8643 0.459689
O 13.4808 16.9583 1.66879
O 12.4677 14.7063 3.13729
O 0.000140371 10.8378 2.58269
O 11.8047 16.3391 4.95346
O 14.3683 12.4809 4.28448
Si 14.7966 4.32115 5.38406
Si 2.60223 17.3852 5.73103
Si 1.25413 6.65572 9.05072
Si 3.59681 2.34548 9.33127
Si 1.09523 1.95498 7.23281
Si 3.71212 6.41113 7.24316
O 0.830516 5.44932 10.1361
O 3.28728 0.914956 10.0427
O 2.20011 2.57511 8.3142
O 4.91335 7.17291 8.28843
O 1.68334 0.572206 6.92738
O 4.29793 5.14206 6.49549
O 0.933804 3.43154 6.12439
O 3.20452 7.35543 6.11487
O 2.62182 6.17874 8.48307
O 4.88451 2.25931 8.25907
O 1.56028 7.96522 10.0499
O 4.26116 3.59482 10.2085
Si 5.4809 4.5593 5.51114
Si 7.32098 0.103009 5.58515
Si 6.36271 6.94346 8.93597
Si 8.806 2.17709 9.03822
Si 6.17039 2.30194 7.28907
Si 8.86305 6.75753 7.13894
O 6.27599 5.54539 9.951
O 8.46435 1.13693 10.2068
O 7.37922 2.38937 8.34347
O 10.0884 7.11447 8.18823
O 6.13806 0.819024 6.2897
O 9.40156 5.42765 6.42652
O 6.31574 3.44833 6.23773
O 8.39285 7.80444 5.78925
O 7.42699 6.70194 7.70218
O 9.92426 1.53719 8.12712
O 6.74814 8.12314 10.0235
O 9.30213 3.62876 9.75736
Si 10.3521 4.42913 5.46509
Si 12.7225 17.3796 5.78712
Si 11.3618 6.84326 9.18064
Si 13.6972 2.30028 9.23003
Si 11.1678 2.11738 7.38269
Si 13.779 6.74816 7.19694
O 10.9296 5.58327 10.2134
O 13.4223 1.04747 10.1574
O 12.1849 2.59479 8.64551
O 15.0852 6.95465 8.15081
O 11.7524 0.793124 6.62273
O 13.9994 5.3623 6.30968
O 10.8677 3.29005 6.54047
O 13.6479 7.96809 6.11185
O 12.7755 6.49228 8.36272
O 14.6861 1.81412 7.9252
O 11.8659 8.04255 10.1694
O 14.6222 3.20083 10.01
Si 0.193057 13.0544 5.42243
Si 2.3425 8.48907 5.50572
Si 1.18409 14.9787 9.40913
Si 3.8267 10.8511 9.32407
Si 1.41133 10.699 7.41155
Si 3.56864 14.8722 7.56617
O 1.32497 13.7149 10.1939
O 3.54201 9.55016 10.4301
O 2.60612 11.2903 8.30493
O 4.38746 15.4181 8.87406
O 1.6882 9.1609 6.70112
O 4.54952 13.9172 6.77408
O 0.997898 11.7846 6.20997
O 3.19305 15.9436 6.39311
O 2.00602 14.7663 8.07629
O 5.09366 10.4576 8.71918
O 1.98596 16.1172 10.3269
O 4.11301 12.2832 9.90521
Si 5.46781 13.0168 5.99203
Si 7.22876 8.63765 5.17905
Si 5.92891 15.2493 9.3124
Si 8.9201 10.816 9.29454
Si 6.27458 10.4914 7.64782
Si 8.30281 15.125 7.39892
O 5.70867 14.0665 10.3789
O 8.66582 9.66695 10.5296
O 7.71389 10.6905 8.2566
O 9.3015 15.3658 8.62446
O 6.66252 9.32944 6.57902
O 8.65073 13.7785 6.45437
O 6.07797 11.8351 6.84586
O 8.0142 16.4689 6.6418
O 6.97682 14.9453 8.04044
O 10.2812 10.4535 8.63541
O 6.56924 16.5456 9.89756
O 9.08639 12.1739 9.99411
Si 9.60765 12.9142 5.67142
Si 12.5758 9.12884 5.25472
Si 10.7739 15.2356 9.03497
Si 13.9345 10.9534 9.02729
Si 11.187 10.8041 7.39015
Si 13.6203 15.0159 7.51267
O 10.9081 13.8095 9.88611
O 13.769 9.58881 9.95895
O 12.5957 11.3543 8.20901
O 14.5037 15.3666 8.88789
O 11.8336 9.62256 6.46365
O 14.0166 13.5472 6.63047
O 10.3919 11.853 6.49559
O 13.6953 16.3937 6.63417
O 12.0824 15.0484 7.89533
O 15.0903 10.6408 8.08524
O 11.2745 16.5688 9.77854
O 14.5597 11.9473 10.0899
Si 0.132885 4.30564 11.0605
Si 2.64722 17.3575 10.9747
Si 1.57935 6.45501 14.9734
Si 3.87911 2.05752 14.6942
Si 1.16092 2.0179 12.7064
Si 3.94541 6.44681 12.8527
O 0.876175 5.3496 15.9624
O 3.55787 0.932227 15.823
O 2.30759 2.10517 13.9095
O 5.24136 7.12493 13.6181
O 1.7261 0.786543 11.8777
O 4.6123 5.25787 11.959
O 1.16673 3.34176 11.9947
O 3.29215 7.57623 11.9041
O 2.87767 5.98957 13.9986
O 4.96344 1.88785 13.5714
O 1.68005 7.69116 15.9033
O 4.31574 3.32252 15.4389
Si 5.63587 4.40578 10.891
Si 7.65341 -0.040797 10.7517
Si 6.47828 6.63633 14.4741
Si 8.78564 1.99029 14.7651
Si 6.25707 1.92495 12.787
Si 8.83962 6.27384 12.511
O 6.1046 5.46958 15.6209
O 8.75698 0.677886 15.7464
O 7.46939 2.13701 13.8728
O 10.3643 6.85178 13.2181
O 6.5591 0.749014 11.8904
O 8.81044 4.97752 11.5917
O 6.36209 3.32185 11.8213
O 8.60912 7.38005 11.4786
O 7.79149 6.13005 13.5955
O 9.83076 1.9683 13.5517
O 7.03928 8.00984 15.0362
O 9.14178 3.23643 15.8804
Si 10.0257 4.59798 10.7268
Si 12.3815 0.0106405 10.6962
Si 11.0906 6.48447 14.4654
Si 13.8099 2.20156 14.6812
Si 11.125 2.39155 12.7385
Si 14.083 6.62711 12.9321
O 10.8746 5.05955 15.0496
O 13.74 0.955953 15.709
O 12.2311 2.39484 13.9191
O 0.280448 6.82356 13.9961
O 11.4266 1.04139 11.772
O 14.3323 5.18311 12.0935
O 10.84 3.8018 11.8769
O 13.6875 7.83457 12.0835
O 12.7476 6.41568 14.0414
O 14.7968 1.88486 13.4311
O 11.2409 7.62548 15.6751
O 14.3744 3.27174 15.7043
Si 0.40898 12.8578 11.0295
Si 2.39654 8.6331 11.2789
Si 1.2565 15.3787 14.633
Si 3.80862 10.6081 14.6927
Si 1.0466 10.6407 13.1023
Si 3.81505 15.2903 13.0303
O 0.524842 14.2924 15.6175
O 3.61444 9.38923 15.7259
O 2.36154 10.8516 14.0652
O 5.16035 15.6997 13.9569
O 1.32559 9.35095 12.1393
O 4.19126 13.9257 12.1678
O 1.01765 11.7103 12.0672
O 3.50731 16.3571 12.0581
O 2.7523 15.2465 14.0279
O 4.98828 10.3424 13.8224
O 1.61439 16.3119 16.2712
O 4.04459 12.2222 15.1829
Si 4.81191 13.0378 11.1063
Si 7.69894 8.62375 11.2106
Si 6.47426 15.5127 14.9774
Si 8.56725 11.0987 14.3293
Si 6.21435 10.585 12.9466
Si 8.92135 15.2156 12.8222
O 5.90236 14.1879 15.7743
O 8.08784 10.1801 15.5119
O 7.35315 11.5175 13.5192
O 10.2956 15.5343 13.7968
O 7.05775 9.29352 12.4023
O 9.0498 14.0626 11.7482
O 5.62898 11.6025 11.7574
O 8.39771 16.3153 11.7351
O 7.9294 15.2549 13.9507
O 10.0197 10.243 13.5841
O 6.57955 16.6927 16.127
O 9.39861 12.3451 15.1101
Si 9.94813 13.0258 10.8993
Si 12.8203 8.86936 11.047
Si 11.4463 15.4136 14.8369
Si 13.5275 10.9809 14.6776
Si 11.1787 10.9997 12.8639
Si 13.925 15.3693 12.5549
O 11.1481 14.1719 15.7853
O 12.8381 9.72565 15.4588
O 12.2791 11.7097 13.928
O 0.0342855 15.7052 13.6267
O 12.0599 9.93502 11.8997
O 14.5421 13.9338 11.8115
O 10.6526 12.1628 12.0312
O 13.3568 16.3602 11.4123
O 12.7613 15.3709 13.7349
O 14.6205 10.5269 13.6605
O 12.2622 16.4959 15.829
O 14.182 12.1135 15.85
324
 Atoms. Timestep: 7000
Si 0.278378 4.4563 16.0951
Si 2.40541 0.0896547 0.0541495
Si 1.29386 6.06485 3.25382
Si 3.6757 2.36299 3.59219
Si 1.20711 2.35815 1.82477
Si 3.93584 6.63964 1.70951
O 0.732908 4.80722 3.9863
O 2.98441 1.19219 4.56425
O 2.76924 2.56156 2.45149
O 5.2828 6.88455 2.62648
O 1.82045 1.02373 1.20951
O 4.46168 5.77262 0.399591
O 1.05219 3.67297 0.757488
O 3.39637 7.96617 0.834032
O 2.84223 5.74033 2.56071
O 5.23523 1.92377 3.2226
O 1.57922 7.19212 4.4058
O 4.1659 3.53372 4.67996
Si 5.19046 4.41369 16.4446
Si 7.62094 0.103971 0.255062
Si 6.4806 6.34744 3.41237
Si 8.73556 2.21551 3.81468
Si 6.36731 2.24836 1.97869
Si 8.89291 6.63503 1.64335
O 6.33748 5.00091 4.32464
O 8.15698 0.930045 4.56637
O 7.6392 2.74453 2.80417
O 10.3121 6.48853 2.24559
O 6.73729 1.0227 1.06509
O 9.20408 5.68446 0.526093
O 5.93438 3.38126 0.954215
O 8.66282 8.18548 1.0187
O 7.58244 6.16488 2.23381
O 10.1502 1.89417 3.0562
O 7.01086 7.56945 4.5095
O 9.09399 3.25388 4.99455
Si 10.3318 4.57163 16.4845
Si 12.6251 0.128276 0.0904647
Si 11.4392 6.36782 3.55037
Si 13.8391 2.21385 3.79837
Si 11.3384 2.25055 1.93344
Si 13.8257 6.21223 1.64015
O 11.0022 5.14467 4.46418
O 13.666 0.853214 4.55883
O 12.615 2.63092 2.95885
O 0.256925 6.51404 2.09778
O 11.6607 1.17795 0.795817
O 13.9969 5.23697 0.392757
O 11.0852 3.77683 1.0414
O 13.2366 7.72095 1.01856
O 12.943 5.86868 3.06388
O 15.0797 2.06204 2.68614
O 11.8369 7.74143 4.44283
O 14.0697 3.19768 5.01764
Si 0.000116504 13.0246 0.231108
Si 2.61288 8.87687 16.3013
Si 1.12652 15.5327 3.98071
Si 3.67149 10.4624 3.67788
Si 1.12887 10.7604 1.8292
Si 3.61258 15.4356 1.81802
O 1.01867 14.1433 4.85137
O 3.0832 9.10847 4.28452
O 2.4702 10.6892 2.57067
O 4.97787 15.4394 2.49057
O 1.51636 9.62059 0.738953
O 3.59181 14.2868 0.488504
O 1.09087 12.2068 1.07016
O 3.55509 16.75 0.898111
O 2.3897 15.1007 2.96338
O 5.06875 10.2869 2.8392
O 1.67919 16.6476 4.95406
O 3.68859 11.8557 4.71411
Si 4.6923 13.2477 16.5403
Si 7.76385 8.72845 16.5387
Si 6.02618 15.1272 3.58848
Si 8.31617 11.139 3.56859
Si 6.06981 10.9399 1.76492
Si 8.73865 15.0835 2.39314
O 5.48851 13.9852 4.51864
O 8.53599 9.62973 4.25659
O 7.14316 11.4172 2.72599
O 9.92711 15.5544 3.33769
O 6.79933 9.78823 0.766162
O 9.11836 14.0098 1.28322
O 5.41664 12.0876 0.829828
O 8.25816 16.3698 1.36037
O 7.40508 14.9128 3.09552
O 9.77811 11.0659 2.46737
O 6.22093 16.5518 4.45924
O 9.03765 12.1251 4.51076
Si 9.97082 13.1844 0.134629
Si 12.5335 8.78959 16.5065
Si 11.4878 15.344 4.15366
Si 13.692 11.0777 3.67146
Si 11.2379 11.1667 1.77104
Si 13.7873 15.2995 1.96264
O 11.2776 13.8273 4.62102
O 13.5882 9.69981 4.65326
O 12.2871 11.2841 3.00801
O 0.00931143 15.768 2.84661
O 11.7771 9.80247 1.02893
O 14.2108 13.8703 1.47737
O 10.8701 12.0927 0.620048
O 13.5043 16.4729 0.888931
O 12.6366 15.4892 3.15843
O 14.7432 10.6631 2.48991
O 11.6195 16.6396 5.03204
O 14.2631 12.4877 4.38842
Si 14.9904 4.47155 5.44083
Si 2.29542 0.437449 5.69882
Si 1.22112 6.28383 9.15367
Si 3.73204 2.08999 9.29123
Si 0.968005 2.50903 7.62144
Si 3.71871 6.32118 7.14773
O 0.475505 5.09374 10.0325
O 3.83375 0.767804 10.0612
O 2.27014 2.51409 8.5624
O 4.76133 6.70945 8.51621
O 1.43366 1.34298 6.60819
O 4.51999 5.31213 6.33358
O 0.759509 3.78351 6.67332
O 3.06118 7.44028 6.34303
O 2.45072 6.07427 8.12443
O 4.75517 2.04493 8.12358
O 1.65136 7.49009 10.2943
O 4.1759 3.34059 10.3284
Si 5.33565 4.19554 5.46645
Si 7.19505 -0.078952 5.33204
Si 6.22027 6.37648 9.06939
Si 8.61653 1.99206 9.29454
Si 6.05314 1.72575 7.37306
Si 8.78131 6.58001 7.3319
O 6.17539 5.37069 10.1765
O 8.40403 0.656595 10.0596
O 7.24946 1.92401 8.40536
O 10.0049 6.69685 8.44178
O 6.41367 0.426786 6.68282
O 9.41063 5.53916 6.40588
O 6.22873 3.02469 6.42396
O 8.50729 8.08289 6.579
O 7.4643 6.30417 8.00737
O 9.7594 2.04755 8.05584
O 6.73062 7.65864 9.83842
O 8.98824 3.1771 10.1841
Si 10.3211 4.29499 5.59061
Si 12.8153 17.4195 5.67693
Si 11.4213 6.30577 9.07439
Si 13.5519 2.08221 9.63337
Si 11.2332 2.16935 7.62012
Si 13.8157 6.60291 7.32243
O 10.8595 4.87365 9.84392
O 13.9214 0.821534 10.6619
O 12.2562 2.008 8.81834
O 0.141106 6.81021 8.14135
O 11.8938 0.989603 6.58267
O 14.2692 5.65733 6.14613
O 10.9658 3.51009 6.70275
O 13.05 7.86665 6.62701
O 12.6814 5.88855 8.2577
O 14.744 2.42553 8.3676
O 11.7675 7.3527 10.2408
O 13.6884 3.28748 10.6246
Si 0.127312 13.0868 5.60982
Si 2.10075 8.37606 5.41171
Si 0.908356 15.2352 9.32077
Si 3.84397 10.9071 9.00617
Si 1.50459 10.7553 7.29571
Si 3.38563 15.3708 7.4501
O 0.895282 13.9359 10.2486
O 3.08705 9.76303 9.82755
O 2.86995 11.4562 7.74972
O 4.5834 15.4039 8.6326
O 1.61216 9.51483 6.3555
O 3.55347 14.175 6.40046
O 0.63758 11.7468 6.30937
O 2.91149 16.8056 6.86462
O 1.93817 14.8546 8.27789
O 5.28108 10.5785 8.40338
O 1.59584 16.4212 10.198
O 4.15552 12.1098 10.035
Si 4.48453 13.0947 5.533
Si 7.72437 8.91487 5.52663
Si 6.10045 15.4168 9.12679
Si 8.72188 11.1808 9.3102
Si 6.30939 11.1548 7.41009
Si 8.64726 15.3387 7.13376
O 5.94744 13.8878 9.83938
O 8.23876 9.8008 9.93356
O 7.76133 11.7407 8.17416
O 9.98663 15.5509 8.14159
O 6.8137 10.1116 6.26115
O 8.99728 14.0253 6.22114
O 5.38678 12.2748 6.70169
O 8.25467 16.2993 5.98761
O 7.33118 15.2218 8.09601
O 10.1513 11.0515 8.56705
O 6.69353 16.4646 10.069
O 9.22475 11.995 10.4995
Si 9.93996 13.0489 5.51398
Si 12.4175 8.8072 5.48427
Si 11.243 15.2083 9.05098
Si 13.9457 10.8762 9.09902
Si 11.4154 10.9294 7.4444
Si 13.8861 14.9476 7.60477
O 10.7551 14.2527 10.2479
O 13.3209 9.7165 10.0472
O 12.779 11.2427 7.97722
O 14.547 15.7652 8.81925
O 11.3588 9.74561 6.37437
O 14.6462 13.9908 6.8065
O 10.7467 12.2304 6.52168
O 13.6546 16.1406 6.27807
O 12.4649 14.4917 8.148
O 0.290974 10.5074 8.32815
O 12.0397 16.5412 9.557
O 14.0745 12.3308 9.98014
Si 14.7654 4.34839 11.2812
Si 2.75031 0.11091 10.8195
Si 1.41174 6.64794 14.5692
Si 3.5749 2.22477 14.5531
Si 1.36253 2.34782 12.6996
Si 4.04268 6.85042 12.8542
O 1.29429 5.49312 15.6344
O 2.81317 1.05586 15.342
O 2.41956 2.71127 13.6175
O 5.37633 7.14524 13.9198
O 2.00209 1.38939 11.4985
O 4.40319 5.57031 11.9168
O 0.81434 3.67619 12.0145
O 3.80389 8.0349 11.9668
O 2.79878 6.25757 13.7761
O 4.80728 1.9143 13.6345
O 2.00276 8.12446 15.0385
O 4.31868 3.2627 15.7759
Si 5.12509 4.44457 11.1582
Si 7.60587 17.2137 11.0736
Si 6.51598 6.44355 14.8652
Si 9.06292 2.05194 14.6699
Si 6.26061 1.96374 12.8473
Si 8.81238 6.37622 12.9293
O 6.26164 5.17501 15.6685
O 8.50556 1.00512 15.7153
O 7.55174 2.38995 13.9777
O 9.92261 6.6458 14.0045
O 6.7921 0.865419 11.8085
O 9.22021 5.31208 11.93
O 6.06631 3.45612 11.9748
O 8.37933 7.73039 12.0771
O 7.60264 5.96262 13.8953
O 9.90895 1.58034 13.529
O 6.99812 7.65432 15.8284
O 9.63208 3.42297 15.5056
Si 10.0955 4.20195 11.085
Si 12.8611 17.0162 10.8758
Si 11.3178 6.83671 14.7642
Si 14.1211 2.14725 14.5164
Si 11.3418 1.6651 12.7983
Si 13.921 6.72451 12.9578
O 11.3695 5.38861 15.6313
O 13.9632 1.16917 15.9824
O 12.6624 1.86908 13.8852
O 0.130243 6.5791 13.706
O 11.8565 0.395907 11.8594
O 13.9492 5.26895 12.0588
O 11.1401 3.06647 12.0329
O 13.7596 7.95798 11.9625
O 12.6289 6.69319 13.8005
O 0.163613 1.60146 13.5269
O 11.3175 8.14008 15.9368
O 14.6471 3.60827 14.9233
Si -0.0150486 12.81 11.0888
Si 2.682 8.54713 10.9298
Si 1.11537 15.2175 14.8682
Si 3.77032 11.1368 14.5867
Si 1.24758 10.4933 12.7496
Si 3.57378 15.383 12.9328
O 0.747111 13.9118 15.5627
O 3.48891 10.0794 15.6606
O 2.54543 11.4324 13.58
O 4.99487 15.6005 13.6678
O 1.49279 9.33099 11.856
O 4.12496 14.0614 11.833
O 0.599548 11.5199 11.8697
O 3.4791 16.689 12.0842
O 2.40779 15.0895 13.7679
O 5.07764 10.9628 13.8172
O 1.47769 16.2531 16.006
O 3.95896 12.5554 15.2829
Si 5.01167 13.1535 11.0181
Si 7.3845 8.66834 10.9017
Si 6.25505 15.3468 14.9577
Si 9.04642 10.8456 14.4883
Si 6.41916 10.939 12.8333
Si 8.69957 14.909 13.1376
O 5.72221 14.3139 16.1544
O 8.5229 9.67268 15.3658
O 7.89739 11.0061 13.4049
O 9.85083 15.6245 13.9014
O 6.42275 9.71227 11.8779
O 8.99889 13.4913 12.3951
O 5.89889 12.2306 11.9381
O 8.35817 16.118 11.8654
O 7.4755 14.7775 14.0307
O 10.6521 10.9051 14.0677
O 6.691 16.571 15.7626
O 8.85529 12.215 15.604
Si 10.2224 13.0052 11.2067
Si 12.5426 8.56927 11.1034
Si 11.2262 15.5309 14.7173
Si 14.2245 10.6894 14.8391
Si 11.749 10.9313 12.8832
Si 13.9611 14.8952 12.9813
O 10.744 14.3508 15.9032
O 13.6808 9.43226 15.6102
O 13.1323 10.9418 13.6352
O 14.9186 15.5435 13.9877
O 11.9153 9.43219 12.2987
O 14.7179 13.6903 12.2464
O 11.2505 12.0257 11.8669
O 13.5248 15.6924 11.6014
O 12.5227 15.0718 13.6218
O 0.470582 10.2097 14.1435
O 11.7468 16.8649 15.5431
O 14.031 11.9849 15.8865
324
 Atoms. Timestep: 7500
Si 0.0573388 4.42822 16.4247
Si 2.21305 17.3955 16.0462
Si 1.54983 6.61827 3.78913
Si 3.54703 2.26275 3.67979
Si 1.03176 1.86422 1.52437
Si 4.09505 6.9136 1.96583
O 1.19482 5.50064 5.04159
O 3.06039 1.06027 4.55347
O 2.31423 2.52664 2.53843
O 5.46025 7.27283 2.64735
O 1.01308 0.725552 0.398194
O 4.28949 5.63635 1.1072
O 0.895867 3.2877 0.478733
O 3.56206 8.11939 1.09316
O 2.92565 6.59458 2.98426
O 4.80235 1.77088 2.92283
O 1.5666 7.9535 4.60079
O 4.09879 3.47511 4.67541
Si 5.01629 4.52445 0.0513937
Si 7.27633 0.110319 16.4537
Si 6.27254 6.90107 4.02757
Si 8.69035 2.05534 3.86444
Si 6.10409 2.17996 1.85503
Si 8.71495 6.64205 2.29264
O 5.3694 5.77117 4.60086
O 8.41771 0.589664 4.41612
O 7.47492 2.26141 2.75928
O 10.168 6.79664 2.99914
O 6.3123 0.974804 0.779485
O 8.94999 5.37163 1.36656
O 5.62305 3.46695 1.19906
O 8.37457 7.88687 1.2982
O 7.66924 6.20777 3.40948
O 9.70979 2.0358 2.5595
O 6.69405 8.12892 4.744
O 8.84413 3.20517 4.90717
Si 9.93104 4.5118 0.365712
Si 12.5525 0.137325 16.5073
Si 11.3775 6.08544 3.78252
Si 13.9154 2.29135 3.53598
Si 11.1589 2.24567 2.02074
Si 13.9677 6.46154 1.97006
O 10.6571 4.71075 4.3348
O 13.8447 1.16938 4.7133
O 12.3169 2.34346 3.00968
O 0.360003 6.61808 2.78687
O 11.6165 1.01476 1.00923
O 14.6948 5.65549 0.757162
O 11.1255 3.63161 0.9635
O 13.6252 7.73675 1.17292
O 12.5774 5.82616 2.8321
O 14.7332 1.88564 2.14189
O 11.5263 7.11009 5.00511
O 14.7163 3.70586 4.2608
Si 0.138733 13.1025 16.2426
Si 2.59895 8.82176 0.0479478
Si 1.05815 15.263 3.59862
Si 3.71 10.6436 3.81487
Si 1.11135 11.01 2.08919
Si 3.49045 15.619 1.85765
O 0.900591 13.8581 4.37172
O 3.94261 9.47011 4.86211
O 2.35399 11.0881 3.17896
O 4.66006 16.0768 2.72654
O 1.67005 9.80722 1.10195
O 4.38273 14.228 1.39276
O 0.643158 11.9694 0.730847
O 3.01885 16.598 0.663264
O 2.3505 15.5488 2.89454
O 5.00783 10.4501 2.87822
O 1.14682 16.4406 4.67112
O 4.01846 12.0767 4.51583
Si 5.05672 13.1508 0.376647
Si 7.54907 8.76397 0.235952
Si 5.95165 15.5123 3.39787
Si 9.09985 10.8638 3.7352
Si 6.34924 10.7857 2.03946
Si 8.49025 15.2626 1.70955
O 5.55574 13.8257 3.95442
O 8.9027 9.9526 4.91139
O 7.88945 10.7475 2.53407
O 10.0699 15.3863 2.2729
O 6.39952 9.72398 0.874189
O 8.67652 13.8311 0.940009
O 5.99917 12.2636 1.21149
O 8.13424 16.4049 0.508268
O 7.39009 15.2368 2.76408
O 10.3638 10.5202 2.73048
O 6.32969 16.3145 4.74858
O 9.03356 12.37 4.42088
Si 9.9985 13.0928 0.261511
Si 12.9291 8.78553 16.5284
Si 11.3521 15.3763 3.40368
Si 13.7862 10.758 3.84339
Si 11.6839 10.9972 1.90686
Si 13.7855 15.2191 1.41708
O 10.8954 14.132 4.27199
O 13.1346 9.38807 4.56696
O 12.7059 11.4283 3.02325
O 14.989 15.2765 2.45184
O 12.2078 10.0652 0.778861
O 14.1242 14.0729 0.281396
O 10.9299 12.4497 1.19169
O 13.4265 16.4956 0.595306
O 12.5797 14.8965 2.52453
O 0.0556228 10.2691 3.10767
O 11.7063 16.6804 4.237
O 14.3457 11.874 4.84675
Si 15.0284 4.64406 5.68032
Si 2.14133 17.3372 5.55746
Si 1.4363 6.37038 9.34268
Si 3.86312 2.12102 9.09163
Si 1.26311 2.28439 7.67014
Si 3.99134 6.46077 7.63072
O 0.693735 5.13064 10.0474
O 3.12431 0.692392 9.57876
O 2.51833 2.7837 8.40533
O 5.28498 6.59678 8.34281
O 1.59836 1.01557 6.67148
O 3.90447 5.19004 6.58559
O 0.691252 3.56064 6.81175
O 3.31229 7.75074 6.61495
O 2.78565 6.17974 8.56247
O 5.22679 2.18984 8.1374
O 1.71806 7.7801 10.1631
O 4.24446 2.83928 10.5001
Si 4.8818 4.52374 5.36268
Si 7.41052 17.2745 5.49401
Si 6.56504 6.18417 9.34287
Si 8.88284 2.07645 9.21092
Si 6.41102 2.33886 6.98378
Si 8.67581 6.77802 7.26447
O 5.85619 4.93462 10.0786
O 7.9846 1.04732 10.0646
O 7.80738 2.62044 7.98183
O 10.1935 6.75703 8.17308
O 6.65516 0.978426 6.29871
O 8.81088 5.43495 6.209
O 6.05428 3.64147 6.03943
O 8.43011 8.00641 6.52886
O 7.78221 6.31533 8.47996
O 10.1656 1.49443 8.35659
O 6.7204 7.30112 10.5777
O 9.14682 3.3145 10.173
Si 9.65522 4.21733 5.81489
Si 12.2542 0.15141 5.38403
Si 11.4499 6.27904 9.12517
Si 13.6685 1.94744 9.43732
Si 11.3082 2.01027 7.39148
Si 13.9469 6.63348 7.29801
O 11.005 4.87505 9.86811
O 12.9714 0.708438 10.2209
O 12.5203 2.11358 8.21712
O 0.29369 6.58945 8.0181
O 11.2258 1.08132 6.12639
O 13.7973 5.54708 6.04177
O 10.5014 3.48625 6.7277
O 13.5716 7.96296 6.6144
O 12.8952 6.23711 8.36128
O 15.0196 1.89725 8.6858
O 11.6641 7.31879 10.34
O 14.0355 3.19503 10.458
Si 0.214878 13.0658 5.61345
Si 2.59521 8.79143 5.54573
Si 1.2779 15.1799 9.05594
Si 3.77862 10.8186 8.99551
Si 1.39838 10.9864 7.28796
Si 3.79148 15.0866 7.19111
O 0.537135 13.9794 10.0232
O 3.86425 9.28659 9.69839
O 2.29547 11.1597 8.54646
O 5.08142 15.6529 7.74546
O 1.72628 9.92392 6.26708
O 4.16314 13.7269 6.50957
O 1.30708 12.4664 6.65267
O 3.04361 16.1919 6.22614
O 2.61362 14.8869 8.44455
O 4.97195 11.0493 8.01448
O 1.37934 16.5131 9.99993
O 4.08922 11.8441 10.1343
Si 4.99396 13.0668 5.30921
Si 7.84672 9.08127 5.58229
Si 5.98599 15.1744 9.06179
Si 8.46357 10.8398 9.14759
Si 6.31268 11.2683 7.21578
Si 8.87185 15.1582 7.6018
O 5.44935 14.0545 10.0303
O 7.997 9.36725 9.8189
O 7.44181 11.6079 8.31975
O 10.2605 15.5574 8.11308
O 6.78774 9.94414 6.43024
O 9.28723 13.9162 6.67538
O 6.17238 12.3301 6.03118
O 8.14019 16.3108 6.57146
O 7.52652 14.9953 8.48391
O 9.79262 10.5263 8.14561
O 6.06398 16.4039 10.0317
O 8.99065 11.9551 10.3318
Si 10.0658 13.1832 5.38362
Si 12.3468 8.33074 5.63433
Si 11.4527 15.2351 9.19257
Si 13.615 10.6525 8.94583
Si 11.1037 10.8259 7.11988
Si 13.9761 15.4746 7.33668
O 10.8242 13.8555 9.81051
O 13.1405 9.34476 9.67887
O 12.336 11.3163 8.10164
O 0.301336 15.5318 7.84732
O 11.3771 9.36349 6.47241
O 14.2251 14.2728 6.17572
O 11.0497 11.9411 5.96708
O 13.2096 16.6996 6.34063
O 12.7382 15.1499 8.32233
O 14.8393 10.7118 7.90567
O 11.561 16.0202 10.6903
O 14.0229 11.8793 10.0556
Si 14.9913 4.2826 11.2601
Si 2.4525 0.0026096 10.8178
Si 1.47916 6.63716 14.5983
Si 3.8979 2.48822 14.8773
Si 1.52695 2.30219 12.919
Si 3.79842 6.24993 12.6789
O 0.911022 5.23612 15.2668
O 3.23357 1.12991 15.5531
O 2.82477 2.65071 13.7218
O 4.92106 6.53027 13.7626
O 1.95676 1.12765 11.9174
O 4.36759 4.8496 12.064
O 0.848196 3.51133 12.2216
O 3.36954 7.31677 11.6468
O 2.37438 6.08803 13.4829
O 5.40112 2.20903 14.2534
O 1.92761 7.51986 15.775
O 3.91651 3.80719 15.6577
Si 5.15493 3.82155 11.2077
Si 6.93462 17.1692 10.9825
Si 6.39453 6.35823 14.6267
Si 9.10526 2.16015 15.0635
Si 6.57998 1.84926 13.0949
Si 9.13109 6.58548 12.8849
O 6.01324 5.27388 15.668
O 8.28193 1.20514 15.9847
O 8.03263 1.86928 13.6881
O 10.4042 6.90349 13.916
O 6.14954 0.674823 12.1198
O 9.51583 5.35607 11.9187
O 6.35747 3.13009 12.0648
O 8.77367 7.86067 11.964
O 7.77952 6.43594 13.7726
O 10.5049 2.20084 14.4409
O 6.70607 7.86339 15.6557
O 9.15427 3.58653 15.7655
Si 10.0938 4.24464 11.0869
Si 12.4667 17.0252 11.4586
Si 11.4989 6.62008 14.9946
Si 13.9682 2.32685 14.5743
Si 11.4118 2.04829 13.0797
Si 14.0215 6.94911 12.9313
O 11.0294 5.5992 16.2118
O 13.5702 1.19584 15.3695
O 12.9153 2.5034 13.5105
O 0.220289 7.43699 13.7064
O 11.5647 0.649268 12.3768
O 14.2014 5.5798 12.0207
O 10.6628 3.10282 12.0191
O 13.5238 8.15786 11.8254
O 12.8313 6.45468 14.0501
O 0.320112 1.77847 13.9479
O 12.0576 8.02751 15.5605
O 14.0568 3.65371 15.5842
Si 14.9376 12.9573 10.9826
Si 2.78406 8.71688 10.8562
Si 1.16624 15.0192 14.5971
Si 4.0878 11.0947 14.8091
Si 1.61096 10.9845 12.5191
Si 3.55233 15.0458 12.7198
O 1.33011 14.0793 15.793
O 3.39538 9.78655 15.7056
O 3.03916 11.4909 13.6241
O 5.03206 14.8849 14.0165
O 2.08831 9.98282 11.476
O 4.0141 13.9187 11.809
O 0.842543 12.2724 12.0153
O 3.47344 16.4864 11.7932
O 2.19531 14.7601 13.354
O 5.30477 10.5555 13.8604
O 1.6435 16.5525 14.9356
O 4.2228 12.4083 15.7752
Si 4.9948 12.9583 10.9313
Si 7.53154 8.52671 11.108
Si 6.20289 15.2315 14.8024
Si 9.10581 10.9209 14.7406
Si 6.59823 10.9994 13.0581
Si 8.51964 15.022 12.7969
O 6.06481 14.4548 16.2211
O 8.54908 9.73389 15.7004
O 7.67507 11.5348 13.9987
O 9.63252 15.7271 13.8457
O 7.20255 9.62782 12.2923
O 9.15376 14.0216 11.7738
O 6.12574 12.1379 11.8349
O 8.00053 16.2278 11.8392
O 7.34653 14.7182 13.8454
O 10.3213 10.4415 13.7696
O 6.55684 16.7874 15.1047
O 9.68533 12.0727 15.6392
Si 10.0764 12.9827 10.9299
Si 12.401 8.59366 10.8403
Si 10.7573 15.3642 14.7856
Si 14.2423 10.7531 14.4617
Si 11.3577 10.7881 12.738
Si 13.5542 14.8028 13.2705
O 10.441 14.3781 15.9113
O 13.8367 9.66464 15.5262
O 12.8402 11.1493 13.568
O 14.692 14.8417 14.3996
O 11.4579 9.59577 11.5217
O 13.9562 13.7037 11.9278
O 10.8335 12.0652 11.9523
O 13.6779 16.1574 12.2459
O 11.9988 14.9144 13.8278
O 0.488849 10.3623 13.6804
O 11.4969 16.7831 15.6844
O 14.5308 12.1423 15.1935
324
 Atoms. Timestep: 8000
Si 15.0229 4.51088 0.163272
Si 2.34093 17.456 16.4066
Si 1.43913 6.59695 4.13774
Si 3.64461 2.01753 3.76667
Si 1.03179 2.06441 2.00307
Si 3.76575 6.71786 2.08801
O 0.881116 5.1679 4.61009
O 3.35989 0.916009 4.9879
O 2.30727 2.1347 2.86004
O 5.08819 7.26124 3.09096
O 1.54256 0.984433 0.867097
O 4.35445 5.27209 1.34279
O 0.923778 3.40966 1.05271
O 3.49689 7.63988 0.63805
O 2.64229 6.67535 3.0935
O 5.0411 1.69458 2.92623
O 1.79826 7.64773 5.36121
O 3.74742 3.53369 4.50409
Si 4.88136 4.32985 0.145697
Si 7.73654 0.123194 16.2741
Si 6.14355 6.56233 4.08801
Si 9.04453 2.17321 3.52134
Si 6.20883 1.88612 1.80252
Si 8.5765 6.74196 2.07134
O 5.47198 5.14412 4.58658
O 8.74952 1.15179 4.75136
O 7.51478 2.0601 2.81248
O 9.97911 6.91018 2.80176
O 6.5801 0.902815 0.669401
O 9.01691 5.39244 1.18718
O 5.75332 3.22277 0.886472
O 8.0591 7.89418 1.08392
O 7.4864 6.39384 3.1492
O 9.98961 1.57288 2.4473
O 6.74517 7.49313 5.22081
O 9.38565 3.46542 4.39884
Si 9.92056 4.55596 0.055206
Si 12.4605 17.3002 16.1338
Si 11.2185 6.87304 3.86431
Si 13.6454 2.31013 3.43224
Si 11.1594 2.05132 1.44872
Si 13.8043 6.77426 2.18016
O 10.8316 5.5399 4.7456
O 13.1542 1.21294 4.48054
O 12.2576 2.77038 2.71088
O 0.0249323 6.90852 3.19061
O 11.8132 0.902102 0.609698
O 14.0603 5.43685 1.32415
O 10.7393 3.2322 0.562428
O 13.8283 7.90844 0.992586
O 12.5918 6.61979 3.16151
O 14.7292 1.72313 2.61734
O 11.6221 8.01325 4.92876
O 14.5032 3.25884 4.48448
Si 14.9591 12.997 16.3594
Si 2.48648 8.45837 16.3449
Si 1.13575 15.1058 3.24571
Si 3.80617 10.9054 3.65104
Si 1.29924 10.8438 1.78502
Si 3.54112 15.2043 1.90509
O 0.502483 13.9055 4.35352
O 3.38314 9.86655 4.76633
O 2.4737 11.2109 2.91699
O 4.72896 15.9041 3.042
O 1.8534 9.69719 0.881482
O 4.52972 14.2266 1.14002
O 1.04962 12.313 0.978525
O 3.0267 16.3808 0.809862
O 2.18237 14.5946 2.29476
O 5.1986 10.7129 2.73771
O 1.72182 16.3174 4.28383
O 4.0435 12.3067 4.49861
Si 5.30163 13.1974 0.101895
Si 7.54153 8.76669 16.4458
Si 6.19459 15.4998 3.86311
Si 9.06782 10.8175 3.74118
Si 6.55994 10.9421 1.72419
Si 8.5513 15.2301 1.6071
O 5.84335 14.2645 4.80435
O 8.48354 9.48768 4.69164
O 7.85888 10.8259 2.77161
O 9.91087 15.6898 2.63559
O 6.73489 9.85361 0.557068
O 9.25087 14.0017 0.949216
O 6.21594 12.1637 0.779996
O 8.42899 16.4889 0.649032
O 7.34949 15.093 2.78383
O 10.4372 10.6218 2.90003
O 6.80858 16.5985 4.75819
O 9.26585 12.1385 4.54584
Si 9.98255 12.924 16.4641
Si 12.7878 8.72809 0.0121159
Si 11.0958 15.5234 3.64635
Si 13.8905 10.6169 3.88443
Si 11.7441 11.0246 1.97839
Si 13.4039 15.02 1.48883
O 10.9064 14.2756 4.71805
O 13.6862 9.31017 4.63482
O 12.7857 11.3522 3.05942
O 14.8878 15.3499 2.31083
O 12.1456 9.69913 1.22794
O 13.6775 13.5834 0.796207
O 10.9297 11.8783 0.623806
O 13.0872 16.0243 0.346391
O 12.3258 15.143 2.53472
O 14.9245 10.4942 2.5053
O 11.4151 16.866 4.34696
O 14.554 11.6372 4.89084
Si 0.315993 4.2661 5.64024
Si 2.46941 17.048 5.4791
Si 1.3903 6.89631 9.50273
Si 3.68961 1.95244 9.07582
Si 1.22508 1.95886 7.13164
Si 3.93846 6.85501 7.54929
O 0.85384 5.67054 10.5226
O 3.33876 0.775881 10.1256
O 2.37821 2.11716 8.15871
O 5.43154 6.50508 7.88136
O 1.60113 0.579759 6.47816
O 3.78893 5.42914 6.56047
O 1.10993 3.11976 6.23826
O 3.6184 8.34126 6.76397
O 2.88713 6.93685 8.79722
O 4.99273 1.44148 8.26768
O 1.37558 8.23961 10.3278
O 4.14972 3.40361 9.72167
Si 4.45459 4.33151 5.60812
Si 7.73353 0.244273 5.54907
Si 6.52175 6.26433 9.07943
Si 8.47514 2.4523 9.195
Si 6.12263 2.21362 7.34869
Si 9.06678 6.25862 7.23572
O 6.20365 5.02275 9.98853
O 8.0419 1.02333 10.0012
O 7.16712 2.75553 8.4172
O 10.64 6.17614 7.64468
O 6.93986 1.35132 6.38968
O 8.81301 5.01172 6.35918
O 5.48255 3.4115 6.63368
O 8.71629 7.8574 6.79089
O 8.00186 6.24561 8.4732
O 9.56806 1.79061 8.17804
O 6.39738 7.55243 10.0071
O 9.22508 3.59495 10.2122
Si 10.1199 4.32 5.5462
Si 12.3265 -0.0159593 5.44698
Si 11.6757 6.34914 9.05356
Si 13.6913 2.24741 8.99411
Si 11.0061 2.01267 7.40466
Si 14.1942 6.48002 7.49898
O 11.146 5.37452 10.1039
O 13.2753 1.04735 10.0599
O 12.2878 2.39753 8.40621
O 0.261678 6.93247 8.46214
O 11.7272 0.78102 6.6203
O 14.8739 4.98754 6.94722
O 11.0184 2.97327 6.13533
O 13.4179 7.52915 6.53439
O 13.0511 5.87754 8.44836
O 14.9415 1.85054 8.02376
O 11.6646 7.80153 9.62655
O 14.2943 3.52915 9.99489
Si 14.8769 13.0706 5.59256
Si 2.4329 8.92682 5.94418
Si 0.968342 14.9473 8.95326
Si 3.72872 10.8677 9.17729
Si 1.16653 11.1541 7.64862
Si 3.80087 15.2288 7.4876
O 0.661243 13.7439 9.72499
O 3.55659 9.46519 9.87354
O 2.28987 11.2383 8.64677
O 5.06024 15.6925 8.51393
O 1.34145 9.76365 6.87715
O 3.93769 13.8039 6.65276
O 0.873005 12.4728 6.67404
O 3.49558 16.1638 6.23687
O 2.56934 14.9942 8.48651
O 4.82076 10.686 8.10693
O 1.10233 16.507 9.92629
O 4.6172 11.9027 10.1261
Si 4.94489 13.1076 5.47378
Si 7.75972 8.63255 5.8375
Si 6.43285 15.2767 9.38178
Si 8.87254 10.8854 9.32324
Si 6.16831 10.8528 7.54259
Si 8.76627 15.2744 7.34706
O 6.05023 13.8798 9.90712
O 8.67719 9.51624 10.3017
O 7.40792 11.0071 8.73934
O 9.91567 15.2229 8.39617
O 6.83217 9.64296 6.67645
O 9.04008 14.3655 6.05359
O 5.79254 11.9797 6.45271
O 8.39363 16.6614 6.57914
O 7.3976 15.0655 8.22956
O 9.73619 10.7471 7.99983
O 6.78287 16.3508 10.5412
O 9.54264 11.9746 10.2145
Si 9.97647 13.2458 5.32525
Si 12.761 8.66277 5.71191
Si 11.2725 15.162 9.37149
Si 13.3642 10.8056 9.41456
Si 11.2086 10.9344 7.2699
Si 13.5235 15.0354 7.11988
O 11.061 14.3161 10.5903
O 13.5723 9.37114 10.0816
O 11.8835 10.8692 8.67069
O 14.9649 15.1836 7.70582
O 11.8534 9.90269 6.30579
O 13.6878 13.8646 6.12036
O 10.6825 12.3337 6.47429
O 13.0545 16.0884 5.98316
O 12.4935 14.6962 8.48676
O 14.7506 11.0946 8.3298
O 11.5136 16.7685 9.68172
O 13.6947 12.0105 10.3085
Si 0.0632218 4.32298 10.9902
Si 2.33511 17.0532 11.1026
Si 1.30301 6.47491 14.7027
Si 3.78645 2.13426 14.9357
Si 1.37135 2.0656 12.7709
Si 3.81024 6.503 12.8156
O 0.841694 5.71294 15.9448
O 3.42077 0.840185 15.7941
O 2.71366 2.60559 13.7212
O 5.11624 6.72277 13.6106
O 1.78482 0.674608 12.1469
O 4.08158 5.2394 11.7035
O 0.97391 3.21155 11.7264
O 3.46372 7.76409 11.851
O 2.60568 6.07132 13.8083
O 5.25525 2.06922 14.2401
O 1.55081 7.96476 15.3595
O 4.01427 3.49064 15.7747
Si 4.97545 4.31141 10.7635
Si 7.53998 0.139021 11.1586
Si 6.37505 6.47909 14.7606
Si 9.09892 2.44564 14.6879
Si 6.30961 2.40554 13.017
Si 8.98453 6.78579 13.036
O 5.61251 5.30734 15.5403
O 8.59618 1.35809 15.7235
O 7.79316 2.65731 13.3619
O 10.1827 7.24516 13.9709
O 6.7608 0.892599 12.1737
O 9.205 5.63969 12.0602
O 5.69114 3.30466 11.8492
O 8.16577 7.85665 12.2746
O 7.79373 6.48379 14.0854
O 10.3829 2.12658 14.0095
O 6.69257 7.7044 15.6859
O 9.03168 3.9603 15.37
Si 10.1356 4.4687 11.1623
Si 12.2805 0.218469 10.9019
Si 11.335 6.88892 14.9627
Si 14.119 2.20708 14.7476
Si 11.4945 2.4001 12.9444
Si 13.7684 6.27116 12.8415
O 10.9651 5.61169 15.856
O 13.4894 0.92827 15.5566
O 12.9303 2.47868 13.5067
O 0.0269381 6.46986 13.6197
O 11.5333 1.21465 11.7374
O 13.9363 4.90824 11.9807
O 10.9058 3.539 12.1256
O 13.3934 7.4905 11.7811
O 12.4827 6.33836 13.9236
O 0.389642 1.86341 13.8641
O 11.6691 7.96538 15.9815
O 14.3573 3.52946 15.6159
Si 14.9185 12.8932 10.8425
Si 2.63872 8.86333 11.0182
Si 1.19015 15.1868 14.424
Si 3.90373 11.009 14.7605
Si 1.52915 11.2138 12.7913
Si 3.73957 14.8745 12.7654
O 0.645884 14.2623 15.7272
O 3.39796 9.62069 15.4609
O 2.74774 11.6114 13.903
O 4.81429 15.6651 13.8042
O 2.13722 9.9239 12.0492
O 4.49117 13.5229 12.0872
O 1.03104 12.0405 11.6215
O 3.34759 15.8635 11.596
O 2.14998 14.5805 13.4
O 5.19431 10.7772 13.9333
O 1.70879 16.4723 15.0583
O 4.04877 12.2548 15.7778
Si 5.53423 12.907 10.9785
Si 7.36606 8.52991 11.0053
Si 6.19116 15.4609 14.3476
Si 9.0251 10.5538 14.7466
Si 6.45936 10.8615 13.0309
Si 8.79646 15.3924 12.4879
O 6.06863 14.0792 15.3983
O 8.83731 9.4796 15.8817
O 7.71389 10.6719 13.8931
O 9.84916 15.2546 13.6599
O 6.45547 9.70273 11.8846
O 8.91076 14.0156 11.6493
O 6.44695 12.2357 12.1701
O 8.97936 16.8594 11.7452
O 7.3515 15.3165 12.9758
O 10.2639 10.2913 13.9315
O 7.01786 16.777 15.1674
O 9.14231 11.8253 15.5688
Si 10.2134 13.0541 11.3133
Si 12.4868 8.52565 10.8955
Si 11.1468 14.9559 14.4686
Si 14.1208 10.5995 14.6643
Si 11.4818 10.7449 12.9445
Si 13.7896 15.3323 12.7932
O 10.7979 13.7308 15.3487
O 13.5801 9.39579 15.548
O 12.8158 11.1049 13.7902
O 15.0873 15.8273 13.5194
O 12.0053 9.60489 12.0547
O 14.301 14.0425 11.9311
O 10.8978 12.2663 12.3726
O 13.0744 16.4863 11.8512
O 12.5477 14.9047 13.7873
O 0.345381 10.7342 13.7338
O 11.5016 16.5302 15.2672
O 14.3238 11.8706 15.5219
324
 Atoms. Timestep: 8500
Si 0.059206 4.11623 0.256547
Si 2.62971 0.0670449 0.325637
Si 1.13469 6.75618 3.71984
Si 4.09308 2.07764 3.91595
Si 1.3382 1.97735 2.15639
Si 3.69776 6.47114 1.71494
O 0.778652 5.41225 4.40445
O 3.90973 1.01077 4.89731
O 2.84833 2.23754 2.75438
O 4.94635 6.65341 2.5921
O 1.45146 0.715834 1.15016
O 4.00545 5.43367 0.573961
O 0.712278 3.29397 1.39921
O 3.55223 7.63322 0.712136
O 2.36029 6.51075 2.56821
O 5.39369 1.95389 3.13724
O 1.36752 7.88599 4.75083
O 3.92467 3.31522 4.80789
Si 5.0261 4.12052 -0.039625
Si 7.55691 -0.0726856 0.131307
Si 6.29636 6.3218 3.68774
Si 8.90539 2.38583 3.40952
Si 6.39256 2.19652 1.81276
Si 8.66667 6.32716 1.91413
O 5.71325 5.27033 4.66359
O 8.42227 1.25599 4.55789
O 7.72988 2.75568 2.47224
O 9.86799 6.73031 2.80361
O 6.81477 0.792088 1.20424
O 9.10441 5.09896 0.861476
O 5.54867 2.8932 0.78424
O 8.01095 7.55906 1.04197
O 7.63687 5.88654 2.95891
O 10.0547 1.7399 2.566
O 6.24821 7.57712 4.71504
O 9.5598 3.62079 4.15045
Si 10.1928 4.27441 16.4934
Si 12.6343 17.2986 16.4243
Si 11.3164 6.83431 3.65725
Si 13.7038 2.15893 3.5047
Si 11.3781 1.98535 1.71622
Si 13.5621 6.58998 1.64357
O 11.298 5.4612 4.55737
O 13.1472 0.980338 4.67597
O 12.5386 2.3128 2.51395
O 14.9068 7.10499 2.73812
O 11.6325 0.872334 0.787066
O 14.2673 5.11299 1.18308
O 11.0216 3.35361 0.824044
O 13.4624 7.73293 0.436062
O 12.2609 6.65843 2.28971
O 0.0622124 1.75063 3.00676
O 11.8635 7.96876 4.60403
O 13.975 3.41596 4.50836
Si 14.6685 13.3312 0.146456
Si 2.74615 8.53488 16.2676
Si 1.40198 15.115 3.54762
Si 3.64863 11.0929 3.76632
Si 1.26294 10.9905 1.63187
Si 3.80723 15.328 2.01852
O 1.19192 14.0136 4.68449
O 3.25107 9.86755 4.71685
O 2.45652 11.4041 2.66292
O 4.91993 15.3868 2.9773
O 2.00354 9.63471 0.829219
O 4.36673 14.3335 0.911603
O 0.745001 12.2853 0.682972
O 3.76727 16.747 1.1952
O 2.35332 14.7504 2.35855
O 5.16429 10.8801 3.05041
O 2.38944 16.3558 4.35133
O 4.10589 12.6406 4.56117
Si 5.0756 13.2187 -0.0517147
Si 7.31772 8.77443 0.309215
Si 6.33736 15.4345 3.71978
Si 8.64597 10.7302 3.79994
Si 6.36937 11.2506 1.92812
Si 8.72726 15.1863 1.75133
O 6.15212 14.1565 4.74908
O 8.16133 9.59646 4.76889
O 7.54925 11.5236 2.87398
O 10.092 15.2372 2.69606
O 6.80941 9.95443 1.20747
O 8.87296 13.7812 0.94701
O 5.93055 12.423 1.12278
O 8.56893 16.4866 0.910075
O 7.55862 15.1223 2.7483
O 9.86937 10.3999 2.7456
O 6.57227 16.7718 4.42429
O 9.3468 11.8531 4.75172
Si 10.064 12.8046 -0.0131691
Si 12.2272 8.70891 16.2074
Si 11.1673 15.1553 3.8343
Si 13.9744 10.9937 3.69721
Si 11.2698 10.8098 1.92286
Si 13.7358 15.3548 2.22534
O 11.0967 13.7472 4.56226
O 13.7572 9.80522 4.59381
O 12.5498 10.6433 2.77694
O 15.0486 15.5072 3.29902
O 11.446 9.61064 0.824892
O 14.102 14.2129 1.2274
O 10.8253 12.1974 1.30821
O 13.5117 16.712 1.26043
O 12.5778 15.2127 3.24044
O 0.0391649 10.9326 2.62098
O 11.3005 16.5452 4.82398
O 14.3694 12.1903 4.70571
Si 14.9797 4.36449 5.24959
Si 2.87479 17.2607 5.62175
Si 1.3789 6.53883 9.52574
Si 3.35488 2.09019 8.91328
Si 1.08369 1.97147 6.88261
Si 3.73168 6.65642 7.21464
O 0.85878 5.15769 10.1697
O 2.66925 1.09554 10.2576
O 2.22653 2.57091 7.99878
O 5.04773 6.8965 7.96437
O 1.80188 0.630987 6.34644
O 3.89687 5.30426 6.42324
O 0.983851 3.12168 5.88593
O 3.29855 7.82118 6.36329
O 2.74008 6.217 8.55395
O 4.57004 1.50037 8.15891
O 1.72277 7.77365 10.3705
O 4.04442 3.22962 9.60799
Si 4.82349 4.31148 5.60154
Si 7.32548 0.16834 5.46482
Si 6.21341 6.31348 8.94594
Si 8.5382 2.50194 9.25412
Si 5.89614 2.13769 7.45887
Si 8.78716 6.1203 7.05086
O 5.4131 5.16933 9.60327
O 8.79029 1.17998 10.0979
O 7.08819 2.36359 8.61594
O 9.80162 6.47042 8.16433
O 6.58413 1.13891 6.42701
O 9.2297 5.06414 5.96155
O 5.88041 3.35061 6.50255
O 8.69624 7.56955 6.23483
O 7.37735 5.88013 7.74244
O 10.0021 2.52656 8.44473
O 7.06615 7.33472 9.90716
O 8.74321 3.88851 10.2541
Si 10.444 4.17706 5.22424
Si 12.2358 0.0625125 5.67967
Si 11.2802 6.58599 9.04474
Si 13.733 2.29069 8.52698
Si 11.2871 2.43944 7.4298
Si 14.0637 6.61384 7.42273
O 10.9114 5.45672 10.0307
O 13.0051 1.1938 9.56846
O 12.5091 2.95094 8.06896
O 0.193045 6.9808 8.40355
O 11.6959 0.784717 7.01843
O 14.3898 5.23733 6.54214
O 11.063 3.03559 5.96478
O 13.7764 7.64036 6.19379
O 12.5575 6.63551 8.01532
O 14.7697 1.7845 7.58002
O 11.8501 7.76764 10.0085
O 14.415 3.24823 9.69262
Si 0.18766 13.1612 5.56883
Si 2.45425 8.81271 5.53679
Si 1.03909 15.2558 9.13714
Si 4.05277 10.8084 9.46363
Si 1.66654 11.0759 7.53325
Si 3.82661 14.9745 7.46913
O 0.899952 14.067 10.1297
O 3.68635 9.53095 10.4214
O 3.05364 11.1196 8.33332
O 4.70533 15.6003 8.4761
O 1.57041 9.79623 6.56057
O 4.65415 13.6778 6.8518
O 1.05995 12.337 6.65698
O 3.68583 16.193 6.39238
O 2.21485 14.9664 7.9919
O 5.33563 10.512 8.50117
O 1.33366 16.6249 10.2487
O 4.47346 12.1209 10.3238
Si 5.4242 13.0408 5.47827
Si 7.45684 8.40404 5.64505
Si 6.08422 15.4668 9.03854
Si 9.10983 10.8992 9.07381
Si 6.48669 10.6145 7.29191
Si 8.62676 15.3961 7.24219
O 5.77422 14.6107 10.4324
O 8.53296 9.71037 10.2038
O 7.90118 10.9238 7.98644
O 9.74177 15.507 8.28171
O 6.53552 9.28559 6.59183
O 9.25604 14.0758 6.34666
O 6.18141 11.7296 6.10895
O 8.1949 16.6615 6.36295
O 7.29399 15.0113 8.02975
O 10.5853 10.2652 8.63442
O 6.86169 16.8283 9.53882
O 9.4879 12.2437 9.80955
Si 10.177 12.8983 5.61132
Si 12.9764 8.7984 5.52188
Si 11.2175 15.4281 8.83085
Si 14.2424 11.0713 9.57927
Si 11.7 10.8126 7.62545
Si 13.6624 15.2948 7.1666
O 11.2949 14.0918 9.90058
O 13.9015 9.54907 10.3498
O 13.1675 11.4951 8.4128
O 14.6924 15.4838 8.39582
O 12.1111 9.66208 6.61261
O 14.3015 14.026 6.60151
O 10.8692 11.9975 6.92972
O 13.3979 16.6039 6.32493
O 12.1058 15.1395 7.43398
O 0.461871 10.7754 8.6326
O 11.7502 16.4805 10.1082
O 14.6587 12.1224 10.6586
Si 0.0419129 4.09796 10.9049
Si 2.23294 17.342 11.2723
Si 1.05348 6.39135 14.6587
Si 3.98998 1.88753 14.6022
Si 1.23375 2.18385 12.8814
Si 3.50342 6.159 13.0632
O 0.807845 4.9742 15.6706
O 3.3919 0.970349 15.8837
O 2.64807 2.29187 13.7681
O 4.64285 6.26437 14.1913
O 1.44511 0.686713 12.4062
O 3.99265 5.37963 11.7552
O 1.08916 3.17967 11.7214
O 3.28989 7.69197 12.3499
O 1.96315 5.87133 13.4965
O 5.22159 1.5204 13.7271
O 1.67646 7.62729 15.5219
O 4.26655 3.21309 15.4137
Si 4.63827 4.25898 10.7794
Si 7.71931 0.146963 10.7456
Si 6.08262 6.42174 15.1417
Si 8.89261 1.94945 14.518
Si 6.24109 2.25218 12.5899
Si 8.49952 6.59047 13.0632
O 6.20934 5.10208 16.0166
O 8.13743 0.919136 15.395
O 7.48675 2.64559 13.4641
O 9.67019 6.90977 14.0724
O 6.62954 1.00016 11.5439
O 9.25846 5.66718 11.9278
O 5.35567 3.26917 11.7476
O 8.26609 7.8941 12.0683
O 7.18639 6.19771 13.9881
O 10.106 1.51329 13.7488
O 6.46154 7.82736 15.7465
O 9.58634 3.10964 15.42
Si 9.98435 4.66086 10.9837
Si 12.4775 0.27251 10.9379
Si 11.1653 6.51086 14.4345
Si 13.8626 2.18623 14.6732
Si 11.2074 2.4188 12.8767
Si 13.6915 6.29163 12.8281
O 10.9744 5.13105 15.409
O 13.5105 0.768764 15.3426
O 12.3583 2.66177 14.0297
O 14.6096 6.50161 14.1146
O 11.8403 1.31232 11.7842
O 14.1207 5.10126 11.8132
O 10.5952 3.59361 12.0171
O 13.6331 7.70976 12.0627
O 12.1615 6.19419 13.2517
O -0.0589515 2.44393 13.7681
O 11.6603 7.54258 15.3041
O 14.1257 2.98528 16.1652
Si 0.46365 13.2694 11.2716
Si 2.5341 8.70332 11.4292
Si 0.978421 15.4368 14.8556
Si 4.03371 10.9087 14.5989
Si 1.50099 10.9581 13.1125
Si 3.46903 15.2259 13.0729
O 0.188283 14.0648 15.6005
O 3.67414 9.57856 15.336
O 2.67396 11.4177 14.1029
O 4.74627 15.7099 14.1813
O 1.83985 9.5699 12.4708
O 4.21562 14.1691 12.361
O 1.36538 12.2417 12.0029
O 2.88404 16.1637 12.0656
O 2.21836 14.9664 14.061
O 5.28702 10.8153 13.6216
O 1.64635 16.456 15.9234
O 4.68765 12.0681 15.6523
Si 5.22027 13.4086 11.34
Si 7.44617 8.72741 10.9857
Si 6.15685 15.4634 14.6627
Si 8.78295 10.5557 14.817
Si 6.48051 11.0233 12.7951
Si 8.78851 15.2562 12.8082
O 6.15588 14.1497 15.5513
O 8.34272 9.33796 15.8106
O 7.57948 10.9572 13.8892
O 9.97125 15.3203 13.9511
O 6.56184 9.79944 11.6075
O 9.35681 13.9812 11.7565
O 6.28056 12.5078 11.9514
O 8.48233 16.5057 11.8163
O 7.2602 15.0368 13.5917
O 10.1851 10.4351 13.8891
O 6.54104 16.518 15.884
O 9.2451 11.7214 15.7827
Si 10.3432 13.1261 10.7928
Si 12.8307 8.58928 10.9281
Si 11.3415 15.0066 14.7278
Si 13.7737 11.036 14.9065
Si 11.2973 10.5307 12.7887
Si 13.9068 15.6919 13.0737
O 10.9928 13.7416 15.6321
O 13.282 9.81586 15.5643
O 12.601 11.3856 13.6936
O 14.8153 16.1198 14.1674
O 11.6973 9.34354 11.8569
O 14.6987 14.3762 12.2652
O 10.9344 11.8625 11.7015
O 13.6466 16.9878 12.2286
O 12.4943 15.1503 13.7001
O 0.157861 10.9643 14.0603
O 11.9205 16.0132 15.9182
O 13.5946 12.261 15.8047
324
 Atoms. Timestep: 9000
Si 15.0237 4.04357 16.5242
Si 2.58547 0.0691338 0.110397
Si 1.15409 6.51045 3.5543
Si 3.82601 2.42169 3.64913
Si 1.26551 2.05867 2.05454
Si 3.54148 5.67579 1.83935
O 0.760475 5.34841 4.66975
O 3.5723 1.11465 4.6413
O 2.43723 2.72116 2.98204
O 4.79437 6.09748 2.76642
O 1.79194 1.08061 1.05905
O 3.94287 4.75173 0.611627
O 0.721487 3.3005 1.18379
O 3.09257 7.27736 0.930754
O 2.12156 5.75722 2.74044
O 5.13633 2.30835 2.67484
O 1.74923 7.69995 4.43293
O 4.37397 3.67068 4.55777
Si 5.07926 4.1822 16.0815
Si 7.37937 17.1356 0.322141
Si 6.18189 6.42215 3.54181
Si 8.77732 2.17747 4.04248
Si 6.40708 2.19061 1.6664
Si 8.84742 6.77583 1.85708
O 6.05896 5.19763 4.6306
O 8.24495 0.990097 4.9166
O 7.72156 2.40282 2.73616
O 9.91267 6.90397 2.96388
O 6.40882 0.696044 1.14389
O 9.35762 5.43822 0.909231
O 6.04179 3.25515 0.521784
O 8.67707 7.90436 0.818669
O 7.25364 6.32862 2.33829
O 10.2281 2.05174 3.32376
O 6.43025 7.98312 4.2118
O 9.20864 3.55536 4.99561
Si 10.0726 4.36329 16.4012
Si 12.4327 17.2976 0.107927
Si 11.1823 6.898 3.77678
Si 13.7388 2.192 3.54996
Si 11.2541 2.05875 2.02319
Si 13.8072 6.62407 1.54307
O 11.0036 5.6987 4.77717
O 13.2686 1.06948 4.73897
O 12.5787 2.41718 2.68869
O 14.8851 6.90927 2.64889
O 11.6163 0.6665 1.24733
O 13.8069 5.15173 0.952578
O 10.7586 3.24816 0.947866
O 13.4909 7.64664 0.329817
O 12.3981 6.77167 2.65668
O 15.0728 1.62181 2.9526
O 11.3096 8.28598 4.54681
O 14.111 3.48487 4.55581
Si 15.0149 13.2984 0.206458
Si 2.36314 8.27993 0.168378
Si 1.69605 15.5883 3.64311
Si 3.8524 10.9352 3.5908
Si 1.54529 10.9014 1.58637
Si 4.05412 15.0719 1.71223
O 0.988583 14.3022 4.47955
O 3.26048 9.71435 4.50665
O 2.86199 11.4071 2.45505
O 5.43286 15.3578 2.56584
O 1.95681 9.64929 0.703507
O 4.30858 13.9671 0.651947
O 0.809657 12.2368 0.901913
O 3.51756 16.3605 0.848286
O 2.91018 14.9743 2.85838
O 5.14887 10.2172 2.83335
O 2.13088 16.6645 4.57272
O 4.30521 11.9603 4.59189
Si 5.05848 12.7719 0.095487
Si 7.5561 8.69523 16.4293
Si 6.56599 15.0529 3.56517
Si 9.07288 10.7175 3.84188
Si 6.56998 10.877 2.04919
Si 8.86774 14.8465 2.03504
O 5.93062 13.9224 4.66491
O 8.55122 9.36307 4.36489
O 7.78575 10.9464 3.03644
O 9.96949 15.3476 2.93365
O 6.83504 9.81691 0.723153
O 9.24226 14.0044 0.687399
O 6.11327 12.1821 1.07618
O 8.20375 16.2216 1.31302
O 7.85963 14.1656 3.19853
O 10.5026 10.8231 2.74932
O 6.89312 16.2151 4.36584
O 9.35988 11.6698 5.11265
Si 9.97317 12.8954 16.4073
Si 12.3657 8.68509 16.3217
Si 11.1869 15.2497 3.97469
Si 14.1333 10.8125 3.55178
Si 11.7362 11.0512 1.59492
Si 13.9418 15.2489 2.12122
O 10.7956 13.9465 4.71115
O 13.4922 9.72495 4.5237
O 12.908 11.3075 2.59996
O 0.360151 15.7871 2.7667
O 11.8354 9.53805 1.05965
O 14.1025 14.0654 1.24325
O 11.0421 12.2172 0.831909
O 13.4896 16.3897 0.901756
O 12.6431 14.9249 3.16393
O 0.360322 10.4131 2.60326
O 11.736 16.4232 4.9599
O 14.6583 12.1613 4.36379
Si 14.9359 4.41163 5.50085
Si 2.79134 0.180278 5.7241
Si 1.23052 6.83889 9.16951
Si 3.83388 2.55119 9.39963
Si 1.26626 2.34155 7.49587
Si 3.746 6.80984 7.25864
O 0.747045 5.61129 10.1912
O 3.46451 1.38331 10.4217
O 2.53341 2.85765 8.54251
O 4.8764 6.94587 8.38704
O 2.02012 1.08672 6.65686
O 4.40451 5.57335 6.37102
O 1.01257 3.34748 6.34451
O 3.41049 8.18597 6.48241
O 2.3021 6.57317 7.99543
O 4.89958 1.78438 8.30196
O 1.57196 8.19186 9.77447
O 4.28428 3.81041 10.2764
Si 5.21984 4.37415 5.69945
Si 7.53651 17.1163 5.60364
Si 6.06976 6.8897 9.35884
Si 8.6652 2.29397 9.04326
Si 6.25559 2.15578 7.40885
Si 8.59326 6.46293 7.47
O 5.72963 5.77641 10.5689
O 8.84723 0.916896 10.0405
O 7.44061 2.54794 8.33194
O 10.1038 6.76013 8.18455
O 6.78487 0.787201 6.63947
O 9.29259 5.17242 6.81652
O 6.04316 3.51294 6.63733
O 7.99977 7.54385 6.39134
O 7.3957 6.46305 8.47736
O 9.77562 2.09515 7.80688
O 6.67544 8.19467 10.0403
O 9.2343 3.56444 9.83232
Si 10.2193 4.5238 5.81765
Si 12.5043 0.0973481 5.89464
Si 11.2648 6.76465 9.24111
Si 13.8248 2.10563 8.99416
Si 11.3374 2.37395 7.48393
Si 13.6027 6.44253 7.52229
O 10.7529 5.76752 10.3926
O 13.367 0.932679 10.04
O 12.3526 2.57404 8.58879
O 14.8847 6.81127 8.36122
O 11.6768 1.07459 6.67032
O 14.1683 5.13668 6.66672
O 11.1671 3.65979 6.64086
O 13.1732 7.66279 6.5204
O 12.4974 5.96081 8.51152
O 14.9836 2.09742 8.02163
O 12.1467 7.76101 10.0414
O 14.3682 3.40081 10.0841
Si 0.19971 13.1246 5.47533
Si 2.40872 8.70944 5.38918
Si 1.17834 15.2996 9.08646
Si 4.04027 10.7732 9.2786
Si 1.5926 10.8737 7.32609
Si 3.68152 15.016 7.58624
O 0.812983 14.1146 10.0857
O 3.65548 9.86945 10.4916
O 2.79624 10.9665 8.26101
O 4.80251 15.24 8.74604
O 1.42584 9.54638 6.38142
O 4.33655 13.9039 6.52265
O 1.23298 12.2137 6.30027
O 3.70337 16.5029 6.76908
O 2.25571 14.7439 8.03929
O 5.39182 10.4874 8.26061
O 1.93936 16.5524 9.69659
O 4.65797 12.3925 9.87021
Si 5.21504 12.8969 5.60817
Si 7.41113 8.64079 5.32059
Si 6.30993 15.336 9.04309
Si 8.96703 10.8978 8.90131
Si 6.61692 10.6774 7.29094
Si 8.77985 15.0337 7.24467
O 6.3364 14.2924 10.265
O 8.92439 9.65557 9.88246
O 7.96564 10.7435 7.89331
O 9.8826 15.6713 8.1847
O 6.57106 9.62098 6.13675
O 9.55258 13.6673 6.597
O 6.1542 11.9832 6.40936
O 8.46643 16.0116 6.03145
O 7.30566 14.8613 7.8882
O 10.6068 11.1033 8.41769
O 6.87047 16.7889 9.62973
O 8.76196 12.2621 9.8513
Si 10.37 12.7345 5.55349
Si 12.6852 8.78626 5.44429
Si 11.0113 15.2358 9.16791
Si 14.2493 11.0232 9.3626
Si 11.9874 10.9756 7.38059
Si 13.6043 15.091 7.55607
O 10.3841 14.211 10.115
O 14.1118 9.72273 10.3673
O 13.2133 11.0354 8.30698
O 14.807 15.5544 8.56756
O 11.9254 9.61946 6.57727
O 14.235 13.8502 6.54221
O 11.6992 12.0363 6.29051
O 13.4781 16.4013 6.58495
O 12.1859 14.4707 8.16229
O 0.51676 10.7481 8.49758
O 11.951 16.2857 10.058
O 14.3015 12.1074 10.341
Si 0.000518777 4.46674 10.8934
Si 2.40608 0.2276 10.9852
Si 0.857753 6.38045 14.8494
Si 3.68378 1.97971 14.4578
Si 0.925849 1.946 12.5807
Si 3.42981 6.86633 13.014
O 0.623975 5.07099 15.6793
O 3.75032 1.06052 15.7372
O 2.12481 1.98129 13.6179
O 4.85349 7.41237 13.7176
O 1.0354 0.674205 11.6202
O 4.163 5.28091 12.6117
O 0.897611 3.38493 11.7464
O 3.01169 7.73388 11.7755
O 2.1187 6.42568 13.8355
O 4.71661 2.02806 13.351
O 1.23495 7.62154 15.8171
O 3.97268 3.56071 15.0794
Si 5.05806 4.50301 11.4314
Si 7.99813 0.0377134 11.018
Si 6.0468 6.70206 14.5866
Si 8.51624 2.06141 14.8456
Si 6.21971 2.09666 12.8214
Si 8.46475 6.4575 12.5625
O 5.92174 5.04646 15.2426
O 8.35085 0.7269 15.8897
O 6.93737 2.087 14.0424
O 9.73976 6.64765 13.5074
O 7.07313 0.837471 11.9202
O 8.87442 5.15152 11.8252
O 6.10235 3.40168 11.9036
O 8.51871 7.8038 11.7096
O 7.1669 6.30828 13.4666
O 9.76772 1.75061 13.8199
O 6.60641 7.6147 15.6823
O 8.96261 3.38885 15.4797
Si 10.0071 4.46704 10.9773
Si 12.6338 0.0955766 11.1203
Si 11.0197 6.46114 14.6811
Si 13.7473 2.04547 14.5681
Si 11.0878 2.30585 13.0261
Si 13.5074 6.39189 12.9327
O 10.9402 5.21934 15.3978
O 13.3306 0.614068 15.5278
O 12.246 2.53945 14.1901
O 14.4798 6.65599 14.2962
O 11.5748 1.03361 11.9543
O 14.2344 5.30904 11.9546
O 10.7875 3.37113 11.9634
O 13.673 7.93655 12.2087
O 12.1903 6.07137 13.6615
O 14.6264 1.80892 13.3732
O 11.3354 7.72546 15.5334
O 14.3884 3.02041 15.5456
Si 0.0849827 13.1484 11.1019
Si 2.35787 8.93319 10.941
Si 1.14149 15.4327 14.8492
Si 3.78365 10.4839 14.8511
Si 1.26001 11.1137 13.0883
Si 3.65954 15.4623 12.989
O 0.867981 14.2793 15.8514
O 3.29432 9.14975 15.4374
O 2.59859 11.1429 14.0921
O 5.15716 15.6368 13.6544
O 1.55641 9.78605 12.1943
O 4.09528 14.5161 11.6324
O 1.12673 12.19 11.9982
O 3.31759 16.7531 12.1685
O 2.50502 14.8894 14.1329
O 4.91054 10.1923 13.5612
O 1.58002 16.844 15.5881
O 4.32484 11.6283 15.8261
Si 5.08224 13.4847 10.8797
Si 7.81153 8.97042 10.9953
Si 6.30815 15.1351 14.742
Si 8.69683 10.8133 14.5249
Si 5.95135 10.8885 12.799
Si 8.75523 15.0254 12.8184
O 6.0169 13.6125 15.2286
O 8.35936 9.38612 15.2529
O 7.50353 11.1983 13.5834
O 10.1607 15.4319 13.2937
O 6.76842 9.83857 11.7319
O 9.07216 13.6654 12.2442
O 5.31194 12.2023 12.2846
O 8.37292 16.1786 11.941
O 7.80641 15.0699 14.1154
O 9.96435 10.4751 13.6741
O 6.67854 16.1329 16.0193
O 9.06225 11.7811 15.6573
Si 9.68503 13.0616 10.9401
Si 12.9018 8.76828 11.0782
Si 11.1653 15.1042 14.5431
Si 13.4439 11.5037 14.5924
Si 11.2158 10.8755 12.6112
Si 13.8203 15.1285 12.9968
O 10.7811 13.7492 15.4373
O 12.9231 9.94456 15.5192
O 12.2879 11.6702 13.494
O 0.0794125 15.7078 13.7786
O 11.85 9.53912 11.9316
O 14.4933 13.9568 12.1778
O 10.7 11.8407 11.5635
O 13.5062 16.4646 11.9505
O 12.4906 15.0061 13.7863
O 14.8952 11.1617 13.8747
O 11.2471 16.4414 15.7322
O 13.7058 12.608 15.7657
324
 Atoms. Timestep: 9500
Si 0.0561914 4.34708 16.5004
Si 2.46822 17.175 0.114511
Si 1.06711 6.14543 3.81918
Si 3.47888 2.69689 3.76129
Si 1.18984 2.02745 1.78938
Si 3.52017 6.01672 2.08677
O 0.589328 5.02569 4.77383
O 3.08327 1.31865 4.71352
O 2.19558 2.86601 2.93742
O 4.73282 6.26087 3.02375
O 1.98966 0.907107 1.02617
O 3.94528 4.99171 1.23191
O 0.711247 3.24652 0.947353
O 3.47158 7.32603 1.05119
O 2.11772 5.95457 2.69905
O 4.71576 2.02676 2.52194
O 1.69478 7.64875 4.41739
O 4.22518 3.47159 4.90999
Si 5.06676 4.29534 0.100229
Si 7.47296 17.1285 16.4832
Si 6.31156 6.61699 3.6978
Si 8.673 2.34671 3.71575
Si 6.16128 2.03183 1.6722
Si 8.69307 6.35551 1.4369
O 6.15595 5.38556 4.58654
O 8.2385 0.934478 4.55205
O 7.2714 2.52744 2.78205
O 10.0358 6.6206 2.27381
O 6.51587 0.663141 0.974757
O 8.89423 4.91241 0.798554
O 6.27223 3.35618 0.645298
O 8.38899 7.54908 0.408541
O 7.37409 6.7123 2.43915
O 9.87678 2.26326 2.77295
O 6.80438 7.74751 4.68962
O 8.94799 3.32415 4.85262
Si 10.0618 4.08689 0.0925811
Si 12.417 17.4004 0.0477944
Si 11.1449 6.40338 3.46887
Si 13.738 1.78058 3.83543
Si 11.3366 2.27619 1.9541
Si 13.6423 6.36765 1.86762
O 10.7689 5.36221 4.76481
O 13.8214 0.217502 4.607
O 12.4134 2.30586 3.1192
O 14.7879 6.6998 3.01408
O 11.9497 1.13765 0.936798
O 14.2964 5.31665 0.86931
O 11.1972 3.53188 0.971383
O 13.1112 7.54855 1.07384
O 12.4754 5.46861 2.72627
O 15.0946 1.72037 2.81616
O 11.7188 7.79311 4.09871
O 13.9438 2.87402 5.08821
Si 0.369596 12.7225 16.4814
Si 2.56491 8.49071 0.17218
Si 1.29045 15.5295 3.8462
Si 4.22971 10.8234 3.72217
Si 1.51256 10.6421 2.06527
Si 4.01223 15.0164 1.9016
O 0.554052 14.588 4.85381
O 3.78886 9.34538 4.26082
O 2.65791 11.1223 2.93865
O 5.40348 15.1428 2.43356
O 1.60329 9.44827 1.14305
O 4.05478 13.5294 1.11674
O 1.09555 12.0068 1.04454
O 3.29675 16.0908 1.00443
O 2.75611 14.9248 2.99224
O 5.48378 10.5235 2.74263
O 1.69384 16.8409 4.59816
O 4.42832 11.9343 4.713
Si 4.87852 12.9378 16.442
Si 7.47903 8.69603 16.1121
Si 6.38497 15.2158 3.72683
Si 9.08061 10.81 3.5631
Si 6.75905 10.8786 1.67329
Si 8.94749 15.3122 1.76524
O 6.08115 13.8954 4.57282
O 8.8217 9.69747 4.7449
O 7.83808 11.0774 2.58584
O 10.3228 15.5434 2.56503
O 6.86865 9.75457 0.700841
O 9.42357 13.8842 1.15659
O 6.1152 12.2096 0.725707
O 8.53626 16.3362 0.868652
O 7.91294 15.2034 2.95887
O 10.4723 10.5823 3.03522
O 6.39933 16.6178 4.53635
O 9.02756 12.3172 4.38599
Si 10.1682 12.9874 0.289891
Si 12.6069 8.54947 0.0626408
Si 11.6526 15.0899 3.50843
Si 14.1276 10.8589 3.74369
Si 11.809 10.8677 1.91034
Si 14.1497 15.0857 1.69117
O 10.9844 14.0921 4.49444
O 13.456 9.57109 4.61409
O 13.0663 11.141 2.61898
O 0.266578 15.6189 2.55984
O 11.853 9.65258 0.867234
O 14.6381 13.8654 0.697186
O 11.3548 12.207 1.1837
O 13.3859 16.2193 0.811599
O 12.9233 14.7817 2.63275
O 0.374173 10.467 3.16121
O 12.0753 16.2665 4.43029
O 14.2648 12.1521 4.72128
Si 14.8116 3.93479 5.64199
Si 2.44033 0.166121 5.6333
Si 1.10773 6.38368 9.0075
Si 4.00596 2.34248 9.31168
Si 1.08441 2.14992 7.91976
Si 3.85953 6.54888 7.48603
O 0.929991 5.51757 10.4064
O 3.90343 1.01953 10.307
O 2.42327 2.67272 8.67118
O 4.93685 7.15131 8.47302
O 1.70514 1.00426 6.85054
O 4.67692 5.33213 6.87128
O 0.584463 3.14245 6.89481
O 3.58407 7.58546 6.20067
O 2.43557 6.06536 8.21797
O 5.03177 2.22218 8.07153
O 1.70484 7.88718 9.48112
O 4.52866 3.62391 10.0861
Si 5.4303 4.31183 5.57207
Si 7.24107 17.4246 5.72425
Si 6.15502 6.84145 9.53761
Si 8.92995 2.17769 9.1441
Si 6.45298 2.24392 7.20848
Si 8.64724 6.61247 7.64864
O 5.79366 5.83196 10.601
O 8.32094 0.956827 10.1467
O 7.68001 2.57581 8.26353
O 9.94429 6.99364 8.49002
O 6.57869 0.955511 6.52659
O 9.04098 5.43325 6.67537
O 6.39715 3.50173 6.32543
O 8.42585 7.82757 6.61945
O 7.34007 6.48745 8.59437
O 10.1709 1.70525 8.30039
O 6.5167 8.04781 10.4931
O 9.16264 3.45082 9.99092
Si 9.83764 4.37603 5.66149
Si 12.5377 17.0052 5.66155
Si 11.284 6.80489 9.34859
Si 13.6414 2.1656 9.297
Si 11.225 2.15614 7.14509
Si 13.6025 6.27763 7.15919
O 10.9645 5.25182 10.178
O 13.1796 1.34566 10.5337
O 12.5172 2.39744 8.13406
O 14.9008 6.72402 8.0244
O 11.7299 0.860644 6.15931
O 13.7999 4.9919 6.27969
O 10.8241 3.32536 6.23172
O 13.2853 7.32478 6.0998
O 12.4921 6.40389 8.45635
O 14.9394 1.4673 8.64858
O 11.7153 8.19987 10.1629
O 14.2848 3.40123 10.1758
Si -0.00867263 13.3488 5.6352
Si 2.70125 8.57407 5.13125
Si 1.58318 15.4653 9.26448
Si 3.92615 10.754 8.70265
Si 1.20244 10.7797 6.82053
Si 3.97919 15.315 7.14275
O 1.18407 14.3523 10.3749
O 3.53336 9.54792 9.55371
O 2.78084 11.0433 7.69817
O 5.43315 15.7558 7.71699
O 1.60332 9.65385 5.67905
O 3.77394 14.1801 5.98493
O 1.08008 12.3287 6.24203
O 3.33433 16.6259 6.44189
O 2.84851 15.0579 8.38618
O 5.36582 10.8648 8.01291
O 1.6038 17.0034 9.9666
O 3.86806 12.0712 9.8774
Si 4.8956 13.0753 5.55422
Si 7.62465 8.89183 5.54116
Si 6.17068 15.1976 8.92631
Si 8.9339 10.9941 9.20719
Si 6.60816 11.2478 7.02858
Si 8.79988 15.4032 7.27057
O 5.42706 14.1831 10.0244
O 8.60649 9.85704 10.3313
O 7.88382 11.5926 7.91097
O 10.3766 15.5319 7.7909
O 6.58546 10.1125 5.9027
O 8.91734 14.3218 6.10822
O 5.99317 12.5954 6.65437
O 8.35874 16.6818 6.46646
O 7.75974 14.743 8.34399
O 10.3594 10.664 8.41929
O 6.54245 16.3945 10.104
O 9.30614 12.5049 9.90805
Si 9.90078 13.288 5.39343
Si 12.49 8.53321 5.29979
Si 11.3722 15.4644 9.06835
Si 14.045 11.0277 8.99054
Si 11.4618 10.9839 7.11295
Si 13.9616 15.3859 7.64566
O 10.6954 14.6429 10.2128
O 13.4956 10.0077 10.0398
O 12.9814 11.23 7.73615
O 0.257493 15.6397 8.34685
O 11.8434 9.6603 6.32591
O 14.1901 14.0495 6.69435
O 10.7648 12.198 6.3738
O 13.2257 16.3954 6.84736
O 12.891 14.9002 8.70175
O 0.283615 10.4253 7.95366
O 11.7355 16.8027 9.75972
O 14.8385 12.1884 9.90813
Si 0.0297881 4.48703 11.298
Si 2.647 0.249967 11.0092
Si 1.09222 6.68886 14.6322
Si 3.6198 1.97724 14.8851
Si 1.31759 2.26159 13.2075
Si 3.41158 6.76471 12.6067
O 1.00814 5.19653 15.4739
O 3.47443 0.554597 15.414
O 2.14481 2.43735 14.4816
O 4.62105 6.89793 13.6339
O 2.03043 1.25053 12.0444
O 3.85268 5.32561 11.9589
O 0.959173 3.74017 12.3806
O 3.15446 7.92646 11.5172
O 1.98242 6.68228 13.1852
O 4.40655 1.85042 13.5854
O 1.65889 7.58248 15.7233
O 4.18924 3.02068 15.9374
Si 5.10414 4.65841 11.2433
Si 7.45305 0.0893916 11.1617
Si 5.94519 6.46742 14.6183
Si 8.65322 2.12413 14.7434
Si 6.01684 2.32178 13.1294
Si 8.76581 6.52218 13.0546
O 5.46839 5.23714 15.5168
O 8.13742 0.781746 15.6056
O 7.00219 2.51526 14.1214
O 9.73225 7.07341 14.1274
O 6.63986 1.25191 11.9053
O 9.09453 5.30659 12.0528
O 5.88422 3.66391 12.357
O 8.60137 7.68691 12.04
O 7.39901 6.13311 13.996
O 9.45708 1.83392 13.4032
O 6.41124 7.89544 15.3319
O 9.51331 2.84141 15.6987
Si 9.88494 4.37089 11.0189
Si 12.4658 0.0960595 11.1468
Si 10.9887 6.50332 15.0505
Si 13.6976 2.20812 14.57
Si 10.8837 1.9848 12.9276
Si 13.4931 6.67802 13.0345
O 10.6072 5.17902 15.5287
O 13.5057 0.752503 15.5922
O 12.285 2.27887 13.7582
O 14.7809 7.07852 14.0507
O 11.3033 0.722587 12.0811
O 13.9361 5.11302 12.382
O 10.6837 3.30673 11.9745
O 13.2521 7.83969 12.0746
O 12.1111 6.27963 13.7706
O 14.9716 1.71435 13.6617
O 11.6953 7.59955 15.8013
O 14.2035 3.30362 15.6861
Si 0.360609 13.2227 11.0345
Si 2.46971 8.89397 10.4605
Si 1.42942 14.9671 14.6603
Si 3.67043 10.6364 14.8128
Si 0.949136 10.7212 12.7701
Si 3.79492 15.2729 12.7506
O 1.09514 13.5559 15.289
O 3.34866 9.60965 15.8782
O 2.05151 10.6124 14.1407
O 5.39195 15.2859 13.3329
O 1.57776 9.91089 11.3932
O 3.9616 13.6624 12.0994
O 1.05391 12.237 12.1852
O 3.33853 16.3343 11.6768
O 2.74295 15.3112 13.8166
O 4.93441 10.4289 13.8372
O 1.61564 16.1888 15.7248
O 4.03886 11.9803 15.5085
Si 4.73023 12.9225 10.9689
Si 7.76955 8.92527 11.2572
Si 6.07332 15.2212 14.7461
Si 8.69281 11.1787 14.5755
Si 6.16776 11.064 12.9582
Si 8.62232 15.4049 13.2179
O 5.52949 13.9976 15.4435
O 8.2645 9.56572 15.1533
O 7.34967 11.7228 13.9301
O 10.3351 15.4366 13.5286
O 6.97438 9.82448 12.3024
O 8.72592 14.0231 12.0007
O 5.69838 11.8386 11.6926
O 8.32603 16.7547 12.3003
O 7.6935 15.1544 14.4636
O 10.0112 11.1063 13.6066
O 6.23616 16.3583 15.9986
O 9.32888 11.9625 15.9609
Si 9.99714 13.4107 11.1072
Si 12.7205 9.03784 11.0178
Si 11.4092 15.2624 14.7734
Si 13.7385 10.5462 14.782
Si 11.3475 11.243 12.8342
Si 13.9835 15.2017 12.8226
O 11.0868 13.9672 15.6715
O 13.5509 9.30923 15.7363
O 12.2963 11.1769 14.1406
O 0.120653 15.2591 13.7138
O 11.9253 9.98282 11.99
O 14.2373 13.9736 11.8138
O 11.1241 12.4484 11.8854
O 13.5908 16.543 11.9858
O 12.8566 15.1779 13.8781
O 14.6877 10.1715 13.3776
O 11.7062 16.4346 15.7833
O 14.6592 11.6153 15.4088
324
 Atoms. Timestep: 10000
Si 0.143007 4.35015 0.0113728
Si 2.14629 17.2353 16.5063
Si 1.49134 6.2951 3.91554
Si 3.73591 2.40834 3.50206
Si 1.2205 2.14794 1.69075
Si 3.67515 6.73751 1.77121
O 1.13773 5.09599 4.89357
O 3.28674 1.15318 4.56545
O 2.56986 2.42925 2.40807
O 4.95228 7.18589 2.84653
O 1.46886 0.615607 0.932686
O 4.18671 5.50091 1.05973
O 0.931257 3.37607 0.841899
O 2.87569 7.98266 0.900004
O 2.53634 6.458 2.81981
O 5.0174 1.80089 2.72239
O 1.53707 7.74012 4.57129
O 4.35748 3.5329 4.31638
Si 4.94371 4.31397 0.0490952
Si 7.5879 0.043025 0.155728
Si 6.20359 6.80265 3.56012
Si 8.95 1.85258 3.78719
Si 6.35133 2.21048 1.95214
Si 8.9558 6.44249 1.76925
O 5.83977 5.63276 4.63422
O 8.59027 0.646926 4.70004
O 7.51634 2.20642 3.0403
O 9.91455 6.96096 3.02744
O 6.83009 1.17 0.899991
O 9.47322 5.12487 0.980796
O 5.93997 3.82618 1.11125
O 8.4419 7.61059 0.646808
O 7.42157 6.24726 2.51533
O 9.92775 1.62208 2.54704
O 6.70522 8.04077 4.54511
O 9.44848 3.18199 4.57144
Si 10.2521 4.13442 0.0634551
Si 13.0153 17.3739 16.5069
Si 11.2436 6.49343 3.82274
Si 13.651 2.35566 3.63135
Si 11.0723 1.7395 1.70583
Si 13.9964 6.22122 1.91374
O 10.933 5.18351 4.69489
O 13.7407 1.0169 4.6528
O 12.3462 2.05133 2.73985
O 0.0985929 6.11425 2.87971
O 11.7215 0.45887 0.959182
O 14.0006 4.96411 0.942382
O 11.0948 3.12051 0.835001
O 13.8172 7.51515 0.946616
O 12.3842 6.2233 2.76103
O 15.0578 2.2271 2.71734
O 11.649 7.90637 4.44184
O 13.8656 3.51255 4.54101
Si 14.9821 12.9418 0.00869172
Si 2.15416 9.03079 16.4781
Si 1.51933 14.9452 3.70769
Si 4.12358 10.7776 3.85223
Si 1.74194 11.1999 1.94683
Si 3.88197 15.0725 2.03101
O 0.702034 13.9942 4.63443
O 3.62783 9.4637 4.44696
O 2.85695 11.2285 2.81282
O 5.17724 15.519 2.75583
O 1.63472 10.107 0.866553
O 4.05005 13.9675 0.961174
O 1.04409 12.472 1.08317
O 3.34814 16.3143 0.946165
O 2.94959 14.4925 3.21146
O 5.43122 10.6395 3.15378
O 1.92909 16.532 4.27312
O 4.41639 11.805 5.00104
Si 4.65214 12.8303 0.189197
Si 7.36117 8.53529 16.315
Si 6.42372 15.1737 3.72172
Si 8.93275 11.2444 3.32787
Si 6.39494 10.5976 1.78397
Si 9.0036 15.4421 1.98323
O 5.86506 13.949 4.58998
O 8.22678 9.96258 4.26799
O 7.8286 11.3172 2.00042
O 10.2828 15.8432 2.86768
O 6.41375 9.46672 0.914831
O 9.42581 14.1658 1.01449
O 5.51468 11.7968 0.906826
O 8.80616 16.7132 1.19921
O 7.60651 14.9453 2.73081
O 10.2749 10.8465 2.76632
O 6.81652 16.1357 5.02781
O 9.08421 12.4326 4.36808
Si 10.1922 13.2671 0.0150232
Si 12.7184 8.31786 0.134429
Si 11.3816 15.2424 3.73396
Si 13.8647 10.9711 3.59869
Si 11.5412 10.9412 1.56441
Si 14.0925 15.1208 1.94177
O 10.9164 13.9378 4.50437
O 13.4045 9.60766 4.61009
O 12.8449 11.1144 2.40497
O 0.456003 15.1586 2.42898
O 11.5967 9.41175 0.897628
O 14.0193 13.9772 0.616899
O 11.2209 12.1966 0.614046
O 13.6888 16.5126 1.01005
O 12.8269 14.9587 2.9145
O 0.270297 10.7413 2.92825
O 11.9298 16.6215 4.40608
O 14.0452 12.0179 4.70745
Si 14.8429 4.45992 5.53173
Si 2.43249 0.0916229 5.28832
Si 1.24653 6.21627 8.97089
Si 3.84005 1.96369 8.76872
Si 0.895298 1.99454 7.30343
Si 3.79263 6.54975 7.31473
O 0.934001 4.83075 10.0262
O 3.17359 1.0183 9.93963
O 2.35215 2.40362 7.99916
O 5.11647 6.61516 8.26761
O 1.3831 0.72794 6.38161
O 3.99811 5.47925 5.9899
O 0.306863 3.59715 6.73107
O 3.43268 8.03243 6.67167
O 2.45488 5.99846 7.92326
O 5.1274 1.66242 8.10662
O 1.57531 7.5409 9.78633
O 4.44593 3.48182 9.4516
Si 5.1259 4.41685 5.48243
Si 7.6336 17.1934 5.67133
Si 6.37878 6.30464 9.19693
Si 8.61677 2.11129 9.34041
Si 6.28233 2.12973 7.16791
Si 8.75226 6.69 7.15022
O 5.92996 5.32719 10.4627
O 8.27859 0.802213 10.1929
O 7.53166 2.72536 8.04342
O 9.82624 7.25277 8.26622
O 6.66746 0.989253 6.27659
O 9.20721 5.31937 6.40568
O 5.6828 3.36347 6.38126
O 8.59707 7.58421 5.90592
O 7.6574 6.29561 8.17515
O 9.99387 1.79158 8.41711
O 6.81007 7.89836 9.92007
O 8.81612 3.30498 10.2096
Si 10.0456 4.2601 5.59378
Si 12.7467 17.3489 5.51356
Si 11.0691 6.78872 9.14461
Si 13.802 2.25514 9.33665
Si 11.2907 2.1788 7.57964
Si 13.7845 6.63822 7.22812
O 10.6731 5.4641 10.0743
O 13.4893 1.10125 10.286
O 12.4263 2.42793 8.52754
O 14.9424 6.33151 8.17167
O 11.8294 0.942658 6.53747
O 13.9814 5.53364 6.1398
O 10.8268 3.46442 6.72159
O 13.5595 8.02589 6.55375
O 12.2975 6.37865 8.21703
O 14.8026 1.62879 8.21944
O 11.5355 8.07757 10.0474
O 13.8881 3.68187 10.1009
Si 14.8681 12.9617 5.6864
Si 2.3471 8.729 5.47172
Si 1.48015 15.1102 9.17946
Si 3.89801 11.1658 9.16408
Si 1.37042 10.9459 7.35759
Si 4.06944 15.423 7.45179
O 1.0117 13.8889 9.92141
O 3.29669 10.0135 10.1156
O 2.87865 11.5321 7.99329
O 5.48779 15.9087 8.04707
O 1.5736 9.72507 6.28277
O 4.15365 14.0654 6.58358
O 0.726009 12.093 6.58792
O 3.59951 16.6142 6.37926
O 2.78671 15.1329 8.31749
O 5.19761 10.634 8.32407
O 1.70647 16.3354 10.2507
O 4.2632 12.2874 10.1748
Si 5.11231 12.9563 5.8306
Si 7.71091 8.91399 5.30244
Si 6.64612 15.4434 9.27521
Si 9.04886 10.9924 9.58955
Si 6.5752 10.9571 7.58767
Si 9.21637 15.3541 7.63132
O 5.86251 14.0398 9.79493
O 8.7979 9.74419 10.6162
O 7.44146 11.1279 8.96145
O 10.6102 15.4528 8.26638
O 7.25414 9.66475 6.723
O 9.29833 14.1789 6.45044
O 6.24674 12.3619 6.86202
O 8.63437 16.6749 6.81397
O 8.0879 15.0441 8.63878
O 10.1404 10.6255 8.50904
O 6.64106 16.4048 10.3762
O 9.49717 12.3514 10.4869
Si 9.88842 13.085 5.51944
Si 12.448 8.8018 5.52594
Si 11.656 15.2546 9.44684
Si 13.9148 11.0095 8.8439
Si 11.1732 10.7743 7.14296
Si 14.0943 15.3908 7.57083
O 11.2189 14.3035 10.5725
O 13.4686 9.8524 9.85972
O 12.6278 10.9951 7.82436
O 0.341109 15.8421 8.19441
O 11.3127 9.48526 6.35557
O 14.0699 13.9059 6.76141
O 10.7519 12.0659 6.32878
O 13.407 16.3237 6.54546
O 12.971 14.9797 8.71408
O 0.360763 10.4173 8.45967
O 11.8154 16.6251 10.4376
O 14.2091 12.2732 9.54641
Si 14.906 4.6284 11.0437
Si 2.38277 0.100451 11.0362
Si 0.884885 6.689 14.6782
Si 3.40333 2.164 14.9998
Si 0.921662 2.20266 13.0237
Si 3.48335 6.6498 12.7733
O 1.08173 5.52568 15.9334
O 3.09902 0.770496 15.6974
O 2.05174 2.44894 14.0668
O 4.44747 6.76674 13.9317
O 1.42386 1.12556 11.8884
O 3.84498 5.38124 11.6496
O 0.291153 3.54179 12.197
O 3.21908 7.81112 11.8061
O 1.89948 6.11764 13.452
O 4.73734 2.13748 14.2285
O 1.40949 7.93901 15.5999
O 3.9021 3.38358 16.0441
Si 4.7834 4.40291 10.9104
Si 7.35998 0.0806523 11.3584
Si 5.88658 6.42753 14.5516
Si 8.50774 2.26204 14.7172
Si 5.76402 2.30969 12.9663
Si 8.62865 6.36969 12.9433
O 5.65113 5.30007 15.5625
O 8.19128 0.99195 15.5043
O 6.97221 2.58147 14.0189
O 9.55492 6.56512 14.0666
O 6.44879 1.16129 12.1096
O 9.32799 5.14147 12.102
O 4.99359 3.22998 11.9115
O 8.40053 7.52107 11.9361
O 6.9607 5.94318 13.4278
O 9.63805 1.84333 13.7082
O 6.78025 7.58576 15.3017
O 8.99039 3.19903 15.9549
Si 10.12 4.3103 11.058
Si 12.6804 0.229813 11.2752
Si 11.1585 6.35539 14.5339
Si 13.7312 2.45569 14.9018
Si 11.1517 2.22154 13.1073
Si 13.6449 6.79226 12.634
O 10.7822 4.90419 15.2905
O 13.7282 1.56455 16.2086
O 12.4519 2.27282 14.1095
O 14.5801 6.9426 14.0943
O 11.741 0.877613 12.3901
O 14.1842 5.63907 11.8839
O 11.0205 3.47827 12.1515
O 13.6093 8.13063 11.8241
O 12.2704 6.46118 13.3767
O 14.9871 1.66614 14.0478
O 11.6842 7.2207 15.8856
O 14.4384 3.87378 15.1359
Si 15.0804 13.0641 10.791
Si 2.25397 8.74202 10.8007
Si 1.08355 14.7608 14.2599
Si 3.69447 10.8947 14.5284
Si 1.1718 10.824 12.6784
Si 3.95786 15.4422 12.6416
O 0.600264 13.5466 14.9918
O 2.80821 9.56489 15.0932
O 2.53817 11.3305 13.4695
O 5.04064 15.4478 14.017
O 1.3706 9.5598 11.7822
O 4.37393 14.205 11.8059
O 0.592782 11.8837 11.5497
O 3.54081 16.8181 12.0219
O 2.40736 14.8308 13.1854
O 5.21415 10.6128 13.8883
O 1.6538 15.9675 15.5601
O 3.76376 11.8048 15.9235
Si 5.21629 13.117 10.9361
Si 7.67549 8.64852 11.0804
Si 6.25059 14.9716 14.9486
Si 8.99637 10.8803 14.7987
Si 6.54476 10.9392 12.9536
Si 8.89198 15.3964 13.142
O 5.76289 13.5844 15.6451
O 8.26888 9.88831 15.8583
O 7.85584 11.1725 13.6727
O 10.1092 16.0672 13.9432
O 6.83252 9.52682 12.1632
O 9.45676 14.0949 12.3529
O 6.19296 12.1621 11.9922
O 8.21849 16.5207 12.2616
O 7.74184 14.7966 14.2452
O 10.1676 10.4682 13.9979
O 6.68418 16.2958 15.9293
O 9.19982 12.197 15.7355
Si 10.4091 13.2809 11.298
Si 12.5358 8.88867 10.8471
Si 11.5161 15.4192 14.4597
Si 13.7642 10.4938 14.7194
Si 11.3023 10.9172 12.9675
Si 13.6766 15.1463 12.5886
O 10.9108 14.1615 15.3508
O 13.5266 9.12129 15.6314
O 12.5891 10.9563 13.9683
O 14.9115 15.337 13.6599
O 11.5797 9.62772 11.8592
O 14.1041 13.7843 11.7841
O 11.3273 12.1248 12.1195
O 13.7082 16.5157 11.6796
O 12.2734 14.8698 13.2041
O 0.0247812 10.4573 13.828
O 12.3345 16.5426 15.2207
O 14.285 11.624 15.9225
324
 Atoms. Timestep: 10500
Si 0.172956 4.29353 0.0720177
Si 2.70135 17.226 0.162041
Si 1.08422 7.02348 3.51613
Si 3.75875 1.8795 3.70743
Si 1.23734 2.06012 1.75869
Si 3.81926 6.75157 1.75665
O 0.626729 5.58676 3.89213
O 3.47658 0.509987 4.45701
O 2.56754 2.22578 2.68745
O 5.41382 6.69521 2.34234
O 1.64398 0.62937 0.965757
O 3.7427 5.48941 0.99298
O 0.875204 3.10694 0.672181
O 3.82519 7.97588 0.54605
O 2.72063 7.01546 2.90835
O 5.39271 1.6638 3.0108
O 1.14393 7.84043 4.79575
O 3.93112 3.04856 4.6789
Si 4.72446 4.47568 0.260191
Si 7.61677 0.0926794 0.111604
Si 6.23711 6.44813 3.50701
Si 8.73091 2.08616 3.58148
Si 6.29303 2.30928 1.93667
Si 9.16304 6.65164 1.90716
O 5.45131 5.37856 4.46733
O 8.01612 0.665939 4.02161
O 7.51792 2.8517 2.82508
O 10.3264 7.09559 2.8179
O 6.74639 1.22503 0.869044
O 9.5629 5.34038 1.21439
O 5.44815 3.53405 1.17963
O 8.54884 7.78794 0.951535
O 7.73371 6.13195 2.57455
O 10.0389 1.86531 2.71973
O 6.80838 7.63777 4.33602
O 9.09298 2.94173 4.81212
Si 9.70747 4.34413 0.0622031
Si 12.5305 17.4493 0.0747716
Si 11.6406 6.47152 3.8859
Si 13.634 2.54504 3.42195
Si 11.1526 2.10566 1.60624
Si 14.0341 6.78636 1.7955
O 10.9653 5.08237 4.49971
O 13.1589 1.43683 4.6625
O 12.4945 2.5575 2.34003
O 0.156734 7.51425 2.42775
O 11.2244 0.646686 0.726212
O 14.443 5.25274 1.27092
O 10.6843 3.12764 0.499943
O 13.4033 7.45183 0.59637
O 12.9464 6.49139 2.94897
O 15.023 1.96878 2.74402
O 11.7294 7.67193 4.95392
O 14.0251 3.76402 4.24658
Si 14.8348 13.1239 0.395346
Si 2.50867 9.01129 16.3697
Si 1.25507 15.0027 3.8317
Si 3.63373 10.8954 3.83307
Si 1.21668 11.0215 2.1669
Si 3.98929 15.1898 1.98185
O 1.08463 13.447 4.42582
O 3.01675 9.69606 4.79093
O 2.57735 11.4588 2.67055
O 5.11005 15.2511 3.03855
O 1.66462 9.77942 1.00978
O 4.26153 14.1285 0.913503
O 0.384893 12.3375 1.62916
O 3.99022 16.5181 1.14869
O 2.52586 15.1047 2.75062
O 5.11062 10.5161 3.17281
O 1.70846 15.9569 5.04966
O 3.92207 12.2183 4.8228
Si 5.14194 13.1483 16.5131
Si 7.42858 8.58833 0.331445
Si 6.48839 14.8493 3.64137
Si 8.88997 10.8129 3.50781
Si 6.41359 10.7551 1.96667
Si 8.9673 15.2075 1.77538
O 6.01944 13.5731 4.46114
O 8.75445 9.62478 4.7071
O 7.76136 11.2943 2.6821
O 9.8568 15.7966 3.07947
O 6.57416 9.21696 1.45985
O 9.44136 14.1404 0.785247
O 5.75327 11.9151 0.885831
O 8.88707 16.4832 0.988083
O 7.4 14.9344 2.2864
O 10.1035 10.4153 2.73398
O 7.01851 15.9661 4.69368
O 9.44649 12.1133 4.57872
Si 10.0891 12.917 16.3345
Si 12.7101 8.63521 16.3986
Si 11.1697 15.5534 4.03096
Si 13.8854 10.8969 3.94713
Si 11.4062 10.8337 1.78781
Si 13.6862 15.3723 2.01401
O 11.0771 14.306 5.05399
O 13.3247 9.64906 4.63381
O 12.9296 11.2451 2.59514
O 14.832 15.4864 3.10396
O 11.9393 9.70107 0.823243
O 13.9373 14.1972 1.0402
O 11.0131 12.0746 0.849191
O 13.5807 16.772 1.15468
O 12.3504 14.9949 2.75645
O 0.155616 10.2834 3.21461
O 11.6866 16.812 4.88123
O 14.0326 12.152 4.96599
Si 15.0852 4.70872 4.9915
Si 2.53256 17.2079 5.42381
Si 1.15205 6.74339 9.5435
Si 3.27253 2.15914 8.93217
Si 1.00845 2.41685 7.08578
Si 3.41158 6.48883 7.26031
O 0.748831 5.5371 10.4135
O 2.99042 0.911842 9.82917
O 2.0065 2.68034 8.16197
O 4.70388 7.04667 8.23603
O 1.61552 0.933524 6.39275
O 3.97459 5.15899 6.43058
O 0.854346 3.58096 5.87358
O 3.14606 7.64494 6.28647
O 2.13963 6.2607 8.24518
O 4.49158 1.85466 7.89718
O 2.19694 7.88934 9.96054
O 3.58442 3.51127 10.0119
Si 4.88798 4.26493 5.41867
Si 7.45712 17.1786 5.2866
Si 6.03765 6.406 8.82964
Si 8.84502 2.32496 9.38451
Si 5.99498 2.05194 7.12058
Si 8.63196 6.33037 7.30163
O 5.57899 5.15908 9.64035
O 8.29274 1.08562 10.037
O 7.29379 2.52293 8.19179
O 9.93508 6.48485 8.20274
O 6.38397 0.738054 6.27269
O 9.18369 5.06929 6.49802
O 5.84452 3.37136 6.12267
O 8.36524 7.56582 6.41746
O 7.30629 6.03175 8.09836
O 10.1086 2.20365 8.48137
O 6.68104 7.69543 9.79014
O 8.8653 3.58328 10.3447
Si 9.96282 4.06761 5.47455
Si 12.7529 0.350481 5.76064
Si 11.1669 6.31155 9.1286
Si 13.932 2.1258 8.95629
Si 11.3855 2.44385 7.52305
Si 13.9728 6.72297 7.23024
O 10.9422 4.95792 9.89839
O 13.4201 1.17612 10.2065
O 12.5599 2.86637 8.42895
O 15.0123 6.8709 8.5387
O 12.1003 1.04543 6.99901
O 14.2919 5.89256 5.93284
O 10.9759 3.40367 6.37611
O 13.4298 8.09481 6.74123
O 12.6779 6.21379 8.18175
O 14.8389 1.68827 7.62276
O 11.3302 7.59757 10.0417
O 14.7407 3.29218 9.59812
Si 0.0511999 13.0624 5.58329
Si 2.06901 8.76728 5.69307
Si 1.50173 15.0117 9.29015
Si 3.88616 10.9197 9.34948
Si 1.06643 10.9041 7.79015
Si 4.1127 15.4516 7.36514
O 1.01194 13.7798 10.1112
O 3.42745 9.97754 10.5388
O 2.45633 11.1702 8.49924
O 5.5949 15.5864 8.02614
O 1.23408 9.72953 6.76122
O 4.43104 14.2859 6.36189
O 0.728256 12.1535 6.86883
O 3.42463 16.7234 6.77464
O 2.81527 14.8612 8.3528
O 5.16848 10.7091 8.28936
O 1.90441 16.1675 10.1582
O 4.45432 12.1492 10.1681
Si 4.86797 13.0832 5.64111
Si 7.6702 8.56256 5.49227
Si 6.63915 15.2976 9.18601
Si 8.98703 10.7667 9.35855
Si 6.3507 10.651 7.28679
Si 8.94963 15.2541 7.31175
O 6.1169 14.1382 10.1564
O 8.69727 9.32163 10.0918
O 7.809 11.1089 8.24631
O 10.3545 15.1849 8.09797
O 6.83643 9.52555 6.44808
O 8.94029 14.0968 6.29066
O 5.79464 11.8345 6.39572
O 8.45551 16.6199 6.40579
O 8.00586 14.9879 8.45564
O 10.1998 10.4724 8.61519
O 6.91456 16.525 10.0985
O 9.26023 12.0108 10.4394
Si 10.1397 13.1672 5.57373
Si 12.4764 8.70802 5.63818
Si 11.4356 14.9148 9.16758
Si 13.6472 10.9172 9.32238
Si 11.2847 11.0078 7.47515
Si 14.0921 15.4974 7.4468
O 11.0511 13.6309 10.276
O 13.0224 9.70147 10.2016
O 12.5978 11.3292 8.18475
O 0.199652 15.6787 8.54786
O 11.7031 9.79166 6.52646
O 14.6255 14.3536 6.3527
O 10.8696 12.2995 6.65275
O 13.5264 16.6275 6.62441
O 12.8794 14.6294 8.3542
O 15.0425 10.5329 8.69033
O 11.9003 16.2624 10.0568
O 14.0915 12.259 10.0808
Si 15.0347 4.15193 10.8587
Si 2.55163 17.2928 10.9852
Si 1.49549 6.49956 14.5544
Si 3.54085 2.20042 14.7372
Si 1.08337 2.04017 12.8603
Si 4.10093 6.48568 13.1157
O 1.09313 5.23457 15.6503
O 3.49919 0.987918 15.603
O 2.29803 2.52351 13.9087
O 5.03162 6.88248 14.2142
O 1.61255 0.777861 11.9627
O 4.32257 5.17476 12.2562
O 0.607446 3.25831 11.8993
O 3.41231 7.65718 12.1464
O 2.78751 5.86064 13.8845
O 4.76012 2.37956 13.5793
O 1.7774 7.8063 15.4009
O 3.82614 3.49769 15.8257
Si 4.69222 4.39799 10.896
Si 7.60683 0.191189 10.9757
Si 6.37487 6.31473 15.0056
Si 8.58614 2.02357 14.6664
Si 6.07031 2.27847 12.541
Si 8.60249 6.46917 12.7803
O 5.86518 5.30135 15.9286
O 8.54749 0.872546 15.6405
O 7.27406 2.36923 13.581
O 10.1247 6.80131 13.2258
O 6.48397 0.820684 11.9519
O 9.1533 5.50499 11.5984
O 5.77782 3.13548 11.2471
O 7.85891 7.65852 12.0857
O 7.62845 5.98231 13.8439
O 10.1401 1.91812 13.8795
O 6.91251 7.71224 15.7861
O 8.72301 3.31227 15.6605
Si 10.105 4.37994 11.0242
Si 12.5476 0.082226 11.08
Si 11.0597 6.58932 14.5271
Si 13.6448 2.40065 14.8219
Si 11.2764 2.1636 12.7538
Si 13.7226 6.27294 12.8843
O 10.3857 5.41296 15.514
O 13.1461 1.22071 15.86
O 12.515 2.33249 13.6058
O 0.176158 6.56784 13.6271
O 11.4009 0.980877 11.7018
O 13.7972 4.92686 11.7361
O 11.0354 3.53106 11.9875
O 13.2367 7.31465 11.6298
O 12.4344 5.87199 13.8494
O -0.0286247 1.83455 14.0295
O 11.8194 7.82991 15.2475
O 14.1358 3.88288 15.4745
Si 14.9395 13.1821 10.9635
Si 2.73989 8.78789 11.2184
Si 1.25005 15.0756 14.929
Si 3.88635 11.0025 14.2499
Si 1.46751 11.1088 12.641
Si 3.73938 15.0833 12.9541
O 0.71806 14.0768 15.9557
O 3.25857 9.97581 15.2194
O 2.82488 11.6055 13.1072
O 5.15301 15.4101 13.8674
O 1.79643 9.59952 12.245
O 3.98105 13.7982 11.9621
O 0.826415 12.2572 11.7255
O 3.37707 16.3629 12.0125
O 2.39686 14.7084 13.9293
O 5.33938 10.5142 13.8475
O 1.87661 16.1913 15.922
O 4.13792 12.2906 15.1802
Si 5.21632 13.0909 11.1636
Si 7.46282 8.5396 10.7287
Si 6.29928 15.3638 14.7464
Si 8.74856 10.6908 14.6771
Si 6.50181 10.8279 12.6717
Si 8.92029 15.33 12.9984
O 5.99181 14.054 15.6042
O 8.01061 9.86888 15.9001
O 7.79343 10.7826 13.3989
O 10.0413 15.6458 13.9055
O 6.55652 9.82467 11.4146
O 9.21403 14.0157 12.1653
O 6.12258 12.3417 12.264
O 8.68559 16.8276 12.0294
O 7.58795 15.1643 13.6712
O 10.218 10.3448 13.9978
O 6.70637 16.5542 15.8994
O 8.9781 12.1544 15.4375
Si 10.1247 12.941 11.4043
Si 12.2731 8.56809 10.8932
Si 11.4013 15.1651 14.5781
Si 14.0291 10.9222 14.8042
Si 11.4836 10.7009 13.026
Si 14.0014 15.5447 12.8252
O 11.086 13.7605 15.4229
O 13.8163 9.53425 15.6284
O 12.7447 11.0674 13.9337
O 0.12467 15.5087 13.7348
O 11.6354 9.43759 12.1054
O 14.1394 14.2854 11.7767
O 11.086 11.9909 12.2215
O 13.4342 16.9336 12.2886
O 12.6543 15.0663 13.6304
O 0.209263 10.8883 13.7639
O 12.0232 16.22 15.635
O 14.0822 12.1854 15.9278
324
 Atoms. Timestep: 11000
Si 14.7731 4.04733 16.3075
Si 2.58612 0.0189081 0.186272
Si 1.03512 6.87652 3.68863
Si 3.63806 1.81846 3.71443
Si 1.05175 2.21271 1.86937
Si 3.52743 6.59404 1.82334
O 0.785773 5.52702 4.62994
O 3.16372 0.633108 4.52032
O 2.39173 2.34122 2.76225
O 4.94731 6.83702 2.55465
O 1.44207 0.957105 1.01594
O 4.07273 5.66351 0.477396
O 0.665608 3.4857 0.934249
O 3.39309 8.02778 1.02116
O 2.38308 6.73439 2.87395
O 4.77231 1.47741 2.53016
O 0.993302 8.19303 4.70575
O 4.2846 3.08491 4.53819
Si 4.96784 4.44762 16.4764
Si 7.40091 0.362149 16.3531
Si 6.21479 6.43767 3.44673
Si 8.58405 2.28345 3.52953
Si 5.9133 2.05318 1.81338
Si 8.73722 6.35459 1.90527
O 5.65395 5.23613 4.37276
O 8.24077 1.24217 4.46901
O 7.34449 2.57804 2.64551
O 10.0255 6.31109 2.80322
O 6.48279 1.19206 0.669393
O 9.00843 5.39388 0.628481
O 5.3343 3.54606 1.19192
O 8.43826 7.8933 1.16547
O 7.5591 6.13165 2.80322
O 9.93113 1.91262 2.6326
O 6.62464 7.43584 4.74064
O 9.02781 3.65543 4.47851
Si 10.2644 4.62479 16.5501
Si 12.4562 17.3467 16.3698
Si 11.3086 6.61219 3.66955
Si 13.7822 2.22484 3.66428
Si 11.2604 2.35043 1.73232
Si 13.8022 6.34886 1.57387
O 11.2349 5.24273 4.62489
O 13.1263 1.01731 4.45322
O 12.4594 2.50639 2.76236
O 15.0689 6.70334 2.56914
O 11.8047 1.17913 0.639357
O 13.8783 5.03689 0.5995
O 10.8173 3.74089 1.17635
O 13.3629 7.61951 0.671284
O 12.601 6.22306 2.73574
O -0.0075887 1.88592 2.87899
O 11.7443 7.61994 4.80249
O 14.3551 3.36416 4.70398
Si 0.0653187 13.1615 16.5706
Si 2.46227 8.68074 16.5301
Si 1.33359 14.9687 3.63827
Si 3.7701 10.6665 3.54744
Si 1.31241 10.8273 1.69311
Si 3.64293 15.0956 1.69009
O 0.888253 13.565 4.2638
O 3.43048 9.64367 4.79462
O 2.45222 10.9908 2.87841
O 4.81384 15.081 2.83041
O 1.51746 9.40208 0.907079
O 4.30068 14.1039 0.623291
O 1.02786 12.1411 0.710671
O 3.27691 16.4686 1.15819
O 2.264 14.3568 2.41199
O 5.01751 10.3868 2.7729
O 1.81543 15.862 4.81269
O 4.39362 12.0456 4.45232
Si 5.44683 13.1876 0.189243
Si 7.45695 8.85617 0.235289
Si 6.23182 15.0654 3.73072
Si 9.06839 10.5321 4.01298
Si 6.44082 10.8425 2.09383
Si 8.58558 15.5903 1.67593
O 6.0766 13.8077 4.73709
O 8.33051 9.14802 4.36935
O 7.71428 10.9709 3.09965
O 9.85862 15.6093 2.61725
O 6.76252 10.1273 0.778611
O 9.09355 14.0699 0.89522
O 5.96512 12.2527 1.4032
O 8.3337 16.8866 0.94115
O 7.35123 15.2373 2.61832
O 10.5143 10.363 3.22704
O 6.54763 16.5094 4.50925
O 9.60055 11.8444 4.97699
Si 10.0611 13.1238 0.156333
Si 12.6343 8.79577 0.0276232
Si 11.0017 15.3268 3.586
Si 13.7038 10.6851 3.46237
Si 11.4136 10.8876 2.00706
Si 13.6584 15.2447 1.95343
O 10.7467 13.9386 4.38995
O 13.3613 9.27137 4.11106
O 12.4834 11.6268 2.83682
O 15.0551 15.496 3.02964
O 11.7852 9.61038 1.0816
O 14.3707 14.1114 1.07075
O 10.9093 12.0118 1.07105
O 13.5111 16.5247 0.813964
O 12.343 15.2791 2.89976
O 14.898 10.5816 2.3878
O 11.169 16.5041 4.71513
O 14.3275 11.7016 4.67631
Si 0.173616 4.43477 5.6038
Si 2.20469 17.1641 5.63337
Si 1.36873 6.50865 9.54168
Si 3.65653 1.99564 9.38102
Si 1.41394 2.3917 7.23115
Si 3.66213 6.33991 7.08168
O 0.955279 5.00402 10.1105
O 3.24868 0.909617 10.4752
O 2.58961 2.09403 8.24555
O 4.96157 6.95205 7.97097
O 1.40331 0.91647 6.40815
O 3.99006 4.83747 6.49027
O 1.26506 3.62838 6.15427
O 3.13293 7.56735 6.10246
O 2.62011 6.12204 8.26181
O 5.05647 1.72498 8.69977
O 1.49598 7.561 10.7926
O 3.71263 3.48221 10.2386
Si 5.08429 4.22586 5.45119
Si 7.3352 0.174621 5.47058
Si 6.11229 6.52451 9.07364
Si 8.93754 2.22894 9.20465
Si 6.09125 2.03254 7.47925
Si 8.81525 6.70889 7.28328
O 5.56552 5.2599 9.7576
O 8.64998 1.25989 10.3379
O 7.52801 1.88269 8.22747
O 10.2059 6.91615 8.09149
O 6.18135 1.05658 6.33689
O 9.38775 5.9984 6.03989
O 5.7094 3.44475 6.58619
O 8.13638 8.21327 6.81415
O 7.52448 6.17816 8.21033
O 10.3795 2.0274 8.50316
O 6.294 7.83684 9.99438
O 8.81133 3.78717 9.71674
Si 9.98364 4.647 5.41077
Si 12.209 0.115219 5.45151
Si 11.2884 6.47056 9.27324
Si 14.1076 2.25246 9.13544
Si 11.3743 2.56515 7.46837
Si 13.8988 6.66736 7.56678
O 10.7011 5.31523 10.1594
O 13.6414 0.710799 9.70736
O 12.7614 2.54083 8.27083
O 0.252122 6.63714 8.31061
O 11.4291 1.28483 6.40777
O 14.2696 5.27913 6.7101
O 10.4782 3.74129 6.72673
O 13.3954 7.9075 6.63888
O 12.6822 6.29211 8.5186
O 0.261196 2.20944 8.27616
O 11.6176 7.81724 10.1075
O 14.1087 3.24492 10.3985
Si 0.0242057 12.8547 5.43914
Si 2.30565 8.78544 5.55836
Si 1.0722 15.2467 9.10506
Si 3.88153 10.8566 9.35828
Si 1.33217 10.9939 7.56599
Si 3.48815 15.0524 7.39061
O 0.58672 14.1067 10.0981
O 3.08277 9.66105 10.2245
O 2.79931 11.2248 8.35924
O 4.83896 15.3466 8.28275
O 1.95921 9.65326 6.85409
O 3.71469 14.0117 6.13703
O 0.989317 12.0898 6.45619
O 3.14177 16.543 6.89672
O 2.21624 14.5816 8.19204
O 5.11311 10.274 8.4439
O 1.87499 16.2284 10.158
O 4.62544 11.9773 10.3769
Si 4.90177 12.9788 5.56553
Si 7.37526 8.75549 5.42582
Si 6.19369 15.3151 9.24597
Si 8.59762 10.7159 9.11445
Si 6.12047 10.8116 7.32363
Si 8.69974 15.3078 7.19772
O 6.15609 14.0773 10.381
O 8.33088 9.36666 10.0056
O 7.64872 10.9662 7.84845
O 9.88768 15.32 8.26837
O 6.25473 9.66004 6.05139
O 9.11704 14.1853 6.16277
O 5.37128 12.2324 6.88825
O 8.08545 16.7039 6.46116
O 7.29939 15.0583 8.06274
O 10.1015 10.5112 8.16299
O 6.89818 16.4896 10.0558
O 8.90911 11.7634 10.2947
Si 10.2157 13.0183 5.61606
Si 12.556 8.79514 5.51304
Si 11.2471 15.221 9.18584
Si 13.856 11.0563 9.56254
Si 11.4828 11 7.51336
Si 13.73 15.3087 7.05035
O 11.0708 13.9562 10.1239
O 13.4715 9.6792 10.1946
O 12.5431 11.2859 8.64176
O 14.9734 15.7684 8.07899
O 11.892 9.8708 6.3971
O 14.2069 13.9815 6.33852
O 11.1964 12.3401 6.72156
O 13.3989 16.6793 6.10871
O 12.3408 14.9974 7.94887
O -0.112665 10.566 8.52563
O 11.692 16.3874 10.1256
O 14.1343 12.1068 10.5524
Si 0.200007 4.18548 11.1799
Si 2.51306 17.2306 11.1153
Si 1.37536 6.38286 14.7485
Si 4.03057 2.07438 14.7009
Si 1.41788 1.99164 12.9613
Si 4.08466 6.51529 13.1563
O 0.553532 5.17344 15.6388
O 3.57094 0.965006 15.9005
O 2.67724 1.80756 13.699
O 5.30455 6.87463 14.0663
O 1.44449 0.652626 12.0639
O 4.61523 5.55922 11.8856
O 1.24972 3.28022 12.0892
O 3.64619 7.8238 12.2815
O 2.79825 6.01681 14.1053
O 5.40826 2.13695 13.8922
O 1.6516 7.676 15.5948
O 4.17658 3.51756 15.463
Si 4.95485 4.2842 10.7856
Si 7.86859 17.4129 10.9593
Si 6.46226 6.55346 15.1269
Si 9.20868 2.24597 14.5711
Si 6.5578 2.13633 12.7759
Si 8.70381 6.52542 12.8658
O 6.17781 5.1274 15.8062
O 8.46208 1.23906 15.6538
O 8.01348 2.83357 13.6741
O 10.2351 6.97366 13.5133
O 7.0644 0.840005 12.0193
O 8.74025 5.21494 11.9726
O 5.80374 3.2339 11.4719
O 7.86854 7.6434 12.0085
O 7.77454 6.44658 14.2883
O 10.0931 1.65302 13.4825
O 6.54791 7.79013 16.0274
O 10.1035 3.46366 15.4012
Si 9.64167 4.52954 10.9208
Si 12.8743 17.3432 10.8014
Si 11.4341 6.70416 14.5094
Si 13.7026 2.08871 14.3612
Si 11.3278 2.10465 12.5323
Si 13.9562 6.47514 12.7635
O 11.0677 5.8002 15.8246
O 12.9654 0.626929 14.8177
O 12.6356 2.77697 13.4488
O 0.00354664 6.84547 13.722
O 12.0229 0.872857 11.7239
O 14.4687 5.27359 11.8675
O 10.4263 3.21719 11.5682
O 13.5464 7.61072 11.7332
O 12.5372 6.24526 13.6683
O 15.1036 1.89002 13.73
O 11.6209 8.05957 15.5751
O 14.1638 2.89467 15.5393
Si 0.113115 13.1164 11.2878
Si 2.55543 8.66175 11.5552
Si 1.20624 15.6172 14.6257
Si 4.14239 10.9281 14.9853
Si 1.78645 11.247 13.1186
Si 3.86067 15.027 12.7962
O 0.67173 14.3144 15.3521
O 3.17922 9.73318 15.564
O 2.93908 11.6935 14.0538
O 5.18006 15.0674 13.8432
O 1.89731 9.61202 12.7252
O 3.97201 14.1912 11.6131
O 1.30741 12.1719 11.8708
O 3.42896 16.471 12.2365
O 2.5831 15.0487 13.7987
O 5.05853 10.3942 13.825
O 1.65212 16.741 15.6787
O 4.93399 12.1932 15.6298
Si 5.34166 13.0553 11.2821
Si 7.12211 8.80448 10.9873
Si 6.49694 15.1258 14.7308
Si 9.00598 10.837 14.791
Si 6.37558 10.9711 13.1797
Si 9.02189 15.004 12.8127
O 6.44019 14.1597 16.0368
O 8.58072 9.65368 15.6141
O 7.67567 11.0106 13.8257
O 10.1664 15.108 13.9593
O 6.53312 10.1297 11.7477
O 9.30502 13.7113 11.9334
O 5.858 12.5636 12.6061
O 8.66769 16.1849 11.6931
O 7.58032 14.885 13.7176
O 10.2546 10.9787 13.772
O 6.53306 16.7698 15.4111
O 9.17724 12.1906 15.767
Si 10.0361 12.8986 10.7017
Si 12.5267 8.80004 11.1146
Si 11.4931 14.8466 14.809
Si 13.881 11.2263 14.6069
Si 11.4146 10.995 12.5797
Si 13.9335 15.4471 12.8944
O 11.1737 13.5541 15.6948
O 13.3501 9.78244 15.4914
O 12.7408 11.334 13.4539
O 15.12 16.1371 13.6216
O 11.7628 9.41599 12.3349
O 14.4057 14.0288 12.4278
O 11.0875 11.7423 11.3019
O 13.7497 16.3962 11.6683
O 12.5109 15.0082 13.7375
O 0.236478 11.1551 13.8775
O 11.5063 16.1646 15.9169
O 14.0998 12.3536 15.7481
324
 Atoms. Timestep: 11500
Si 15.0376 4.60928 0.138354
Si 2.53628 0.226116 16.5243
Si 0.877735 6.57135 3.94184
Si 3.82327 2.00195 3.6899
Si 1.32746 2.39897 1.96001
Si 3.46642 6.3077 2.13646
O 0.323928 5.26481 4.74237
O 3.2723 0.610013 4.44742
O 2.84338 2.43226 2.62637
O 4.69255 6.63444 2.96536
O 1.62011 1.24854 0.774199
O 3.97184 5.29151 0.958648
O 1.03196 3.77427 1.16853
O 2.97115 7.69577 1.53303
O 2.28914 5.91072 3.23546
O 5.35392 1.8594 2.84662
O 1.79878 7.66736 4.77058
O 4.06122 3.05585 4.81239
Si 5.05291 4.56093 0.0206161
Si 7.53883 17.393 16.4184
Si 5.91399 6.01158 3.7865
Si 8.80138 2.25369 3.793
Si 6.29231 2.05354 1.67008
Si 8.46876 6.37567 1.93381
O 5.9896 4.67597 4.52918
O 8.76605 0.826968 4.38369
O 7.60412 2.29866 2.7042
O 9.77608 6.98135 2.75597
O 6.57933 0.9025 0.714542
O 9.31571 5.35355 1.16378
O 5.89542 3.37998 0.776761
O 8.16984 7.71538 0.95694
O 7.26695 5.95567 2.85681
O 10.2553 2.56847 3.0715
O 6.33131 7.19336 4.99601
O 8.89708 3.39855 4.91189
Si 10.1912 4.42078 16.5756
Si 12.2679 0.231856 -0.0561298
Si 11.0964 6.72333 3.69088
Si 13.8916 1.99604 3.84861
Si 11.4399 2.42374 2.12931
Si 13.5419 7.02195 1.83622
O 10.7794 5.30839 4.4725
O 13.5295 0.609567 4.6009
O 12.8338 2.71551 2.81509
O 14.8346 6.87248 2.87602
O 11.6532 0.964084 1.26127
O 14.0192 5.69534 0.976091
O 10.9326 3.42007 0.931696
O 13.3067 8.46027 1.18383
O 12.2429 6.67394 2.60672
O 0.229122 2.21594 3.03102
O 11.6985 7.85496 4.56193
O 14.0347 3.0484 5.018
Si 0.0165291 13.334 0.123014
Si 2.56585 8.61003 0.311542
Si 0.886544 15.3364 3.54508
Si 3.86872 11.1775 3.5819
Si 1.13387 11.1155 1.88761
Si 3.63186 15.4458 1.9184
O 0.240021 14.1285 4.59646
O 3.43879 9.6243 4.30701
O 2.56555 11.4578 2.66609
O 4.95835 15.9042 2.61264
O 1.42827 9.89081 0.958896
O 4.16192 13.9568 1.26363
O 0.770457 12.2254 1.00647
O 3.10242 16.5829 0.952392
O 2.43745 15.1987 2.98793
O 5.10362 10.8873 2.62639
O 1.19059 16.441 4.69372
O 4.2256 12.2967 4.59194
Si 4.8097 12.9591 0.087983
Si 7.70242 8.7332 16.5696
Si 6.26761 15.3987 3.56803
Si 8.59131 10.7989 3.71993
Si 6.4315 11.095 1.66768
Si 8.63542 15.1548 1.61728
O 5.48112 14.3999 4.47327
O 8.12812 9.51178 4.43093
O 7.49264 11.5738 2.73718
O 9.97674 15.3807 2.44498
O 6.80761 9.80088 0.759964
O 8.71474 13.9172 0.543752
O 6.14111 12.2797 0.830368
O 8.19777 16.4901 0.873893
O 7.58808 14.7558 2.8837
O 9.82519 10.8669 2.68285
O 6.60239 16.8067 4.24383
O 9.26031 11.6846 4.90616
Si 10.0213 13.0408 0.0877154
Si 12.4162 9.13582 16.3186
Si 11.1453 15.4218 3.64501
Si 13.802 10.8516 3.6678
Si 11.3161 11.1608 1.84582
Si 13.5812 15.2472 1.79883
O 10.8825 13.9686 4.39232
O 13.7876 9.40082 4.33378
O 12.5881 11.1436 2.73032
O 14.9973 15.8411 2.43527
O 11.4584 10.116 0.593046
O 14.0052 14.0125 0.975413
O 11.0923 12.6015 1.31278
O 13.2187 16.5149 0.915343
O 12.5554 15.2109 3.04824
O 0.16705 10.9337 3.01768
O 11.4141 16.4007 4.77702
O 13.9341 11.8897 4.867
Si 14.8954 4.12151 5.76024
Si 2.33482 17.3204 5.54012
Si 1.3756 6.47658 9.31112
Si 4.19396 1.89116 9.13388
Si 1.59938 2.29903 7.49463
Si 4.08198 6.60212 7.45531
O 0.685832 5.20247 10.0481
O 3.77378 0.705549 9.89133
O 3.02363 2.34936 8.14441
O 5.20158 6.60211 8.55939
O 1.71085 1.17231 6.25891
O 4.10804 5.3161 6.46807
O 0.869942 3.57027 6.73992
O 3.57448 7.89705 6.54206
O 2.90376 6.32596 8.7187
O 5.75165 1.62566 8.59395
O 1.34393 7.79343 10.2138
O 4.05984 3.27158 10.0628
Si 4.92997 4.01326 5.72328
Si 7.74007 17.3286 5.35619
Si 6.55214 6.49511 9.38645
Si 9.16334 1.94309 9.31787
Si 6.75932 2.14223 7.36671
Si 8.89542 6.56113 7.5354
O 6.21319 5.19872 10.3887
O 8.26256 0.699594 9.89983
O 8.22182 2.59868 8.1338
O 10.1639 7.29959 8.41289
O 7.26 0.910568 6.49945
O 9.14928 5.42376 6.36066
O 5.91085 3.25172 6.64507
O 8.15191 7.74348 6.71934
O 7.79085 5.8128 8.5923
O 10.4286 1.59198 8.44647
O 6.96615 7.84094 9.97694
O 9.61163 2.99017 10.5549
Si 10.0546 4.28101 5.52697
Si 12.5313 17.1498 5.46879
Si 11.3401 6.83636 9.49575
Si 13.8289 2.01822 9.39966
Si 11.5776 2.04208 7.32879
Si 14.0015 6.55468 7.47576
O 10.5936 5.548 9.92752
O 13.4399 0.630189 10.1192
O 12.9159 2.17242 8.18207
O 0.384759 6.7213 8.17949
O 11.6683 0.879417 6.24109
O 14.0511 5.11565 6.79257
O 10.7875 3.29491 6.47719
O 13.5746 7.7093 6.49145
O 12.89 6.49856 8.8935
O 0.354121 1.90346 8.59601
O 11.5234 7.93925 10.5536
O 14.0944 3.13788 10.4725
Si 14.7754 13.0647 5.70529
Si 2.6831 8.69871 5.39749
Si 1.00444 15.1487 9.1891
Si 3.65402 10.8064 9.04907
Si 1.17289 10.8484 7.02742
Si 3.61711 15.209 7.509
O 0.775602 14.1585 10.4355
O 3.48466 9.45363 9.98391
O 2.27126 10.8565 8.24568
O 4.56881 15.5685 8.51161
O 1.56479 9.65403 6.07103
O 4.28405 14.1106 6.5649
O 1.04014 12.2952 6.36811
O 3.22619 16.4196 6.45565
O 2.20793 14.749 8.23161
O 5.01936 10.6753 8.24172
O 1.53072 16.5914 9.62164
O 4.05063 11.981 10.0514
Si 5.04786 13.2549 5.44198
Si 7.22334 8.41098 5.59808
Si 5.97115 15.2524 9.17445
Si 8.92831 10.6016 8.86281
Si 6.19884 10.8094 7.11237
Si 8.42099 14.9683 7.08834
O 5.65055 13.7882 9.75026
O 8.7637 9.52428 9.8547
O 7.5723 10.7749 7.92836
O 9.48934 15.6251 7.97491
O 6.27756 9.57736 6.09568
O 9.21177 13.5848 6.71978
O 6.11136 12.1463 6.31314
O 7.99934 15.8408 5.84815
O 7.19683 14.9796 8.19939
O 9.92342 10.5664 7.71004
O 6.30203 16.1742 10.4238
O 9.2269 11.9566 9.68647
Si 10.0538 12.8907 5.40202
Si 12.9632 8.68021 5.5228
Si 10.9001 15.4038 8.98398
Si 13.7438 10.7736 8.94133
Si 11.3994 10.8723 7.10734
Si 13.5068 15.106 7.48719
O 10.7541 13.9943 9.9457
O 13.6086 9.6269 10.0208
O 12.2885 11.084 8.44681
O 14.5813 15.4329 8.60049
O 11.9738 9.65158 6.28619
O 13.8744 13.7706 6.77349
O 11.3923 12.0223 6.10446
O 13.5927 16.2753 6.47471
O 12.0248 14.8262 8.04312
O 14.8629 10.607 7.68526
O 11.2708 16.4557 10.1037
O 14.4688 12.0117 9.97146
Si 15.1011 4.21669 11.1458
Si 2.51358 0.0157926 10.7464
Si 1.23744 6.65632 14.8616
Si 4.019 2.35664 14.8758
Si 1.47558 1.9931 12.7593
Si 3.77378 6.44714 13.0494
O 0.746655 5.58701 15.7527
O 3.7654 1.15905 15.9924
O 2.92886 2.39431 13.688
O 5.04914 6.88185 13.9206
O 1.73808 0.970254 11.5744
O 4.28265 5.25024 12.0804
O 1.2334 3.44656 11.9897
O 3.26171 7.45123 11.972
O 2.49006 6.1639 13.9616
O 5.31204 1.74877 13.8388
O 1.61757 7.70224 15.8817
O 4.27225 3.68351 15.3811
Si 5.09061 4.07708 11.0093
Si 7.42159 17.2406 10.9317
Si 6.45889 6.70499 14.7592
Si 9.06658 2.20366 14.4966
Si 6.40963 1.88057 12.8134
Si 8.85942 6.44266 12.8775
O 6.0729 5.48154 15.7866
O 8.69994 0.910116 15.5576
O 7.71522 2.12646 13.6783
O 9.99733 6.88078 13.8592
O 6.81667 0.637165 11.9911
O 9.44854 5.15669 12.3267
O 6.10627 3.00893 11.7049
O 8.67525 7.70509 11.7645
O 7.60489 6.56506 13.8411
O 10.3101 2.26109 13.6362
O 6.57196 7.9409 15.7658
O 9.29255 3.64446 15.4028
Si 10.1963 4.40195 11.0272
Si 12.3539 17.229 11.0132
Si 11.2485 6.78407 14.7524
Si 14.0002 2.33222 14.7967
Si 11.6999 2.47832 12.7852
Si 14.0701 6.70497 12.978
O 11.0618 5.3864 15.7178
O 13.1534 1.31984 15.7256
O 12.9224 2.55402 13.6583
O 0.336857 7.33541 13.5268
O 11.8155 1.08847 11.9867
O 14.4067 5.09956 12.3965
O 11.3987 3.68607 11.8482
O 13.7555 7.83034 11.8896
O 12.6702 6.65901 13.7855
O 0.125347 1.88328 13.7311
O 11.6552 8.01228 15.7348
O 14.4458 3.53834 15.8256
Si -0.0394599 12.9091 11.0631
Si 2.55051 8.52198 11.0085
Si 1.19516 15.6267 14.5433
Si 3.84847 10.5649 14.8666
Si 1.40413 11.0147 12.8714
Si 3.69135 15.1446 12.7048
O 0.592414 14.6831 15.9655
O 3.69772 9.3737 15.909
O 2.37307 10.9071 14.2957
O 4.92924 15.8596 13.4209
O 2.18067 9.70446 12.074
O 4.33081 13.8509 12.1035
O 1.18395 12.1751 11.9048
O 3.16757 16.255 11.5076
O 2.38893 15.072 13.7221
O 5.05642 10.5951 13.8833
O 1.70707 16.9756 15.3088
O 4.14308 11.797 15.8193
Si 5.13908 12.808 10.8607
Si 7.83234 8.71245 10.8563
Si 6.0868 15.2058 14.5102
Si 9.1517 10.7497 14.6184
Si 6.35701 10.6985 12.9676
Si 8.75615 14.9828 12.7839
O 5.11441 14.1063 15.4386
O 8.87675 9.74974 15.7269
O 7.67535 11.1442 13.6217
O 9.92737 15.4564 13.645
O 6.82359 9.30236 12.0865
O 9.03069 13.6435 11.9917
O 5.83891 11.5224 11.7274
O 8.44811 16.2071 11.771
O 7.36134 14.7767 13.6608
O 10.246 10.5311 13.582
O 6.65441 16.4245 15.4101
O 9.34403 12.1628 15.2853
Si 9.92092 12.9121 10.8768
Si 12.7645 8.76689 11.111
Si 11.1467 15.4016 14.7475
Si 13.8349 11.2675 14.5957
Si 11.5491 10.9483 12.7872
Si 13.8319 15.0265 12.8991
O 10.7137 14.5452 16.0986
O 13.2344 10.1041 15.307
O 12.4414 11.7332 13.8239
O -0.0646974 15.5078 13.5588
O 12.2459 9.79383 12.0742
O 14.054 13.5778 12.1177
O 11.1539 12.027 11.6197
O 13.0837 16.1447 11.8737
O 12.4629 15.0489 13.9014
O 15.0067 10.9233 13.4504
O 11.3393 16.8048 15.5547
O 14.5251 12.4598 15.5139
324
 Atoms. Timestep: 12000
Si 0.211997 4.59883 0.170541
Si 2.31762 0.196071 16.3765
Si 1.35902 6.2683 3.83588
Si 4.06725 2.3095 3.46846
Si 1.38507 2.19829 1.95598
Si 3.57861 6.35063 1.79433
O 1.04285 4.95198 4.87699
O 3.62835 0.932285 4.2441
O 3.0481 2.28288 2.17905
O 4.61683 6.65068 2.95347
O 1.51874 0.983371 0.906274
O 4.11678 5.13512 0.925143
O 0.84841 3.50332 1.33241
O 3.43639 7.82951 0.975141
O 2.24666 6.04576 2.59531
O 5.66448 2.15706 3.0466
O 1.79974 7.57787 4.74232
O 4.01135 3.48131 4.66931
Si 5.18076 4.35032 0.0667773
Si 7.33951 0.0818475 0.107846
Si 6.03621 6.56306 3.66921
Si 9.24115 2.00643 3.81039
Si 6.89042 2.61421 2.00643
Si 8.60265 6.80285 1.80223
O 6.20125 5.05967 4.35767
O 8.24168 0.617821 3.99531
O 8.32731 2.77135 2.712
O 9.56364 6.86454 3.17921
O 6.83482 1.3619 0.829636
O 9.05205 5.5344 0.883653
O 6.29857 3.84556 1.07469
O 8.3946 8.13053 0.885153
O 7.18167 6.37745 2.68649
O 10.628 1.77548 2.94213
O 6.33533 7.61758 4.79141
O 9.65413 2.99286 4.88229
Si 10.0344 4.4878 0.21507
Si 12.7101 0.155164 0.127739
Si 11.1033 6.51334 3.79582
Si 14.0666 2.02308 3.64307
Si 11.6605 2.41707 1.83666
Si 14.0108 6.67702 2.1376
O 10.8768 5.02663 4.43335
O 13.2308 0.737592 4.48297
O 13.3435 2.32726 2.1422
O 14.9383 6.68462 3.34842
O 11.7318 1.26577 0.66717
O 14.4277 5.58901 0.979876
O 11.1063 3.70002 1.18896
O 13.5407 8.08002 1.19721
O 12.3835 6.53909 2.85338
O 0.485956 1.77485 3.24337
O 11.2599 7.59692 4.91815
O 13.9869 3.22873 4.67423
Si 0.136272 13.2118 16.3505
Si 2.55856 8.73437 16.4929
Si 0.916136 15.2587 3.71864
Si 3.90203 10.8156 3.60761
Si 1.32095 10.9359 2.0248
Si 3.43429 15.4618 1.70293
O 0.563055 14.1805 4.75035
O 3.27295 9.54753 4.33375
O 2.72053 11.3524 2.64984
O 4.69441 15.858 2.57094
O 1.7895 9.64402 1.09989
O 3.99013 14.3074 0.81742
O 0.719048 12.156 0.97162
O 3.12257 16.7195 0.810572
O 2.0671 15.0397 2.51182
O 5.22582 10.4155 2.90484
O 1.20621 16.6943 4.39046
O 4.09445 11.787 4.7045
Si 4.60468 13.1799 16.4587
Si 7.57007 8.93975 16.2904
Si 5.78356 15.4623 3.5151
Si 8.49887 10.8599 3.4092
Si 6.05612 11.0521 1.68429
Si 8.58231 15.3511 1.93433
O 5.60445 14.0907 4.53673
O 8.13009 9.61495 4.20647
O 7.42372 11.3011 2.38961
O 9.89321 15.4099 2.82713
O 6.53064 9.87425 0.517084
O 8.79884 13.9721 1.04205
O 5.26965 12.0793 0.980805
O 8.21265 16.47 0.945809
O 7.11488 15.1784 2.7553
O 9.94819 10.7993 2.80663
O 6.1947 16.7068 4.4365
O 8.62316 12.2319 4.69707
Si 9.84548 13.2585 0.0519894
Si 12.6984 8.77144 0.0656196
Si 11.1935 14.9589 3.59065
Si 13.5005 10.9168 3.71462
Si 11.0164 10.8727 1.75982
Si 13.24 14.9377 1.70909
O 10.8537 13.7759 4.62782
O 12.8061 9.95057 4.77508
O 12.4346 11.0122 2.36537
O 14.5439 15.1949 2.79633
O 11.32 9.27638 0.792616
O 14.0531 13.8463 0.632279
O 10.701 12.0565 0.625376
O 12.9867 16.4903 1.18106
O 12.1491 14.3491 2.53828
O 14.9115 10.5724 2.99502
O 11.7268 16.2655 4.40436
O 14.0286 12.3312 4.39405
Si 14.9549 4.25622 5.77829
Si 2.46908 0.189867 5.09507
Si 1.29387 6.11939 9.07473
Si 3.97963 2.05068 9.25166
Si 1.51732 2.18411 7.50865
Si 4.00996 6.41692 7.33786
O 1.03865 5.0448 10.0846
O 3.29827 1.14583 10.2428
O 2.78883 2.79741 8.28819
O 4.88035 6.53537 8.69714
O 2.05842 1.09121 6.39709
O 4.8063 5.3598 6.42766
O 0.59309 3.11224 6.5714
O 3.72774 7.52979 6.21192
O 2.44541 6.076 7.94111
O 5.2226 1.31701 8.42719
O 1.78877 7.38283 10.0291
O 4.6876 3.5275 9.91392
Si 5.28563 4.25704 5.35747
Si 7.40374 17.2713 5.27685
Si 6.37186 6.66491 9.28214
Si 9.04824 2.09362 9.30062
Si 6.4103 1.9272 7.47935
Si 8.65982 6.37824 7.31405
O 6.48667 5.47354 10.412
O 8.69715 0.574093 9.99866
O 7.78861 2.47808 8.3349
O 9.79797 6.77005 8.51747
O 6.93682 0.685389 6.46985
O 9.38742 5.14505 6.60061
O 5.9616 3.05974 6.35509
O 8.48638 7.57187 6.27699
O 7.33734 6.17596 8.1522
O 10.4001 1.90851 8.52107
O 6.63858 7.96877 10.2243
O 9.52145 3.30696 10.3794
Si 10.5415 4.22048 5.65922
Si 12.5271 17.1134 5.4342
Si 11.19 6.56708 9.33713
Si 14.1576 2.18066 9.15725
Si 11.6586 1.92834 7.45126
Si 13.6125 6.549 7.29938
O 11.3823 5.08047 10.1611
O 13.6424 1.30354 10.443
O 13.0969 2.29493 8.03924
O 14.9144 6.33708 8.16097
O 11.6708 0.585344 6.60739
O 13.8314 5.26578 6.26815
O 11.4127 3.25236 6.62759
O 13.5168 7.70591 6.19412
O 12.2775 6.50976 8.17732
O 0.43798 1.79849 8.54184
O 11.918 7.56998 10.3862
O 14.4027 3.48953 10.0579
Si 14.9368 13.0554 5.64226
Si 2.72479 8.63517 5.49275
Si 1.01416 15.5271 9.21461
Si 3.71217 10.9906 8.73803
Si 1.34044 10.8576 7.21429
Si 3.2969 15.269 7.09524
O 0.966456 14.233 10.3017
O 3.1629 9.61472 9.44847
O 2.54076 11.4709 7.90425
O 4.58127 15.1557 8.14272
O 1.86338 9.62372 6.28535
O 3.81962 13.9723 6.29791
O 0.953483 12.0457 6.15565
O 3.08683 16.3957 6.00334
O 2.08854 15.109 8.10231
O 4.72354 10.3899 7.73878
O 1.32937 16.8288 9.98431
O 4.11207 12.0452 9.95022
Si 4.85407 13.1595 5.53085
Si 7.56562 8.49474 5.37657
Si 6.06706 15.1471 9.23511
Si 8.58945 11.2108 9.34334
Si 6.20542 10.8593 7.12699
Si 8.56252 15.1141 7.35514
O 5.94721 13.8792 10.1911
O 8.28902 10.122 10.7668
O 7.07626 10.9462 8.49326
O 9.61346 15.5907 8.3984
O 7.01326 9.63482 6.32908
O 9.18419 13.7783 6.66646
O 5.6884 12.1596 6.54514
O 8.41971 16.1543 5.97278
O 7.19591 15.0313 8.08682
O 10.0884 10.8037 8.64836
O 6.41741 16.5857 9.8321
O 9.03666 12.5321 10.0757
Si 9.8625 12.8679 5.5867
Si 12.4575 8.63634 5.65872
Si 10.9785 15.6213 9.3164
Si 13.896 10.8626 9.31272
Si 11.3329 10.8187 7.54797
Si 13.4835 15.1272 7.36919
O 10.5844 14.4942 10.322
O 13.6259 9.60343 10.1028
O 12.6402 11.2518 8.40385
O 14.5771 15.6032 8.46137
O 11.8307 9.47065 6.89922
O 14.1208 13.7384 6.67344
O 10.8803 11.8673 6.41045
O 13.5095 16.1154 6.17162
O 12.1979 14.9599 8.30774
O 0.0311461 10.5763 8.18772
O 11.8469 16.7531 9.91909
O 14.4878 12.1159 10.2156
Si 0.230161 4.20314 11.06
Si 2.4017 0.133675 11.1249
Si 1.47799 6.54509 14.6211
Si 4.00442 2.23975 14.7572
Si 1.41208 2.23872 13.3041
Si 3.85903 6.76982 12.41
O 1.23422 5.38318 15.8276
O 3.41669 0.995345 15.5617
O 2.79734 2.78483 13.8898
O 5.14038 6.69918 13.6306
O 1.86388 1.03898 12.3856
O 4.26559 5.52861 11.65
O 0.821807 3.26758 12.294
O 3.48222 7.9378 11.3852
O 2.52142 6.50396 13.5629
O 5.21295 1.68727 13.5834
O 1.60665 7.85051 15.6814
O 4.67149 3.27316 15.5951
Si 5.30137 4.61554 11.0351
Si 7.47877 17.3244 10.8363
Si 6.38256 6.59059 14.5497
Si 9.01944 2.02065 14.9463
Si 6.44827 2.14674 12.8443
Si 8.90832 6.41616 13.1024
O 5.93375 5.60817 15.9327
O 8.63539 0.809338 15.9305
O 7.79029 2.35363 13.6534
O 10.2062 7.07428 14.1557
O 6.65712 1.1513 11.4867
O 9.53291 5.23667 12.2047
O 5.75679 3.73649 12.3508
O 8.70922 7.60539 11.9211
O 7.67442 5.99719 13.8207
O 10.3282 1.93303 14.1071
O 6.88131 7.96681 15.2193
O 9.26788 3.36636 15.9555
Si 10.3707 4.34108 11.3635
Si 12.788 0.0970179 10.9684
Si 11.5279 6.36542 14.9754
Si 14.2426 2.25404 15.1982
Si 11.6898 2.10716 13.192
Si 13.8933 6.43003 12.9832
O 11.2393 5.15079 15.8679
O 13.8974 1.1236 16.1462
O 12.9687 2.33829 14.3051
O 15.0292 6.69435 14.2163
O 11.7885 0.747364 12.2218
O 14.4809 5.36798 12.0522
O 11.3586 3.19531 12.0424
O 13.6146 7.84277 12.199
O 12.312 5.77816 13.6305
O 0.55972 2.10733 14.45
O 12.2561 7.68852 15.4439
O 14.288 3.75119 15.8191
Si 0.102069 13.0902 11.1135
Si 2.39715 8.81366 10.5963
Si 1.14634 15.3503 14.6279
Si 3.77244 10.8648 14.4357
Si 1.1202 10.5844 12.6935
Si 3.64249 15.2523 12.6939
O 1.19463 14.1244 15.7347
O 3.5047 9.75362 15.713
O 2.48089 10.8827 13.5537
O 4.69171 15.6062 13.8568
O 1.41105 9.68429 11.3923
O 4.04105 13.8772 11.8621
O 1.01182 12.0628 12.101
O 3.37884 16.5151 11.6721
O 2.26184 15.1601 13.5947
O 5.01945 10.3085 13.685
O 1.36998 16.6405 15.288
O 3.74667 12.4331 15.2646
Si 4.99845 12.8635 11.0543
Si 7.65397 8.66686 11.3142
Si 6.03 15.4007 14.9252
Si 8.88493 11.209 14.6605
Si 6.40409 10.7779 12.978
Si 8.43929 15.1094 12.8597
O 5.69242 14.054 15.6348
O 8.55082 10.0279 15.5706
O 7.46675 11.5155 13.8557
O 9.84064 15.2508 13.8025
O 6.99544 9.24194 12.4715
O 8.92083 13.6923 12.2836
O 5.86126 11.7872 11.9478
O 8.14886 16.317 11.7876
O 7.21443 14.9649 13.8768
O 9.98478 10.6208 13.5255
O 6.25086 16.7788 15.7341
O 9.38664 12.6045 15.3159
Si 10.031 13.2058 11.1446
Si 12.6684 8.70013 11.1245
Si 11.2893 15.3143 14.6545
Si 13.9364 10.8271 14.6807
Si 11.1975 10.9323 12.6579
Si 13.6202 15.1683 12.864
O 10.9287 14.279 15.8231
O 13.613 9.94284 15.8274
O 12.5997 10.817 13.6022
O 14.6297 15.5499 13.9804
O 11.5668 9.74256 11.6863
O 14.0747 13.8107 12.1266
O 10.9282 12.346 11.9284
O 13.6707 16.4299 11.7234
O 12.273 15.0003 13.6359
O 15.0252 10.0667 13.5879
O 12.2191 16.5095 15.558
O 14.5033 12.1516 15.3172
324
 Atoms. Timestep: 12500
Si 14.8949 4.39314 16.4243
Si 2.60423 17.2266 16.4
Si 1.34836 6.41967 3.56574
Si 3.81055 2.14125 3.80652
Si 1.63542 2.33697 1.7314
Si 3.91576 6.82861 1.84253
O 0.915292 4.9323 4.22236
O 3.54642 0.926838 4.61666
O 2.63151 2.41414 2.88473
O 5.01491 7.1713 2.85017
O 2.03403 1.05852 0.639484
O 4.1202 5.52934 0.89946
O 1.22462 3.76465 0.780832
O 3.35305 7.93829 0.896533
O 2.56476 6.35593 2.72204
O 4.91915 1.90473 2.52636
O 1.52967 7.31726 4.90044
O 4.49911 3.40357 4.46788
Si 4.89618 4.40486 16.4314
Si 7.61533 0.0717733 0.0611578
Si 6.34297 6.88546 3.7507
Si 8.79714 2.07876 3.76017
Si 6.33624 2.35845 1.92257
Si 8.95071 6.76416 1.87824
O 6.16292 5.47714 4.5651
O 8.15239 1.0862 4.92834
O 7.59708 2.50562 2.73548
O 10.2128 7.10359 2.7314
O 6.79556 1.20185 0.826159
O 9.41021 5.37455 1.15562
O 5.97962 3.65806 0.945032
O 8.66359 7.9155 0.85129
O 7.47661 6.74208 2.71753
O 10.0416 1.36873 3.04746
O 6.4573 8.25385 4.81087
O 9.19505 3.4201 4.531
Si 10.1356 4.20981 0.328044
Si 12.7785 0.0779012 16.3997
Si 11.5332 6.64187 3.73985
Si 14.0663 1.86373 3.48699
Si 11.2644 1.86822 1.99698
Si 13.7887 6.49123 1.92185
O 11.0262 5.37202 4.84169
O 13.8448 0.595244 4.419
O 12.6256 1.9497 2.84788
O 15.0578 6.92022 2.8946
O 11.7459 1.02826 0.704009
O 14.2836 5.34474 1.02889
O 10.8623 3.20789 1.40299
O 13.5375 7.64189 0.858234
O 12.5758 5.90717 2.68691
O 0.233734 2.05362 2.54145
O 12.4079 7.76405 4.2883
O 14.1323 3.24766 4.26127
Si 14.8411 12.8003 0.0954687
Si 2.32191 8.79649 -0.0885753
Si 0.851382 15.077 3.56301
Si 3.70757 10.6446 3.84368
Si 0.978685 10.6178 2.00935
Si 3.46296 14.9586 1.90224
O 0.767202 13.9804 4.44662
O 3.0353 9.42959 4.69666
O 2.28601 10.5805 2.93544
O 4.59679 15.1333 3.06701
O 1.16923 9.59263 0.846811
O 3.681 13.9078 0.793242
O 0.773441 11.8932 1.03525
O 3.46417 16.3999 1.01796
O 2.12561 14.8022 2.50691
O 5.019 10.4102 2.91477
O 1.41126 16.4686 4.34913
O 3.69876 11.9471 4.71772
Si 4.66853 13.0457 -0.00785883
Si 7.62163 8.99561 16.324
Si 6.07269 14.8961 3.75956
Si 8.87685 10.9304 3.59994
Si 6.13075 10.73 1.92256
Si 8.68656 15.3734 2.06885
O 5.81687 13.3933 4.76099
O 8.98084 9.84469 4.7044
O 7.33196 11.0412 3.00456
O 9.74838 15.1522 3.22036
O 6.81725 9.73414 0.924793
O 9.14887 14.1368 1.21909
O 5.2973 11.9281 1.10237
O 8.43142 16.5336 1.06191
O 7.26056 14.6437 2.62759
O 9.7664 10.5951 2.17446
O 6.33097 16.1512 4.63104
O 9.30964 12.2585 4.50015
Si 10.0023 13.2477 0.0434609
Si 12.8076 8.64594 16.4012
Si 11.1236 15.0075 3.88555
Si 13.474 11.0015 3.82954
Si 11.2797 11.0303 1.67544
Si 13.5903 15.0104 1.93259
O 11.0258 14.1111 5.15973
O 13.2085 9.9463 5.01789
O 12.1023 11.051 2.99162
O 14.5591 15.4597 2.9703
O 12.0515 9.80669 0.572104
O 14.257 13.8862 1.1521
O 10.8372 12.4184 1.05742
O 13.1349 16.244 0.844061
O 12.2408 14.9187 2.72638
O 14.6079 10.5726 2.85751
O 11.4581 16.4754 4.47135
O 13.8616 12.3833 4.49774
Si 0.058333 4.24672 5.31436
Si 2.50197 17.4099 5.38288
Si 1.31797 6.49235 8.95434
Si 3.83423 2.36227 9.2572
Si 1.35257 2.25861 7.19038
Si 3.93132 6.49054 7.35517
O 0.779754 5.26777 9.9675
O 3.87051 1.00484 10.1308
O 2.46822 2.48453 8.37364
O 5.03907 6.92979 8.45338
O 1.70836 1.03085 6.31378
O 4.35332 5.26283 6.45267
O 0.923904 3.63422 6.46072
O 3.44695 7.94208 6.63273
O 2.53439 5.85019 8.05873
O 5.01487 2.36191 8.18892
O 1.9226 7.90103 9.68303
O 3.91367 3.76981 10.2314
Si 5.53093 4.31956 5.46635
Si 7.36763 17.3526 5.48669
Si 6.45435 6.53865 9.11317
Si 8.95418 2.10949 9.1137
Si 6.42768 2.18981 7.47231
Si 8.98818 6.56536 7.1455
O 6.09841 5.27188 9.95295
O 8.74709 0.908539 10.126
O 7.55544 2.29001 8.50268
O 10.3572 6.55666 7.93629
O 6.39635 0.834349 6.53625
O 8.93535 5.24458 6.26182
O 6.36196 3.5303 6.49659
O 8.61509 7.55578 5.98571
O 7.73378 6.68567 8.16219
O 10.0177 1.79384 7.82008
O 6.79347 7.82866 10.0058
O 9.37115 3.42328 9.85395
Si 10.0869 4.32032 5.56273
Si 12.6338 17.2508 5.33338
Si 11.4444 6.10939 8.9957
Si 13.8918 1.99908 8.95524
Si 11.4888 2.3299 7.22474
Si 13.9913 6.35233 7.21324
O 10.8823 5.16053 9.98377
O 13.6686 0.687556 9.9896
O 12.6005 2.43319 8.3619
O 14.9951 6.90512 8.26746
O 12.0785 1.19792 6.25835
O 14.2465 5.22649 6.02459
O 11.0634 3.53132 6.40133
O 13.2985 7.65637 6.50899
O 12.7968 5.80974 8.30232
O -0.0664571 1.76312 7.90683
O 11.5868 7.62507 9.83245
O 14.4188 3.1057 9.8947
Si 15.0559 12.994 5.53246
Si 2.35042 8.52304 5.7028
Si 1.31196 15.4142 9.26789
Si 3.63057 10.9901 9.24543
Si 1.23869 10.6346 7.28526
Si 3.71984 15.269 7.45535
O 0.653387 14.1528 10.0428
O 3.44155 9.97637 10.5027
O 2.54752 10.8842 8.07255
O 5.0203 15.8969 8.4079
O 1.30538 9.28543 6.61518
O 3.95654 13.7536 6.63539
O 0.729474 11.8945 6.56002
O 3.30059 16.258 6.28828
O 2.53304 15.0479 8.40418
O 5.19175 10.649 8.77708
O 1.88359 16.6356 10.2798
O 4.10046 12.6636 9.59621
Si 4.84781 12.8951 5.82065
Si 7.88383 8.78405 5.48185
Si 6.31412 15.645 9.44679
Si 8.84399 11.3082 9.70191
Si 6.43562 11.0375 7.7583
Si 8.78013 15.4283 7.39481
O 5.72187 14.3234 10.114
O 8.21396 10.054 10.3099
O 7.8332 11.4919 8.48026
O 10.2438 15.8025 7.99369
O 7.29152 9.66167 6.80725
O 8.92486 13.9926 6.58699
O 5.78745 11.9195 6.60684
O 8.40875 16.4483 6.26842
O 7.47758 15.4101 8.37926
O 10.2603 11.0277 8.82235
O 6.73658 16.7511 10.3783
O 9.13614 12.2603 10.7672
Si 9.89109 13.0281 5.66542
Si 12.5476 8.72307 5.57481
Si 11.3389 15.4192 9.09337
Si 13.8083 10.7889 9.1362
Si 11.2569 10.6493 7.27278
Si 13.9565 15.2496 7.44826
O 10.3827 14.3004 10.0666
O 13.4509 9.5798 10.1324
O 12.7302 10.7984 7.9063
O 0.0914788 15.7463 8.26519
O 11.3493 9.33415 6.36255
O 14.5162 14.003 6.61991
O 10.6391 11.9308 6.48245
O 13.3451 16.3116 6.44993
O 12.5556 14.7438 8.36585
O 0.0656025 10.5196 8.38194
O 11.7155 16.7043 10.0119
O 13.9668 12.2654 9.88492
Si 14.9951 4.17625 10.8852
Si 2.97685 0.106803 11.0613
Si 1.22666 6.49833 14.4049
Si 4.0276 2.27123 14.8711
Si 1.6122 2.46501 12.8954
Si 3.82593 6.77627 13.0486
O 0.342052 5.29275 15.2976
O 3.53804 0.749599 15.3282
O 2.92 2.62305 13.8252
O 4.95281 7.23817 14.0918
O 2.17685 1.20758 11.8644
O 4.51529 5.83882 12.0954
O 0.888283 3.65263 11.907
O 3.16748 7.90615 12.325
O 2.68376 5.9509 13.7389
O 5.45899 2.42815 14.267
O 1.64017 7.84419 15.4036
O 3.75613 3.29173 15.9639
Si 5.01939 4.59775 11.1145
Si 7.72968 0.353295 11.3229
Si 6.3467 6.77275 14.5906
Si 9.02688 2.14863 14.945
Si 6.51674 2.57439 13.0526
Si 8.94432 6.48245 12.6774
O 5.92813 5.22534 15.3833
O 8.41453 0.638811 15.3648
O 7.96444 2.74834 13.9361
O 10.1308 6.53471 13.8329
O 7.09885 1.73117 11.9351
O 9.44414 5.3109 11.8631
O 5.70456 3.62678 11.9751
O 8.52861 7.88238 12.0236
O 7.3916 6.31942 13.3401
O 10.3265 1.81097 13.9413
O 6.96937 7.83626 15.5447
O 9.22232 3.02828 16.1659
Si 10.1111 4.23357 11.0096
Si 12.8425 17.1204 10.9461
Si 11.5053 6.15329 14.5824
Si 14.0272 2.07028 14.7876
Si 11.6279 2.08348 12.8475
Si 13.7919 6.40985 12.6772
O 11.1546 4.68843 15.5371
O 13.9936 0.755386 15.7155
O 12.9381 2.20735 13.775
O 0.148226 6.73028 13.2347
O 11.8155 0.490645 12.0943
O 13.8044 5.19858 11.5732
O 11.0263 3.0182 11.8617
O 13.1539 7.65935 11.8465
O 12.8358 5.93315 13.8015
O 0.375581 2.06258 13.9017
O 11.8329 7.37292 15.6579
O 14.0057 3.32712 15.7298
Si -0.0192496 12.9353 10.7797
Si 2.58087 8.81956 11.0853
Si 1.12138 14.8784 14.7479
Si 3.56677 10.9625 14.6783
Si 0.965552 10.828 12.6747
Si 3.65828 15.3806 13.0651
O 0.648212 13.6689 15.6619
O 3.24819 9.95161 15.7615
O 2.43052 10.9534 13.5949
O 4.67938 15.3789 14.2632
O 1.36085 9.42802 11.8724
O 4.30076 14.2387 11.9511
O 1.11576 11.8096 11.2207
O 3.74779 16.6306 12.0454
O 2.4393 14.8566 13.7058
O 4.84672 10.6647 13.6994
O 1.70633 16.0446 15.6406
O 3.88213 12.3682 15.55
Si 4.83788 13.2809 10.899
Si 7.48715 8.77726 11.0997
Si 6.02917 15.2063 15.1242
Si 8.6543 11.2859 14.4684
Si 6.10447 11.1075 12.7853
Si 8.68787 15.5526 13.2773
O 5.81541 14.163 16.1412
O 8.27524 9.90787 15.3535
O 7.41303 11.7234 13.5921
O 9.70913 15.6908 14.4867
O 6.73903 9.60817 12.3328
O 9.24424 14.2152 12.5279
O 5.36907 11.8973 11.6994
O 8.33723 16.5564 12.1678
O 7.32445 14.9662 14.02
O 9.73809 11.1996 13.3959
O 6.5976 16.577 15.6265
O 9.18421 12.0593 15.7635
Si 10.1071 13.4126 11.3531
Si 12.254 8.63057 10.8939
Si 11.1702 15.4607 14.7268
Si 13.4643 10.7518 14.7445
Si 11.0526 11.0357 12.5781
Si 13.6723 14.8136 12.8083
O 10.9986 14.3768 15.7901
O 13.564 9.34956 15.3164
O 12.2001 10.7598 13.6301
O 14.8666 15.3543 13.7413
O 11.3184 9.77892 11.3786
O 14.3996 13.313 12.2287
O 11.2447 12.633 11.8965
O 13.3668 15.647 11.5048
O 12.3452 14.7161 13.6765
O 14.7568 10.7995 13.6055
O 12.1177 16.7457 14.9892
O 13.8026 11.8126 15.778
324
 Atoms. Timestep: 13000
Si 0.174138 4.2436 16.441
Si 2.72838 0.108193 0.103848
Si 1.32585 6.44131 3.55817
Si 3.5936 2.36343 3.49697
Si 1.15429 1.90848 1.7656
Si 3.78993 6.6414 1.70869
O 0.994522 5.12518 4.35242
O 3.40146 1.24662 4.80433
O 2.11071 2.56212 2.83038
O 4.95867 7.00301 2.6321
O 1.80136 0.650688 1.24556
O 4.29816 5.29044 0.887977
O 0.927059 3.03046 0.610662
O 3.17747 7.76042 0.747348
O 2.63427 6.38255 2.69038
O 4.78237 1.89625 2.67414
O 1.75537 7.69017 4.61698
O 4.08034 3.74886 4.25648
Si 5.16778 4.35922 16.4761
Si 7.6452 17.3204 16.4852
Si 6.36498 6.86266 3.40872
Si 8.54755 2.09475 3.79529
Si 6.2254 2.02446 1.84205
Si 8.9706 6.53333 1.65487
O 5.87448 5.60866 4.46878
O 8.50627 0.653257 4.44252
O 7.21645 2.38562 3.05772
O 10.2474 6.82243 2.75502
O 6.84998 0.854639 1.03286
O 9.25808 5.02557 1.16036
O 6.02638 3.2245 0.779123
O 8.5517 7.41222 0.555108
O 7.66867 6.70689 2.54842
O 9.70208 1.81186 2.54209
O 6.92951 7.78542 4.78701
O 9.05178 3.20229 4.72583
Si 10.1993 4.36658 0.090288
Si 12.8144 0.0931241 16.5534
Si 11.5394 6.55942 3.62922
Si 13.6658 2.33786 3.58034
Si 11.215 2.02979 2.07404
Si 13.814 6.40898 1.63071
O 10.9253 5.34363 4.39584
O 13.6084 0.940028 4.59266
O 12.3661 2.42249 3.08041
O 0.271327 6.69937 2.25783
O 11.759 0.730706 1.07431
O 14.2948 5.17402 0.685109
O 10.9934 3.35116 1.01568
O 12.8938 7.29016 0.543617
O 12.8295 6.38493 2.81025
O 14.7192 1.89898 2.29371
O 11.8978 7.7491 4.7345
O 13.9715 3.50684 4.57424
Si 14.6634 13.2411 0.0472342
Si 2.28636 8.71278 16.4786
Si 1.36525 15.222 3.72138
Si 3.703 10.6323 3.64695
Si 1.03617 11.0262 1.95808
Si 3.90007 15.0922 1.73898
O 1.45365 13.979 4.85601
O 3.43164 9.41402 4.6133
O 2.51555 11.3201 2.64701
O 4.88207 15.5439 2.84508
O 1.57168 9.81674 0.972502
O 4.39512 13.6917 1.19242
O 0.425154 12.4222 1.32582
O 3.75857 16.5117 0.614183
O 2.46937 15.0351 2.54091
O 4.95221 10.3558 2.60063
O 1.79713 16.6929 4.46843
O 4.0015 11.946 4.33745
Si 4.89804 12.7538 16.5004
Si 7.38936 8.48915 0.186372
Si 6.21352 15.0662 3.59034
Si 8.63061 10.9681 3.95256
Si 6.25376 10.7975 1.97134
Si 8.92853 15.431 1.874
O 6.06166 13.8044 4.60547
O 8.39579 10.153 5.17679
O 7.33284 11.0676 3.02143
O 9.93233 15.884 2.97588
O 6.48656 9.15317 1.19601
O 9.322 14.0972 1.25299
O 5.8105 11.6852 0.688836
O 8.53104 16.1989 0.588242
O 7.33132 15.1333 2.38316
O 10.0291 10.3656 3.02675
O 6.53326 16.417 4.50378
O 9.11362 12.4006 4.38377
Si 9.96703 13.0713 0.23115
Si 12.2085 8.64389 16.5621
Si 11.2242 15.628 3.82877
Si 13.8601 10.8888 3.81522
Si 11.377 10.5567 2.12554
Si 13.8165 15.4122 1.88267
O 11.0836 14.3018 4.57016
O 13.5673 9.80022 4.86488
O 12.4593 11.1485 3.1065
O 15.0508 15.3595 2.92645
O 11.9022 9.303 1.37478
O 13.7176 13.92 1.0451
O 10.736 11.7427 1.00023
O 13.8769 16.5608 0.726914
O 12.4433 15.445 2.76785
O 15.0996 10.219 2.89679
O 11.5397 16.7692 5.00605
O 14.6031 12.211 4.51068
Si 0.173728 4.33818 5.4265
Si 2.75574 0.211411 5.64788
Si 1.57804 6.31855 9.36854
Si 3.68973 2.29919 9.26361
Si 1.25543 2.29636 7.41766
Si 4.15392 6.32334 7.39605
O 0.996539 5.23081 10.2366
O 3.61275 0.773278 10.2056
O 2.37389 2.61074 8.51656
O 5.52335 6.67626 8.05177
O 1.72458 0.747757 6.75374
O 4.1506 5.12415 6.58058
O 1.15752 3.21108 6.1987
O 3.48532 7.36709 6.3441
O 3.00023 6.24222 8.53904
O 4.72374 2.22498 7.97409
O 1.77809 7.64814 10.2613
O 4.22259 3.26184 10.3452
Si 4.97206 4.59286 5.35059
Si 7.51238 17.3845 5.46677
Si 6.54483 6.32983 9.18732
Si 8.72149 2.13087 8.87798
Si 6.06646 2.25735 7.07846
Si 9.04668 6.57075 7.25801
O 5.88309 5.09346 9.98109
O 8.19879 0.76024 9.70432
O 7.35314 2.64965 8.08216
O 10.4732 6.62408 7.93173
O 6.7238 1.0653 6.16781
O 9.07833 5.2153 6.38062
O 5.79616 3.40015 6.00772
O 8.80923 7.95941 6.60406
O 7.93312 6.24254 8.43055
O 9.94791 1.57834 7.93479
O 6.92606 7.50985 10.4958
O 9.28864 3.58821 9.43449
Si 10.0453 4.20284 5.35549
Si 12.7942 0.149715 5.58504
Si 11.5247 6.63391 9.0364
Si 13.7107 2.19206 9.13962
Si 11.2541 2.22262 7.38549
Si 14.1479 6.55431 7.51167
O 11.0182 5.3941 10.2267
O 13.2416 0.854517 9.79605
O 12.2888 2.73674 8.51582
O 0.386903 6.58323 8.22733
O 12.3066 1.18895 6.6628
O 14.3791 5.21137 6.50133
O 10.7987 3.5078 6.60429
O 13.7159 7.75859 6.56589
O 13.0074 6.3755 8.5833
O 15.031 2.07319 8.14672
O 11.3522 8.04419 9.94106
O 14.4162 3.28801 10.1371
Si 0.358324 12.9761 5.72473
Si 2.67058 8.48373 5.62496
Si 1.78701 15.1543 9.08053
Si 3.90698 10.7718 9.51949
Si 1.2921 10.7253 7.41731
Si 4.21153 15.3027 7.14955
O 1.1495 13.9099 9.74414
O 3.45348 9.59678 10.1673
O 2.62021 10.9865 8.49807
O 5.27174 15.789 8.22668
O 1.56392 9.40592 6.59926
O 4.48667 13.9601 6.44972
O 1.29331 11.9404 6.21732
O 3.56168 16.5254 6.30124
O 3.1007 14.993 8.18492
O 5.18263 10.2932 8.49552
O 2.03907 16.2494 10.1707
O 4.40919 11.8934 10.4577
Si 5.14888 12.9318 5.37201
Si 7.67947 8.65709 5.76191
Si 6.3193 15.0008 9.344
Si 8.90213 10.5075 9.22097
Si 6.51549 10.6475 7.39163
Si 8.69646 15.2613 7.41409
O 5.79374 13.7701 10.0483
O 8.40439 9.20755 10.0753
O 7.66127 11.0683 8.24095
O 10.1929 15.2617 8.10487
O 6.53869 9.39072 6.41078
O 8.98235 14.0002 6.45228
O 5.7947 11.7836 6.59088
O 8.16388 16.5421 6.56123
O 7.56125 15.0247 8.31803
O 9.88646 10.4383 7.90377
O 6.61735 16.2382 10.5324
O 9.3665 11.5833 10.2302
Si 10.0238 13.3591 5.35669
Si 12.7498 8.73137 5.65503
Si 11.3839 15.2036 9.09835
Si 13.7346 11.2453 9.25717
Si 11.1663 11.0894 7.29679
Si 14.0879 15.2401 7.54253
O 11.0081 13.8426 9.78754
O 13.2187 10.0031 10.1615
O 12.4235 11.4794 8.14777
O 0.420112 15.648 8.21822
O 11.8454 9.99649 6.2486
O 14.5615 14.0112 6.52824
O 10.7909 12.3357 6.28002
O 13.6062 16.356 6.4484
O 13.0255 14.895 8.58997
O 15.018 10.7274 8.43879
O 11.7055 16.3922 10.0323
O 14.0352 12.6012 10.0014
Si 15.0326 4.38375 11.0935
Si 2.68888 17.271 11.0789
Si 1.01792 6.62273 14.7137
Si 3.80694 2.35462 14.7318
Si 1.33557 2.21403 12.7599
Si 3.66511 6.71221 12.9673
O 1.09213 5.37892 15.5831
O 3.30485 1.28762 15.7323
O 2.60877 2.61412 13.5833
O 4.78983 6.68943 14.1674
O 1.44105 1.14794 11.5772
O 4.27415 5.4568 11.8694
O 0.806593 3.64447 12.273
O 3.60489 8.04347 12.0415
O 2.26428 6.67992 13.6232
O 5.31675 1.76324 14.1496
O 1.26897 7.82165 15.6622
O 4.08152 3.77118 15.3773
Si 5.02885 4.48909 11.1427
Si 7.6759 17.3612 11.0484
Si 6.31442 6.61161 14.6318
Si 8.87978 2.25607 14.7539
Si 6.21331 2.22292 13.0232
Si 8.86409 6.02972 12.8186
O 6.26145 5.33987 15.8264
O 8.60332 0.805953 15.6039
O 7.61042 2.64904 13.8625
O 9.91974 6.06662 13.9073
O 6.8451 1.09641 12.1003
O 8.99485 5.25702 11.5077
O 5.79123 3.62836 12.2109
O 8.8937 7.70111 12.1842
O 7.40637 6.04915 13.6334
O 10.0644 1.87291 13.6999
O 6.73759 7.98352 15.3838
O 9.66459 3.31036 15.6008
Si 10.0283 4.33067 10.7946
Si 12.2724 0.162947 10.9184
Si 11.0964 6.73689 14.9109
Si 13.7523 2.25395 14.5251
Si 11.1732 2.38403 12.6755
Si 13.5722 6.56471 12.7027
O 11.1094 5.60583 16.0608
O 13.5179 1.20308 15.7312
O 12.5535 2.24652 13.4119
O 14.8656 6.69472 13.7596
O 11.1317 1.21876 11.4375
O 13.8592 5.22482 11.7777
O 10.657 3.66894 12.0281
O 13.0521 7.63424 11.8021
O 12.3853 6.59014 13.8383
O 0.0487673 1.72178 13.7192
O 11.1475 8.17969 15.4856
O 14.3277 3.56361 15.1787
Si 15.0105 13.4024 10.9307
Si 2.62178 8.67521 11.0836
Si 1.05742 15.4078 14.7563
Si 3.46691 10.8937 14.5852
Si 0.906344 11.0395 12.8628
Si 3.48205 15.1611 13.1518
O 0.43579 14.3509 15.8762
O 3.12301 9.45226 15.2365
O 2.08328 11.307 13.8792
O 4.91789 15.4158 13.9045
O 1.48954 9.96363 11.8148
O 3.92069 13.8754 12.1615
O 0.35784 12.5014 12.2199
O 3.0427 16.3394 12.298
O 2.31886 14.8362 14.023
O 4.64596 10.6219 13.6229
O 1.73431 16.7415 15.4823
O 3.91102 12.2168 15.5167
Si 5.01994 13.0903 11.2698
Si 7.802 8.64942 11.2729
Si 6.21003 14.9912 14.6441
Si 8.52046 10.9774 15.0209
Si 6.15173 10.9718 12.8704
Si 8.89319 15.0873 12.6204
O 5.83811 13.6962 15.5024
O 8.24388 9.74332 16.2595
O 7.19072 10.9454 14.2185
O 10.0604 15.1439 13.8639
O 6.67948 9.80038 11.9099
O 9.15676 14.0806 11.486
O 6.1612 12.1289 12.121
O 8.62441 16.6638 11.9552
O 7.3278 14.4842 13.4015
O 9.58652 10.5767 13.8084
O 6.7742 16.3908 15.5313
O 8.95654 12.2463 15.8282
Si 10.0846 12.7932 10.8239
Si 12.3717 8.81797 10.878
Si 11.3393 15.1946 14.7835
Si 13.5243 10.9877 14.784
Si 10.9514 10.7274 13.0775
Si 13.6948 15.597 12.9162
O 11.0416 13.7942 15.894
O 13.1663 9.72884 15.7671
O 12.0061 11.1858 14.0727
O 14.8652 15.9607 14.0092
O 11.6871 9.70989 12.0635
O 14.5117 14.7065 11.6398
O 10.6567 12.1614 12.1499
O 13.1174 16.8337 12.1492
O 12.5574 14.7974 13.6279
O 14.6131 10.7899 13.6422
O 11.6919 16.4772 15.7293
O 14.095 12.0703 15.5878
324
 Atoms. Timestep: 13500
Si 14.7183 4.04542 16.3504
Si 2.81165 0.0557562 16.5514
Si 1.1904 6.61184 3.83987
Si 3.57342 2.50942 3.51854
Si 1.15819 2.11592 1.83106
Si 3.68194 6.37917 1.90597
O 1.29638 5.50122 4.98452
O 3.08613 1.43264 4.55582
O 2.27258 2.70712 2.65713
O 4.81509 6.24709 3.03159
O 1.52974 0.735774 1.20109
O 3.71529 5.12598 0.847861
O 0.411992 3.01325 0.653207
O 3.9248 7.6973 0.940411
O 2.25775 6.55682 2.60237
O 4.59609 1.97735 2.65427
O 1.63779 8.09234 4.64268
O 4.18833 3.64337 4.41316
Si 4.91901 4.22403 0.0189899
Si 7.63684 0.0428973 16.4236
Si 6.13305 6.01176 3.76148
Si 8.60678 2.14151 3.70971
Si 6.18669 1.94595 1.78735
Si 8.69243 5.99124 2.07328
O 5.9207 5.26097 5.03792
O 8.9303 0.918043 4.72448
O 7.07162 2.19582 3.22639
O 9.87524 6.54019 2.99522
O 6.64165 0.832743 0.960344
O 9.5986 5.04001 1.07219
O 5.9494 3.44523 1.06
O 8.49978 7.21316 1.20727
O 7.2236 5.5868 2.72963
O 9.70236 2.09061 2.49739
O 6.47745 7.64893 4.34837
O 8.86191 3.46405 4.52439
Si 10.1491 4.3236 16.3321
Si 12.299 17.1829 16.527
Si 11.2344 6.40967 3.63912
Si 13.6577 2.23299 3.71301
Si 11.1534 2.10883 1.56266
Si 13.7765 6.2871 1.91479
O 11.0123 5.14456 4.66608
O 13.0354 1.11064 4.7761
O 12.3861 2.5789 2.80749
O 14.7343 6.55528 3.27164
O 11.4079 0.675914 1.03278
O 14.1706 5.01613 1.03235
O 11.1502 3.10063 0.351669
O 13.8635 7.60293 0.927714
O 12.3975 6.21023 2.50789
O 15.055 1.83598 2.95811
O 11.8637 7.5846 4.62928
O 14.3859 3.5822 4.58441
Si 0.272253 13.413 16.4882
Si 2.91682 8.48302 0.0704725
Si 1.63686 15.4408 3.46911
Si 3.69661 10.9197 3.6081
Si 1.68028 10.9506 1.59958
Si 4.34561 15.093 1.80945
O 0.726868 14.1667 4.20552
O 3.27191 9.92592 4.69887
O 2.54685 11.4432 2.7322
O 5.55011 15.8675 2.65479
O 2.07675 9.44513 0.904182
O 4.90112 14.0439 0.922161
O 1.40244 12.3535 0.53646
O 3.62275 16.188 0.608038
O 3.09759 15.0724 2.75529
O 5.01153 10.2878 2.71526
O 1.96079 16.3509 4.70013
O 4.3984 12.3327 4.19606
Si 5.48404 12.9828 16.4745
Si 7.87548 8.42316 0.243084
Si 6.8073 15.256 3.54153
Si 8.68265 10.709 3.6365
Si 6.27097 10.6486 1.73827
Si 9.28179 15.4397 1.67738
O 6.22738 13.997 4.24926
O 8.17783 9.70718 4.82805
O 7.43015 10.8783 2.75709
O 10.0868 15.8913 2.89292
O 6.6779 9.28049 0.976986
O 9.9233 14.129 0.985618
O 6.21628 11.8455 0.70628
O 8.74616 16.4925 0.602894
O 8.00323 14.8313 2.78452
O 9.99706 10.2157 2.70698
O 7.07883 16.4337 4.47868
O 9.00542 12.1603 4.27382
Si 10.4905 12.9437 16.4828
Si 12.8273 8.49844 0.0319549
Si 11.3997 15.4018 3.6553
Si 14.1071 10.6607 3.31994
Si 11.2996 10.4952 1.88275
Si 13.9737 15.5241 1.90722
O 10.8679 14.0151 4.47935
O 13.9183 9.29107 4.10993
O 12.7052 11.0332 2.6944
O 0.215683 16.0794 2.62154
O 11.7061 9.16305 1.06931
O 14.4846 14.1446 1.03467
O 11.1474 11.7095 0.760131
O 13.4647 16.3713 0.602459
O 12.7674 15.2436 2.83009
O 0.167921 10.5905 2.01398
O 11.8798 16.5334 4.67325
O 14.4981 11.8007 4.23673
Si 0.300843 4.33319 5.74325
Si 2.47425 0.0945019 5.74365
Si 1.26836 6.3742 9.41508
Si 3.72777 2.11632 9.26107
Si 1.25922 2.05263 7.42753
Si 3.54405 6.46424 7.52994
O 0.81638 4.99835 10.0945
O 3.29958 0.981099 10.3142
O 2.72174 2.22755 8.0057
O 5.14365 6.6553 8.00328
O 1.35849 0.959717 6.27324
O 3.63883 5.08911 6.59972
O 1.13347 3.24541 6.51889
O 3.0989 7.8136 6.7366
O 2.73774 6.05412 8.85919
O 5.12214 1.78801 8.46117
O 1.35238 7.60559 10.5714
O 3.85617 3.49317 10.0294
Si 4.74737 4.35265 5.63668
Si 7.68459 17.3924 5.53443
Si 6.24363 6.30474 8.96521
Si 8.50306 2.63957 9.30157
Si 6.28592 2.15043 7.34742
Si 8.83708 6.78722 7.38728
O 5.84831 5.31734 10.0719
O 7.99679 1.25978 9.96989
O 7.51969 2.84996 8.15135
O 10.0237 7.39766 8.30979
O 6.6956 0.896436 6.39286
O 9.28676 5.49663 6.32287
O 5.66222 3.49845 6.66104
O 7.97959 7.8878 6.60121
O 7.73965 6.11378 8.34501
O 9.95715 2.22521 8.72073
O 6.44441 7.89039 9.96126
O 8.70951 3.74414 10.1983
Si 9.96898 4.22264 5.37401
Si 12.5364 17.3612 5.8612
Si 11.3488 6.88726 9.31907
Si 13.9172 2.4667 9.40549
Si 11.2518 2.38572 7.70578
Si 13.9687 6.74862 7.46717
O 10.9122 5.59023 10.1285
O 13.4128 1.16215 10.1881
O 12.7641 2.92442 8.32268
O 0.139909 6.92103 8.4521
O 11.5049 0.908258 7.03104
O 14.5512 5.45369 6.78605
O 10.6426 2.98921 6.11803
O 13.5194 7.77492 6.40625
O 12.462 6.61135 8.30558
O 0.0500805 2.04735 8.45882
O 11.8485 7.97895 10.3559
O 14.0514 3.34817 10.6076
Si 0.0769431 13.2011 5.15222
Si 2.52882 8.98056 5.73235
Si 1.53311 15.3997 9.16658
Si 3.57468 10.9584 9.26492
Si 1.03625 11.3288 7.46011
Si 3.80886 15.2627 7.251
O 1.28914 14.3731 10.3963
O 2.87043 9.93244 10.0567
O 2.39486 11.6111 8.13503
O 5.23714 15.2402 8.13633
O 1.62172 10.0499 6.66117
O 4.14251 14.2614 5.74485
O 0.477952 12.4636 6.55387
O 3.53407 16.8173 6.71551
O 2.77475 14.9173 8.31483
O 4.81756 10.6894 8.31436
O 1.43963 16.8111 9.84819
O 4.26995 12.1747 10.2483
Si 5.16779 13.2445 5.32746
Si 7.07952 8.76804 5.41757
Si 6.43862 14.8295 9.07351
Si 8.73042 10.8679 8.83998
Si 5.98095 10.9371 7.25277
Si 9.016 14.9585 7.50262
O 5.99652 13.9712 10.2352
O 8.345 9.68954 9.98922
O 7.46448 10.9538 8.1171
O 10.2504 15.1424 8.5501
O 5.94669 9.71866 6.24229
O 9.23132 13.7503 6.44769
O 5.98887 12.34 6.30196
O 8.57215 16.2593 6.56405
O 7.90204 14.5692 8.55267
O 10.1078 10.5592 8.11046
O 6.61308 16.2687 9.99316
O 9.00211 12.2651 9.7943
Si 9.99732 12.94 5.22788
Si 12.9341 8.61999 5.22629
Si 11.6773 14.8716 9.39041
Si 13.616 11.2324 9.24592
Si 11.4444 10.7131 7.02286
Si 13.8518 14.9056 7.15159
O 11.3331 13.4319 10.0973
O 13.3235 10.0016 10.3291
O 12.5138 11.1553 8.09587
O 0.358628 15.1974 7.91606
O 12.057 9.62926 6.09825
O 13.999 14.03 5.87905
O 10.8633 11.8451 5.97124
O 13.2003 16.2926 6.80281
O 12.7732 14.3268 8.25814
O 15.0521 10.529 8.48788
O 11.9917 16.0199 10.4088
O 14.4684 12.2924 9.96425
Si 15.0241 4.42863 11.3625
Si 2.58016 17.2334 11.0674
Si 1.2011 6.34999 14.8236
Si 3.55172 2.18832 14.7493
Si 1.00735 2.06542 13.0121
Si 3.58999 6.46743 12.7947
O 0.544357 5.02496 15.4836
O 3.72948 1.18718 16.0638
O 2.31367 2.43142 13.94
O 4.71741 6.73834 14.0558
O 1.69195 0.83224 12.1019
O 4.17704 5.29257 11.8858
O 0.784536 3.34565 12.1263
O 3.19281 7.93358 12.1806
O 2.24785 6.07213 13.5042
O 4.49514 1.45649 13.6032
O 2.14033 7.45575 15.6832
O 4.10108 3.42143 15.4633
Si 4.92643 4.24424 11.0284
Si 7.43006 0.0537121 10.7728
Si 6.12675 6.50325 14.7691
Si 8.4488 2.24479 14.6755
Si 6.02108 1.8158 13.0462
Si 8.52729 6.81326 13.0877
O 6.08949 5.2143 15.9065
O 8.45762 1.08732 15.7105
O 7.16974 2.0677 14.0274
O 9.87116 7.31848 13.8874
O 6.39911 0.828634 11.8394
O 9.31187 5.65968 12.2569
O 5.63047 3.20209 12.1144
O 8.06984 8.06428 12.1839
O 7.10255 6.15266 13.6008
O 9.61094 2.1495 13.5266
O 7.18436 7.43149 15.6029
O 8.9014 3.63661 15.677
Si 9.74581 4.72719 10.8727
Si 12.7389 17.3419 11.0303
Si 11.2303 6.79857 14.5866
Si 13.3706 1.94432 14.514
Si 11.0253 2.30933 12.5627
Si 13.835 6.80634 12.9265
O 10.937 5.27092 15.2439
O 12.5666 0.77897 15.4233
O 12.2204 2.42035 13.5042
O 14.7163 7.04394 14.3035
O 11.5013 0.887098 11.7309
O 14.3479 5.45573 12.2087
O 10.5804 3.62131 11.7058
O 13.7631 7.95903 12.052
O 12.2598 6.52079 13.5171
O 14.7876 1.57215 14.0377
O 11.8993 7.80168 15.4922
O 13.723 3.18282 15.5066
Si 15.0789 13.2657 11.0834
Si 2.30755 8.82699 11.3067
Si 1.34242 15.6379 14.6064
Si 3.98646 10.8591 14.6525
Si 1.18837 11.1101 13.222
Si 3.84802 15.1193 12.7348
O 1.07003 14.5141 15.6738
O 3.80442 9.63665 15.7696
O 2.44898 11.376 14.1804
O 5.17533 15.5142 13.5738
O 1.40381 9.92052 12.2948
O 4.33997 13.7761 12.2899
O 0.715722 12.4027 12.2344
O 3.48336 16.1937 11.6901
O 2.70255 15.0318 13.7575
O 4.82351 10.7291 13.3911
O 1.78679 17.0796 15.3547
O 4.71229 12.0619 15.4029
Si 5.21336 12.9748 11.2197
Si 7.51778 8.76491 10.9233
Si 6.42391 15.302 14.494
Si 8.56193 10.9113 15.1218
Si 6.30642 10.8695 12.8175
Si 9.04984 15.4631 12.6675
O 6.45337 13.8486 15.3629
O 8.53728 9.6748 16.0725
O 7.37174 10.7078 14.0407
O 10.2626 15.5666 13.702
O 6.3436 9.87919 11.7674
O 9.21935 14.18 11.6208
O 6.34031 12.3364 12.166
O 8.60375 16.6502 11.5505
O 7.87095 15.2053 13.5515
O 9.83974 10.6255 14.0906
O 6.71358 16.6036 15.5099
O 9.11182 11.9997 15.9438
Si 10.0286 13.0322 10.8629
Si 12.7073 8.92591 11.3115
Si 11.2674 15.0643 14.7626
Si 13.7411 11.1351 15.0018
Si 11.1077 10.8539 13.1996
Si 13.7893 15.4399 12.8651
O 10.9966 13.6327 15.2374
O 13.4754 9.78146 15.9904
O 12.4006 11.3508 13.8668
O 0.0924701 15.663 13.6495
O 11.566 9.51748 12.4406
O 14.1232 14.3317 11.8314
O 10.6801 11.9427 11.869
O 13.5092 16.8971 12.3667
O 12.6197 15.0974 13.8373
O 15.0331 10.7247 14.2245
O 11.2205 15.9775 15.9426
O 14.1853 12.4604 15.6887
324
 Atoms. Timestep: 14000
Si 14.9901 4.13665 0.07786
Si 2.7334 17.0972 0.308097
Si 1.04846 6.70623 3.77917
Si 3.6637 2.14228 3.86967
Si 1.14949 1.88986 2.08084
Si 3.64723 6.3736 1.98632
O 0.755874 5.53503 5.12267
O 3.07985 0.734543 4.65609
O 2.40662 2.55811 2.80347
O 4.57523 6.62295 3.22943
O 1.85023 0.595321 1.35195
O 4.29187 5.18166 1.20399
O 0.529723 3.12186 1.10711
O 3.54675 7.64204 0.996355
O 2.18187 6.16311 2.61447
O 4.92941 2.06438 3.09997
O 1.49492 8.09743 4.46325
O 3.89534 3.27479 4.99891
Si 4.98637 4.24315 16.5484
Si 7.7645 0.0415703 0.235206
Si 6.09706 6.43101 3.90293
Si 8.7887 2.72787 3.81332
Si 6.23691 1.90836 1.85653
Si 8.5232 6.30746 2.0117
O 6.03293 5.09651 4.92548
O 8.36774 1.69221 5.11446
O 7.51919 2.65199 2.72341
O 9.77157 6.67437 2.71267
O 6.78566 0.711887 1.1673
O 8.73626 5.01481 0.921681
O 5.72153 3.05187 0.847967
O 8.32664 7.77088 1.09859
O 7.41511 6.35461 2.95078
O 10.055 1.83957 2.83257
O 6.46655 7.71636 4.86667
O 9.48995 3.92951 4.30979
Si 9.71602 4.37434 16.3464
Si 12.6566 17.2973 0.055927
Si 11.1056 6.71637 3.67466
Si 13.5625 2.30487 3.72732
Si 11.1389 2.20352 1.72822
Si 13.6903 6.44575 1.81814
O 10.9039 5.65953 4.73546
O 13.0257 1.34004 4.82211
O 12.3739 2.85133 2.6124
O 14.7594 6.85606 2.97129
O 11.7056 0.738189 1.21436
O 14.2644 5.12276 1.06905
O 10.7171 3.21931 0.60374
O 13.5502 7.61939 0.739021
O 12.1852 6.18767 2.54391
O 14.8355 1.56143 2.90618
O 11.712 8.09591 4.34187
O 14.381 3.53692 4.71219
Si 0.155388 12.8971 0.028964
Si 2.71408 8.59112 0.0160466
Si 1.62849 15.0105 3.70541
Si 3.56965 10.9695 3.37978
Si 0.997646 10.488 1.78634
Si 4.31037 15.0996 2.22059
O 1.00386 13.62 4.116
O 3.4546 9.67913 4.37658
O 2.04038 11.2544 2.80334
O 5.67675 15.4913 2.77707
O 1.87606 9.27917 1.39252
O 4.46375 13.9483 1.06909
O 0.84073 11.6745 0.657378
O 3.70966 16.338 1.34537
O 3.21909 14.9038 3.45708
O 4.82536 11.1206 2.4015
O 1.63751 16.0578 4.95881
O 3.76172 12.2544 4.71659
Si 5.07737 13.041 16.4687
Si 7.41988 8.69797 0.0770196
Si 6.74159 15.2736 3.98226
Si 8.9565 10.8179 3.46163
Si 6.39107 11.1186 1.86033
Si 9.00287 15.2108 1.78846
O 6.0565 13.952 4.6291
O 8.14446 9.65918 4.39557
O 7.46758 11.4263 2.8784
O 10.29 15.4361 2.59776
O 6.85652 9.82761 1.09423
O 9.03373 13.903 0.89431
O 6.2406 12.1795 0.658294
O 8.81813 16.3455 0.721653
O 8.0084 14.8009 3.04374
O 9.95034 10.8125 2.29834
O 6.87679 16.5892 5.11817
O 9.58972 11.8459 4.55731
Si 9.6863 13.0925 16.202
Si 12.7678 8.72789 16.3181
Si 11.6033 15.088 3.51407
Si 13.6176 10.8889 3.37101
Si 11.2949 11.2527 1.54091
Si 14.3616 15.2087 1.96477
O 11.423 13.9049 4.43931
O 13.3111 9.86281 4.51574
O 12.2392 11.4235 2.70327
O 0.549295 15.6802 2.7384
O 11.6057 9.79739 0.724309
O 14.7418 13.9319 1.12855
O 10.8741 12.3164 0.383322
O 13.6995 16.4035 1.06183
O 13.0532 14.9169 2.88767
O 14.7896 10.2838 2.42317
O 11.682 16.3758 4.55608
O 14.3481 11.9704 4.4257
Si 0.0438796 4.30943 5.9225
Si 2.35578 17.3182 5.70688
Si 0.899576 6.67996 9.16486
Si 3.58048 2.21369 9.05568
Si 1.13579 2.04154 7.48221
Si 3.52092 6.58804 7.34737
O 0.865566 5.40014 10.1671
O 2.91758 1.31115 10.2496
O 2.66848 2.26175 7.72157
O 4.4832 6.96264 8.46817
O 1.13096 0.694458 6.54553
O 4.24789 5.42667 6.65241
O 0.905507 3.38809 6.70396
O 3.33897 7.64765 6.18654
O 1.96327 6.3276 8.08188
O 4.90813 1.63126 8.65667
O 1.57125 8.0253 10.1884
O 3.92083 3.72891 9.68164
Si 4.91141 4.17443 5.77699
Si 7.74135 0.300465 5.92466
Si 5.91926 6.73815 9.10116
Si 8.65643 2.50542 9.45614
Si 6.17013 2.1398 7.66558
Si 8.40679 6.5612 7.44486
O 5.99273 5.49695 10.0604
O 8.35922 1.41723 10.6627
O 7.34714 2.64168 8.56741
O 9.38873 6.54978 8.84991
O 6.51625 0.892266 6.84349
O 9.14006 5.35754 6.5195
O 5.75454 3.27686 6.76448
O 8.56798 7.95472 6.5207
O 6.90793 6.66831 7.86501
O 9.9204 2.13524 8.46908
O 6.60873 8.01115 9.94458
O 9.24576 3.80256 10.1693
Si 10.2114 4.61763 5.61725
Si 12.4489 17.4389 5.63485
Si 10.9063 6.47605 9.08305
Si 13.8972 2.28312 9.5622
Si 11.0963 2.13014 7.52938
Si 13.3908 6.49376 7.39085
O 11.2229 5.34191 10.1805
O 13.3927 0.940508 10.331
O 12.4561 2.46905 8.54699
O 14.4041 6.73815 8.6701
O 11.4623 0.729369 6.79579
O 14.0034 5.04059 6.85875
O 10.8366 3.33847 6.59048
O 13.39 7.52265 6.3347
O 11.9008 6.22271 7.8925
O 0.135331 2.08449 8.77928
O 11.5608 7.83995 9.85294
O 14.2973 3.56711 10.5179
Si 0.0234811 13.0632 5.35401
Si 2.56716 8.81828 5.43084
Si 1.38108 15.2733 9.17219
Si 3.94842 10.7417 8.95329
Si 1.18343 10.9718 7.41856
Si 3.87674 15.2142 7.60318
O 0.77221 14.0209 10.0172
O 3.45416 9.78925 10.2059
O 2.56347 11.0301 8.24777
O 5.22305 15.6104 8.11887
O 1.54326 9.83315 6.30449
O 3.83835 14.0587 6.49728
O 0.806929 12.2687 6.551
O 3.51371 16.6643 6.7046
O 2.84682 15.0786 8.69589
O 5.16218 10.3218 8.10717
O 1.38812 16.6708 10.2709
O 4.44948 12.4887 9.52511
Si 4.83941 13.2201 5.71724
Si 7.55608 8.71483 5.6657
Si 6.70073 15.5334 8.81942
Si 8.89537 11.0208 9.01249
Si 6.22398 10.9892 7.06528
Si 9.08251 15.2316 6.99412
O 6.2482 14.3577 10.0037
O 8.61153 9.87747 10.1485
O 7.34162 11.3532 8.55017
O 10.273 15.021 8.04846
O 6.89938 9.78251 6.512
O 9.3178 14.0748 5.91203
O 5.79074 12.1142 6.45417
O 8.87612 16.6884 6.35109
O 7.5058 15.0346 7.49661
O 9.925 10.8722 7.8697
O 7.15833 16.7115 9.82587
O 9.40594 12.3909 9.63962
Si 10.3281 12.9807 5.32362
Si 12.7206 8.67853 5.55592
Si 11.5124 14.966 8.98114
Si 13.7155 10.8516 9.28766
Si 11.3787 11.0215 7.42513
Si 14.043 15.3755 7.03691
O 11.4459 13.7409 9.95136
O 13.6388 9.50374 10.1035
O 12.2558 11.2512 8.67689
O 0.234028 15.5054 8.08309
O 11.8288 9.70886 6.61909
O 14.4722 14.4483 5.94884
O 11.4323 12.3011 6.37948
O 13.6256 16.8037 6.52316
O 12.9123 14.7571 8.05774
O 14.9141 10.643 8.28793
O 11.6184 16.3338 9.92695
O 14.0722 12.0784 10.3121
Si 0.32466 4.34628 11.2371
Si 2.30229 0.0849009 11.1812
Si 1.13521 6.49717 14.7857
Si 3.4447 2.10811 14.681
Si 0.879678 1.96684 13.1023
Si 3.49268 6.33691 12.8267
O 1.02066 5.06596 15.5657
O 3.17949 0.866134 15.8389
O 1.98054 2.39798 14.1312
O 4.96264 6.40644 13.5812
O 1.24094 0.795979 12.2043
O 3.80598 5.18352 11.7072
O 1.14712 3.21777 12.131
O 3.33582 7.59412 11.809
O 2.34813 6.29187 13.7472
O 4.55807 1.95718 13.6503
O 1.7078 7.55721 15.6977
O 3.9445 3.39643 15.6932
Si 4.82612 4.61481 10.7077
Si 7.52773 0.230121 11.1185
Si 6.35483 6.34533 14.8825
Si 8.55033 2.29516 14.4716
Si 5.82375 2.09368 12.5875
Si 8.89022 6.88406 12.9007
O 5.89302 4.96836 15.4318
O 8.4834 1.1496 15.7026
O 7.10464 2.58643 13.8215
O 10.211 7.26307 13.6699
O 6.26906 0.701332 12.0917
O 9.38673 5.44472 12.1151
O 5.7545 3.46532 11.6302
O 8.5239 7.78153 11.7295
O 7.72182 6.46279 13.9818
O 9.53546 2.03158 13.3257
O 6.43933 7.67249 15.9587
O 9.23633 3.62783 15.232
Si 10.2498 4.50402 11.1086
Si 12.4619 17.2554 10.9649
Si 11.1835 6.3939 14.7094
Si 13.4576 2.16835 14.8449
Si 11.0838 2.00168 12.8207
Si 13.7341 6.20722 13.0754
O 10.3059 5.67214 15.8206
O 13.6169 0.679669 15.7875
O 11.9571 2.09962 14.1527
O 14.8203 6.99004 14.045
O 11.5262 0.810517 11.8735
O 14.6348 5.12204 12.5484
O 11.2253 3.28593 11.773
O 13.267 7.36793 12.0889
O 12.3867 5.72662 13.9685
O 14.3042 1.89019 13.4798
O 12.058 7.66284 15.4365
O 13.9497 3.35011 15.6937
Si 0.0714926 12.9366 10.9984
Si 2.71272 8.74588 11.0244
Si 1.44279 15.1825 14.7643
Si 4.25997 10.806 14.5473
Si 1.40635 10.9347 12.626
Si 4.07933 15.3217 12.8498
O 0.870584 13.9836 15.6531
O 3.80137 9.52001 15.3333
O 2.99969 11.25 13.4185
O 5.37151 15.6605 13.724
O 1.59389 9.40071 12.0944
O 4.44136 14.1255 11.8717
O 1.10799 11.9981 11.4957
O 3.51129 16.6865 11.9888
O 2.72458 15.1344 13.8552
O 5.66612 10.7866 13.9516
O 1.86948 16.2427 15.963
O 4.16436 11.9238 15.7461
Si 5.37115 13.2416 10.7428
Si 7.79655 8.7611 10.8235
Si 6.4407 15.2985 14.7588
Si 9.03984 10.6415 14.5407
Si 6.74789 11.1333 12.6013
Si 8.90974 15.0481 12.6458
O 5.62498 13.9688 15.2494
O 8.39789 9.37212 15.5392
O 8.22953 11.0665 13.1646
O 10.3772 15.501 13.2446
O 6.60598 9.80509 11.9835
O 9.22766 13.8167 11.8827
O 6.04023 12.1542 11.5912
O 8.26379 16.2917 11.7345
O 7.76714 14.7496 13.8027
O 10.4382 10.3731 13.8652
O 6.79739 16.3636 15.9416
O 9.01658 12.0159 15.213
Si 10.1688 12.9457 10.8785
Si 12.6193 8.43074 10.8683
Si 11.4517 15.3675 14.5658
Si 13.9682 10.9523 14.7152
Si 11.3633 10.7657 12.7833
Si 14.1649 15.2492 12.9305
O 10.5922 14.0529 15.2704
O 13.6879 9.59888 15.6254
O 12.6761 11.1829 13.8499
O 0.21183 15.6542 13.8481
O 11.7893 9.48466 11.7043
O 14.729 13.9029 12.1489
O 10.7659 12.0829 11.916
O 13.4088 16.2254 11.7359
O 12.7577 14.9871 13.8452
O 0.30746 10.989 13.7681
O 11.5704 16.6635 15.5025
O 14.1107 12.3485 15.4795
324
 Atoms. Timestep: 14500
Si 0.102318 4.67726 0.143159
Si 2.55486 0.103765 -0.0670752
Si 1.159 6.63454 3.4162
Si 3.84915 2.10632 3.85066
Si 1.22696 2.26089 1.79345
Si 3.65071 6.42895 2.01904
O 0.685129 5.39145 4.30771
O 3.54358 0.657394 4.55011
O 2.51902 2.23469 2.85598
O 4.77268 7.05086 3.19624
O 1.65419 1.00287 0.831538
O 4.48557 5.34348 1.21442
O 0.985728 3.67676 1.07156
O 3.14309 7.76033 0.973454
O 2.33974 6.03978 2.57636
O 5.20751 2.11985 3.1333
O 1.86663 7.77053 4.19976
O 4.22283 3.40892 4.92041
Si 5.14321 4.49333 16.4882
Si 7.24477 17.2145 0.333229
Si 6.1573 6.60922 3.85277
Si 8.95293 1.98022 3.6658
Si 6.22258 2.14698 1.90883
Si 8.49491 6.73529 1.72436
O 6.13814 5.19166 4.74102
O 8.57785 0.701684 4.39158
O 7.68363 2.40699 2.72781
O 9.72277 6.91759 2.59208
O 6.17675 0.592068 1.28222
O 8.78802 5.65328 0.674657
O 6.0682 3.3414 0.789199
O 8.15019 8.11228 0.899933
O 7.14272 6.17929 2.57762
O 10.0155 1.6406 2.60037
O 6.68991 7.94019 4.53187
O 9.16556 2.97271 4.78467
Si 9.76963 4.47171 0.00311809
Si 13.244 0.24373 16.4884
Si 10.9329 6.69079 3.50504
Si 13.8331 2.0806 3.47596
Si 11.3724 2.13838 1.54437
Si 13.7084 6.78451 1.75014
O 10.5925 5.41512 4.52222
O 13.377 0.921426 4.30196
O 12.4322 2.51036 2.59608
O 14.8324 7.07135 2.85132
O 11.9761 1.12519 0.429104
O 14.2221 5.74635 0.754284
O 10.7621 3.45604 0.795641
O 13.3572 8.2165 0.934202
O 12.2437 6.2767 2.63101
O 15.061 1.86891 2.58237
O 11.3705 7.90246 4.63122
O 14.2158 3.55186 4.18449
Si 15.0308 13.0007 16.2995
Si 2.42665 8.78042 16.4786
Si 1.48363 15.2397 3.5438
Si 3.89351 11.025 3.68015
Si 1.22643 11.0885 1.96048
Si 3.8595 15.4082 1.87891
O 0.970744 13.9623 4.52182
O 3.26814 9.97507 4.83749
O 2.62623 11.397 2.84999
O 5.42523 15.4794 2.6001
O 1.79437 9.85697 1.03447
O 4.11167 14.3054 0.904413
O 0.578114 11.9376 0.795661
O 3.49376 16.693 1.05113
O 2.85968 15.3955 2.99815
O 5.03686 10.3171 2.99624
O 1.22098 16.5877 4.57759
O 4.59082 12.4753 4.27557
Si 4.71224 13.0952 -0.0249647
Si 7.5275 9.07178 16.2787
Si 6.49567 15.2068 3.73891
Si 8.93009 10.746 3.48636
Si 6.07841 10.8722 1.90489
Si 9.06655 15.2953 1.96725
O 6.25392 14.1373 4.65231
O 8.77802 9.55583 4.66494
O 7.51693 11.1829 2.70787
O 10.5111 15.0969 2.49237
O 6.38442 10.102 0.463915
O 9.03009 13.9265 1.07228
O 5.22599 12.0118 1.09048
O 8.42051 16.4185 0.910021
O 7.99968 15.2938 3.22177
O 10.0502 10.4713 2.52211
O 6.39821 16.6862 4.62202
O 9.60027 12.0406 4.50224
Si 10.178 13.2676 0.16944
Si 12.4245 8.82018 16.154
Si 11.6225 15.0721 3.69491
Si 13.6204 10.7627 3.89726
Si 11.4459 10.9136 1.77721
Si 14.0289 15.1784 1.56274
O 11.0403 14.0964 4.83086
O 13.2326 9.74297 4.88987
O 12.5878 11.1237 2.90483
O 0.521173 15.3735 2.2796
O 11.9238 10.162 0.585645
O 14.1229 14.0549 0.419936
O 11.1434 12.3239 1.06339
O 13.8345 16.5845 1.00932
O 12.8369 14.6082 2.65523
O 0.0944783 10.7007 3.07664
O 11.8952 16.4682 4.21645
O 13.8727 12.3075 4.67451
Si 14.6758 4.48179 5.25007
Si 2.35798 17.4136 5.47902
Si 0.84016 6.6228 8.8196
Si 3.61483 2.05545 9.0685
Si 0.873019 2.37069 7.15552
Si 3.68161 6.36467 7.19075
O 0.653013 5.53751 10.0496
O 3.07271 0.82412 9.83573
O 2.17015 2.64076 8.14302
O 4.61213 6.68066 8.44984
O 1.57078 1.2421 6.19783
O 4.12065 5.04952 6.60827
O 0.29916 3.6882 6.45918
O 3.62863 7.44993 6.0657
O 2.06934 6.22917 7.87657
O 4.93658 1.82913 8.3593
O 1.4579 7.96691 9.72856
O 3.96248 3.07334 10.1811
Si 5.19018 4.22433 5.76795
Si 7.54418 -0.00680426 5.45827
Si 6.02762 6.5296 9.11351
Si 8.89552 1.83413 9.25318
Si 6.19065 2.06445 7.61901
Si 8.53625 6.16587 7.45958
O 5.659 5.13632 9.91333
O 8.63065 0.856393 10.4909
O 7.42248 2.27224 8.65845
O 9.72494 6.13522 8.5297
O 6.69472 0.984375 6.5317
O 8.86917 4.91922 6.66519
O 6.10268 3.34082 6.68231
O 8.5922 7.40112 6.33509
O 7.12789 6.33753 7.99459
O 9.83286 1.51118 8.05421
O 6.4559 7.83553 10.1038
O 9.51746 2.97391 10.1445
Si 9.96528 4.07852 5.59108
Si 12.7156 17.3258 5.34438
Si 11.1835 6.11297 9.25902
Si 13.7625 2.09946 9.07814
Si 11.2945 1.99158 7.3303
Si 13.3585 6.67552 7.20704
O 10.9237 4.9904 10.4382
O 13.6885 1.15159 10.4006
O 12.2595 2.12632 8.52245
O 14.6884 6.96007 7.87044
O 11.7839 0.907726 5.95039
O 13.8211 5.74951 6.04483
O 11.1013 3.29114 6.32658
O 12.4972 8.03064 6.85172
O 12.3311 5.98377 8.22725
O 14.652 1.54813 7.83173
O 11.5946 7.3753 10.1618
O 14.3708 3.51745 9.83555
Si 0.0701492 13.0583 5.48286
Si 2.77453 8.54284 5.41879
Si 1.21288 15.221 9.22609
Si 3.78964 10.7632 8.9132
Si 1.31624 10.7975 7.16491
Si 3.85271 15.3986 7.34574
O 0.765091 13.9592 10.0724
O 3.27664 9.66603 9.83597
O 2.53636 11.1942 8.12894
O 5.33045 15.8016 8.08423
O 1.68433 9.14988 6.43972
O 4.34818 14.2736 6.32358
O 0.802539 11.9053 6.3432
O 3.24693 16.4638 6.5214
O 2.5768 14.9992 8.3639
O 5.0923 10.5192 8.04896
O 1.45678 16.3259 10.3579
O 4.18031 12.0272 9.92552
Si 5.18309 13.287 5.5297
Si 7.89331 8.76786 5.74039
Si 6.42725 15.2511 9.18663
Si 8.7345 11.0943 9.68804
Si 6.49575 10.9714 7.3391
Si 9.16242 15.3712 7.30895
O 6.02229 14.0549 10.145
O 8.38219 9.66046 10.5107
O 7.73504 11.2888 8.57235
O 10.3569 15.8505 8.13065
O 6.94928 9.6723 6.61077
O 9.53705 13.9166 6.79405
O 6.22865 12.0177 6.16492
O 8.31878 16.3532 6.39009
O 8.01323 15.1725 8.52381
O 10.0265 10.7912 8.74805
O 6.95082 16.4389 10.1539
O 9.01783 12.4165 10.5992
Si 10.3866 12.9325 5.6543
Si 12.1279 8.88972 5.64878
Si 11.6224 15.5425 9.25629
Si 14.0646 10.516 9.19379
Si 11.2671 10.9606 7.70766
Si 14.0576 15.4262 7.35269
O 11.0669 14.4057 10.0912
O 13.7257 9.17968 10.2368
O 12.5632 10.7688 8.69508
O 0.292209 16.0462 8.29843
O 11.2105 9.90167 6.34769
O 14.6484 14.0329 6.57438
O 11.3763 12.3593 6.87999
O 13.4911 16.2814 6.16898
O 12.9123 15.2449 8.33047
O 0.381288 10.3258 8.38975
O 11.9991 16.7311 10.1967
O 14.527 11.7807 10.1475
Si 15.0819 4.30919 10.9586
Si 2.34105 0.0298806 11.0005
Si 1.16497 6.69624 14.529
Si 3.71036 2.35438 14.4684
Si 1.17204 2.24421 12.7806
Si 3.63662 6.58598 12.6246
O 1.04073 5.73389 15.8792
O 3.24443 1.07441 15.3438
O 2.23592 2.70357 13.8346
O 4.63815 7.34355 13.7493
O 1.56111 0.940571 12.0038
O 4.19783 5.20119 11.9873
O 1.00783 3.38027 11.7559
O 3.3793 7.57494 11.445
O 2.25321 6.26518 13.5868
O 4.66742 1.93686 13.3762
O 1.48014 8.10587 15.4458
O 4.3016 3.57218 15.5432
Si 4.90294 4.21486 11.1398
Si 7.64106 17.2639 11.3561
Si 5.87011 6.94059 14.657
Si 8.4376 2.15124 14.9811
Si 6.30319 2.11419 12.8188
Si 8.32085 6.23534 12.9983
O 5.52514 5.86982 15.699
O 8.08395 0.936208 15.9844
O 7.19251 2.32628 14.1818
O 9.63276 6.63441 13.9156
O 6.54952 0.862728 11.988
O 8.9683 4.88593 12.2689
O 6.14288 3.3779 11.8993
O 7.93231 7.53681 12.2113
O 6.87128 5.95315 13.6701
O 9.62527 1.59034 13.9564
O 6.6766 8.03237 15.3518
O 9.05481 3.55501 15.5412
Si 9.9606 4.08151 11.2966
Si 12.9493 -0.0239614 11.3608
Si 11.0597 6.49168 14.7291
Si 13.8406 2.46472 14.9143
Si 11.0519 2.0736 13.2947
Si 13.5388 6.13377 12.8608
O 10.8079 5.33517 15.6823
O 14.2402 1.39893 15.9394
O 12.1279 2.39977 14.667
O 14.8137 6.49188 13.7577
O 12.0041 0.8018 12.5994
O 13.9461 5.02467 11.8963
O 10.8099 3.36443 12.494
O 13.3356 7.38306 11.8194
O 12.175 6.31182 13.7124
O 14.744 2.23202 13.5421
O 11.391 7.8213 15.5986
O 14.266 3.78862 15.7372
Si 0.173195 12.6271 11.285
Si 2.46306 8.71421 10.719
Si 1.40494 15.0282 14.6541
Si 4.03162 10.8246 14.8771
Si 1.64478 10.5922 12.6943
Si 3.92557 15.315 12.719
O 1.02756 13.8581 15.549
O 3.45487 9.72454 15.8602
O 2.91263 10.7288 13.6604
O 5.27141 15.5528 13.6204
O 1.67005 9.3105 11.8713
O 4.33529 14.0047 11.7673
O 1.56731 12.0029 11.8787
O 3.43959 16.6729 11.9372
O 2.743 14.9679 13.7884
O 5.63198 10.6531 14.492
O 1.73748 16.3212 15.6666
O 3.85139 12.3576 15.5307
Si 5.18089 12.9141 10.9482
Si 7.25701 8.59104 11.2993
Si 6.35009 15.1954 14.8734
Si 8.98668 11.0048 14.5658
Si 6.37236 10.956 13.0398
Si 9.11925 15.2715 13.409
O 5.81296 13.8854 15.6054
O 8.70604 9.8484 15.6133
O 7.83896 11.4795 13.7214
O 10.1373 15.8028 14.5323
O 6.38262 9.62859 12.3758
O 9.58223 14.1008 12.367
O 5.69235 11.8058 11.8996
O 8.70432 16.3413 12.1503
O 7.72122 15.0742 14.2118
O 10.2992 10.7968 13.5046
O 6.43 16.2735 15.9487
O 9.29662 12.2926 15.5452
Si 10.3729 13.3746 11.1725
Si 12.5172 8.40132 11.0245
Si 11.6463 15.397 14.9715
Si 13.922 10.7669 14.4637
Si 11.5113 10.9268 12.5344
Si 13.978 14.9372 12.8582
O 11.2568 14.3196 16.0895
O 13.6117 9.36027 15.3131
O 12.6519 10.9974 13.6647
O 0.0447007 15.4202 13.8375
O 11.6683 9.69007 11.5438
O 14.3519 13.5213 12.2062
O 11.3988 12.1519 11.6168
O 13.7589 16.0973 11.8691
O 12.5235 14.9117 13.769
O 0.0657603 10.4862 13.3957
O 12.6479 16.6094 15.4868
O 14.2055 11.9889 15.3303
324
 Atoms. Timestep: 15000
Si 15.0642 4.55149 0.0473249
Si 2.57319 0.320687 16.5536
Si 0.856562 6.70659 3.76449
Si 3.8848 2.32431 3.68778
Si 1.44443 2.51902 1.80472
Si 3.3379 6.43144 1.96784
O 0.38661 5.64468 4.88202
O 3.54787 1.01197 4.29919
O 2.69559 2.88186 2.85255
O 4.69434 6.68903 2.75218
O 1.76454 1.33618 0.85247
O 3.84208 5.4442 0.812954
O 0.954411 3.79313 1.05191
O 2.89553 7.5784 0.837201
O 2.02429 6.15339 2.84721
O 5.19638 2.08694 2.82691
O 1.48341 7.84607 4.70171
O 3.97266 3.3684 4.88048
Si 4.92716 4.66924 16.4063
Si 7.45501 0.100234 -0.072541
Si 6.06185 6.72337 3.47217
Si 8.5591 1.9804 3.64369
Si 6.27949 2.32566 1.63425
Si 8.72887 6.5583 1.87768
O 5.6026 5.30395 4.54579
O 8.09254 0.794744 4.33033
O 7.7674 2.28087 2.22041
O 9.85671 6.65451 2.88445
O 6.41937 1.32263 0.336748
O 9.2342 5.4265 0.93271
O 5.92227 3.72888 0.935391
O 8.33444 7.7894 0.776691
O 7.22648 6.60681 2.39183
O 10.1482 1.71478 3.03719
O 6.50316 7.65002 4.57038
O 8.99093 3.31702 4.44711
Si 10.1371 4.28462 0.247709
Si 12.8568 0.212021 16.254
Si 11.0736 6.40863 3.85971
Si 14.0155 2.062 3.41666
Si 11.3108 1.97389 1.80553
Si 13.4866 6.66797 1.83782
O 10.9114 5.07047 4.82292
O 13.6541 1.01881 4.67407
O 12.7572 2.03051 2.41732
O 14.7593 7.12913 2.47287
O 11.6861 0.929752 0.499146
O 14.0203 5.47032 0.882676
O 10.8691 3.40723 1.32115
O 12.9017 7.75735 0.892339
O 12.262 6.32993 2.67961
O 0.263237 2.04404 2.68608
O 11.0756 7.76144 4.67238
O 13.9675 3.33145 4.34784
Si 0.126143 13.0475 0.00603333
Si 2.04872 8.69895 16.578
Si 1.23985 15.3184 3.78767
Si 4.17213 10.5182 3.84614
Si 1.25151 10.8701 2.1392
Si 3.67707 15.4139 1.84355
O 0.749351 14.0744 4.8043
O 3.92319 9.07773 4.48886
O 2.79371 11.0334 3.08588
O 5.10397 15.3365 2.56281
O 1.5641 9.72143 1.15261
O 3.94243 14.0765 0.831108
O 0.997302 12.2502 1.19963
O 3.5601 16.9047 0.921352
O 2.30585 14.978 2.64818
O 5.41291 10.6443 2.91853
O 1.73879 16.5058 4.70741
O 4.19418 11.7194 4.95714
Si 5.1459 13.2606 0.16658
Si 7.85009 8.84425 16.3149
Si 6.25609 14.7945 3.42442
Si 8.93579 10.7981 3.77733
Si 6.62008 11.0639 1.83115
Si 8.79338 15.4663 1.90051
O 5.77916 13.6633 4.31829
O 8.71005 9.32776 4.40461
O 7.85609 11.0431 2.72821
O 10.0402 15.9059 2.97475
O 7.02946 10.1113 0.522366
O 9.55998 14.1839 1.00415
O 6.04066 12.5264 1.31454
O 8.21728 16.7361 1.20504
O 7.65307 14.8191 2.61419
O 10.2437 10.9492 2.91938
O 6.57144 16.0577 4.48202
O 8.71053 11.9509 4.83543
Si 10.4925 13.1855 0.140367
Si 12.181 8.75652 16.5406
Si 11.4665 15.0067 3.80366
Si 13.776 10.7191 3.86066
Si 11.1775 10.6795 1.72288
Si 13.7592 15.4023 1.93679
O 10.6014 14.0742 4.73534
O 13.1585 9.57882 4.87064
O 12.6617 10.8532 2.66024
O 14.9258 15.7481 3.01245
O 10.9694 9.47647 1.01425
O 14.3334 14.0855 0.968772
O 11.2693 11.9015 0.676224
O 13.8075 16.734 0.98726
O 12.5125 14.7331 2.64791
O 0.135372 10.4606 3.24378
O 12.2252 16.249 4.51509
O 13.9514 12.1706 4.57759
Si 14.7902 4.2799 5.49692
Si 2.83564 0.0823726 5.42652
Si 1.22745 6.52544 8.82664
Si 3.784 2.24223 9.21288
Si 1.26767 2.19143 7.36512
Si 4.03235 6.47533 7.31039
O 0.589302 5.60989 9.93458
O 3.74636 0.881726 10.0487
O 2.45316 2.53062 8.48483
O 5.2761 7.10123 8.22802
O 1.82614 0.881097 6.3628
O 4.45313 5.11615 6.73266
O 0.822562 3.26893 6.13637
O 3.55363 7.56448 6.32385
O 2.68803 6.20823 8.14808
O 4.9452 1.93532 8.18301
O 1.36403 7.80326 9.7947
O 4.25081 3.57428 10.2633
Si 5.21235 4.39669 5.66371
Si 7.15909 17.3816 5.37572
Si 6.43792 6.82194 9.31292
Si 8.7978 1.65178 9.16394
Si 6.13853 2.1268 7.31037
Si 8.88635 6.30648 7.30146
O 5.87965 5.65314 10.385
O 8.0886 0.52227 10.0633
O 7.55701 2.09722 8.21659
O 10.3294 6.68784 8.09681
O 6.21713 1.11835 6.10887
O 9.07322 5.02038 6.51502
O 6.24597 3.41371 6.28111
O 8.26999 7.33277 6.12743
O 7.73678 6.18942 8.61026
O 9.93626 1.23506 8.07921
O 6.83901 8.17731 10.0212
O 9.32109 2.72168 10.2573
Si 9.89113 4.081 5.4934
Si 12.897 17.3062 5.4258
Si 11.2557 6.31113 9.438
Si 13.6831 2.0756 9.09059
Si 11.209 1.69061 7.1442
Si 13.3908 6.37862 7.34464
O 10.5381 5.07216 10.1444
O 13.2863 0.905817 10.1467
O 12.5 2.09467 8.06429
O 15.1109 6.53095 7.74688
O 11.4597 0.475175 6.02655
O 13.8031 5.09418 6.57013
O 10.7997 3.07947 6.47157
O 12.7708 7.48046 6.5154
O 12.5906 6.15358 8.71978
O 0.00316421 1.7583 8.52012
O 11.5866 7.5133 10.4975
O 14.0065 3.50607 9.92049
Si 14.7972 13.0637 5.5799
Si 2.50537 8.50823 5.57502
Si 1.39821 15.0389 9.40404
Si 3.92627 10.6288 9.25449
Si 1.44325 10.9871 7.38101
Si 3.89141 15.4584 7.45308
O 1.20049 13.4342 9.85742
O 3.48627 9.17212 9.68658
O 2.71268 11.2949 8.31745
O 5.08794 15.8425 8.3924
O 2.21829 9.79008 6.51032
O 4.23167 14.0805 6.55992
O 0.699619 11.8599 6.32658
O 3.73581 16.4562 6.32397
O 2.36459 15.1505 8.04876
O 5.43372 10.8012 8.41063
O 2.21765 16.2435 10.2732
O 3.90551 11.65 10.4907
Si 4.89962 12.9389 5.62872
Si 7.60986 8.59836 5.37968
Si 6.15159 14.9489 9.08687
Si 8.87697 11.0588 9.39896
Si 6.60281 11.018 7.29547
Si 8.56564 15.5463 7.40129
O 5.34844 13.7451 9.80668
O 8.75851 9.47509 10.2381
O 7.7162 11.3141 8.28713
O 9.99759 15.4391 8.2222
O 6.75861 9.56637 6.45799
O 8.63295 14.3477 6.24228
O 6.11016 12.2689 6.43679
O 7.8598 16.7185 6.71913
O 7.45645 14.7512 8.29509
O 10.3534 11.0407 8.74751
O 6.79323 15.8605 10.5153
O 9.02908 12.1003 10.7494
Si 9.54095 13.1977 5.45193
Si 12.0361 8.54277 5.74883
Si 11.0506 15.4406 9.44389
Si 13.8193 10.9489 8.82624
Si 11.0876 11.0145 7.41096
Si 13.8094 15.1903 7.74613
O 10.7857 14.257 10.3805
O 13.2164 9.54761 9.58668
O 12.7611 11.1845 7.62934
O 14.8283 15.2561 8.89857
O 10.9309 9.52066 6.67205
O 14.4095 13.9902 6.80207
O 10.567 12.1247 6.5524
O 13.5933 16.4694 6.69713
O 12.3442 14.9431 8.38853
O 0.158168 10.554 8.19469
O 11.4983 16.7197 10.1746
O 13.8672 12.22 9.87342
Si 14.8822 4.54755 10.8882
Si 3.00045 17.4241 10.9523
Si 0.968616 6.80782 14.5279
Si 3.8575 2.37651 14.3898
Si 1.38962 2.3122 12.541
Si 3.56579 6.48389 12.776
O 0.837009 5.52803 15.7115
O 3.13161 1.22851 15.2591
O 2.63974 2.76123 13.3141
O 4.77492 7.1019 13.6393
O 1.90745 1.11537 11.6447
O 4.21103 5.04695 12.2283
O 0.729612 3.44745 11.5681
O 3.2322 7.4334 11.6497
O 2.13567 6.44926 13.6267
O 5.23953 2.21846 13.6437
O 1.1619 8.13147 15.4994
O 4.46912 3.55759 15.3943
Si 5.15463 4.46579 11.1402
Si 7.39961 17.0247 11.1935
Si 6.07763 6.94118 14.6115
Si 8.82391 2.29224 14.8548
Si 6.50329 2.12091 12.6428
Si 8.52696 6.13903 12.8253
O 5.63535 5.79055 15.7001
O 8.45049 1.03057 15.7371
O 7.90444 2.33643 13.3879
O 9.74831 6.34742 13.7761
O 6.61903 0.635677 11.9767
O 8.72729 4.98265 11.894
O 6.0861 3.31856 11.6227
O 8.3973 7.5695 11.9422
O 7.16427 6.17074 13.5829
O 10.1817 2.05856 14.0507
O 6.78941 8.05549 15.3996
O 9.29398 3.34791 15.9074
Si 9.77323 4.03625 11.2165
Si 12.4331 -0.0258798 11.2323
Si 11.2612 6.45702 14.7783
Si 13.9946 2.33886 14.5769
Si 11.3231 2.28469 13.0113
Si 13.7925 6.7067 12.6865
O 11.1966 5.08573 15.7183
O 13.7804 1.39487 15.6521
O 12.7407 2.56624 13.8587
O 14.8148 7.05504 13.7372
O 11.5978 0.91736 12.1823
O 13.96 5.45374 11.6677
O 11.06 3.48192 12.0253
O 13.8705 8.08334 11.6999
O 12.4959 6.51436 13.5893
O 0.202786 2.04948 13.7572
O 11.4194 7.80747 15.5021
O 14.3231 3.74122 15.4637
Si 14.9542 12.8816 10.8793
Si 2.41483 8.59617 10.7314
Si 1.44783 15.1934 14.6968
Si 3.68457 11.0344 14.9044
Si 1.21346 10.8248 12.9215
Si 3.92733 15.1555 12.9061
O 1.18107 14.0467 15.7144
O 3.21634 9.69563 15.5964
O 2.43782 11.574 13.9179
O 5.49736 15.3985 13.4116
O 1.84868 9.68031 11.7732
O 3.72627 14.0159 11.8626
O 0.494652 11.8741 11.9572
O 3.66883 16.5465 12.0971
O 2.96108 15.0233 14.1837
O 5.06386 10.6282 14.0653
O 1.69859 16.7167 15.7004
O 4.31188 12.0831 15.8811
Si 4.6962 13.0011 11.2443
Si 7.68074 8.8627 11.2523
Si 6.54064 15.2114 14.8216
Si 8.89831 11.1046 14.6371
Si 6.23679 11.1004 13.1319
Si 9.08513 15.2251 13.2997
O 5.8972 14.0924 15.6352
O 8.92766 9.5423 15.2154
O 7.65151 11.6066 13.924
O 10.4431 15.4702 14.0461
O 6.90999 9.85478 12.3316
O 9.44056 13.7519 12.5385
O 5.66301 12.3567 12.2709
O 8.53851 16.2089 12.2305
O 8.03533 15.1069 14.3903
O 10.4068 10.8787 13.9747
O 6.69245 16.4784 15.6792
O 9.32748 12.4405 15.7905
Si 10.2185 13.0268 11.268
Si 12.7175 8.76675 10.8365
Si 11.944 15.2146 14.6263
Si 14.0028 10.5963 14.8243
Si 11.6131 10.9511 12.8416
Si 14.0454 15.2391 12.7196
O 11.415 14.2216 15.7265
O 13.3301 9.66622 15.8533
O 12.9231 11.2565 13.7637
O 0.212684 15.4775 13.6431
O 11.8999 9.77084 11.924
O 14.4917 14.1446 11.7282
O 11.2831 12.1244 11.8809
O 13.4331 16.426 11.8876
O 12.9319 14.5419 13.7118
O 0.214334 10.0413 13.9738
O 12.4132 16.573 15.2446
O 14.6829 11.9373 15.6405
324
 Atoms. Timestep: 15500
Si 14.9173 4.28133 0.02807
Si 2.42775 0.0160759 16.4503
Si 0.843486 6.26903 3.78594
Si 3.74093 2.25296 3.68633
Si 1.23047 2.04427 2.17299
Si 3.36467 6.73196 1.82185
O 0.497872 4.90887 4.47772
O 3.26483 0.949097 4.63737
O 2.51312 2.52337 2.80752
O 4.82565 6.79245 2.55536
O 1.58697 0.842682 1.13798
O 3.83643 5.58154 0.827556
O 0.630774 3.18505 1.06246
O 2.9401 7.98269 1.0718
O 2.061 6.10212 2.83493
O 4.92656 1.95095 2.65892
O 1.25512 7.34292 4.72039
O 4.10474 3.32365 4.75127
Si 4.53987 4.51001 16.3841
Si 7.74035 0.284169 16.4009
Si 6.08032 6.62491 3.52544
Si 8.65851 2.20755 3.56066
Si 6.15252 2.44025 1.69616
Si 8.88978 6.4728 1.83598
O 5.68301 5.50221 4.54491
O 8.2107 0.936067 4.26576
O 7.39458 2.71248 2.63913
O 9.996 6.7983 2.96803
O 6.81128 1.35387 0.524928
O 9.33852 5.2373 0.793886
O 5.39387 3.40838 0.739725
O 8.60258 7.70759 0.766873
O 7.59236 6.12635 2.73556
O 10.0383 2.23763 2.92029
O 6.63275 8.08533 4.16168
O 8.91377 3.32535 4.90089
Si 10.4042 4.21974 0.0683432
Si 12.1695 17.4201 16.4378
Si 11.1663 6.47113 4.01851
Si 13.8247 1.74855 4.05283
Si 11.4599 2.08687 2.02729
Si 13.3405 6.28485 1.9768
O 10.6723 5.39382 4.97633
O 13.3736 0.419952 4.6892
O 12.5709 2.28455 3.07282
O 14.5306 6.56188 3.04021
O 11.568 0.871965 1.05966
O 13.7912 5.2086 0.79548
O 11.1288 3.3956 1.10458
O 13.013 7.71832 1.04774
O 12.1455 5.90272 3.01673
O 0.175032 1.62368 3.24664
O 11.5348 7.7928 4.69115
O 14.1133 2.80239 5.35173
Si 0.0433926 13.4124 0.147538
Si 2.28023 9.00452 0.0110219
Si 1.21595 15.1111 3.65903
Si 3.97226 10.6465 3.69961
Si 1.47206 11.1874 1.76641
Si 3.55082 14.9601 1.75057
O 0.760184 13.8623 4.39637
O 3.38233 9.27209 4.43545
O 2.76725 11.1222 2.75438
O 4.73664 15.2955 2.87206
O 1.40785 10.1369 0.524843
O 3.95631 13.8414 0.766151
O 0.999798 12.5223 1.14369
O 3.16871 16.1697 0.72773
O 2.34907 14.8373 2.67675
O 5.31891 10.4176 2.90562
O 1.43343 16.4352 4.65779
O 4.37284 11.8247 4.75881
Si 5.02807 13.0836 16.435
Si 7.49934 8.62315 16.4129
Si 6.38786 15.2652 3.74115
Si 8.86136 10.9165 3.60058
Si 6.29575 10.8336 1.67876
Si 8.66358 15.2726 1.64896
O 6.17295 13.8612 4.60841
O 8.3684 9.92121 4.624
O 7.80776 11.0671 2.41527
O 9.98221 15.4261 2.5573
O 6.37724 9.47608 0.826005
O 8.73146 13.8994 0.686686
O 5.93448 12.2213 0.906696
O 8.38375 16.6032 0.832228
O 7.4475 15.0271 2.73162
O 10.2144 10.8514 2.8917
O 6.34381 16.6153 4.77313
O 8.77405 12.2483 4.59049
Si 10.0542 13.1913 16.5074
Si 12.506 8.79048 0.100398
Si 11.1324 15.2118 3.55873
Si 14.0112 10.967 3.91501
Si 11.5315 11.2309 2.07074
Si 13.8432 15.6031 1.88769
O 10.5719 14.0562 4.61272
O 13.6201 9.38841 4.07008
O 12.6396 11.4514 3.06884
O 0.0836828 15.58 2.72122
O 11.9028 10.1947 0.936392
O 14.0299 14.3003 0.939678
O 10.9458 12.5885 1.3293
O 13.1167 16.5374 0.758806
O 12.5177 15.2429 2.82559
O 0.121565 11.023 2.83594
O 11.1273 16.4076 4.78269
O 14.1521 11.891 5.16527
Si 14.9443 4.14256 5.65142
Si 2.58617 17.3251 5.41583
Si 1.20511 6.23324 9.15957
Si 3.72903 2.44412 9.20833
Si 1.53408 2.20209 7.43226
Si 3.96311 6.63729 7.65868
O 0.898945 4.81778 10.0636
O 3.3818 1.14626 10.1284
O 2.54879 2.76098 8.47809
O 5.22252 7.01647 8.385
O 1.68268 0.781066 6.83131
O 4.24549 5.53695 6.64355
O 1.27546 3.5724 6.46105
O 3.25209 7.96526 6.75074
O 2.80304 6.15954 8.62751
O 4.94273 2.16567 8.22653
O 1.36179 7.37268 10.4813
O 4.11549 3.71138 10.2646
Si 4.93119 4.55121 5.66954
Si 7.52442 0.105848 5.31679
Si 6.49233 6.70789 9.42745
Si 8.84957 1.80298 9.10588
Si 6.28164 2.24899 7.22431
Si 8.74805 6.80347 7.3093
O 5.94606 5.54894 10.4456
O 8.28156 0.669478 9.86601
O 7.70778 2.2989 8.00398
O 10.1662 7.21204 7.84569
O 6.67949 1.13916 6.15588
O 8.53882 5.44421 6.30309
O 5.88995 3.63589 6.65017
O 8.376 7.98516 6.18586
O 7.79322 6.43248 8.43397
O 10.3366 1.44768 8.31505
O 6.81978 7.9262 10.3298
O 9.18534 3.13093 9.98366
Si 9.6481 4.3195 5.65607
Si 12.189 17.2537 5.70611
Si 11.3077 6.88264 9.03902
Si 14.0048 2.02959 9.23703
Si 11.3021 2.22247 7.50436
Si 13.8988 6.74336 7.25445
O 10.4849 5.42476 9.53631
O 13.5662 0.565654 9.65838
O 12.7011 2.62479 7.98051
O 0.270299 6.95978 8.06534
O 11.4593 1.10112 6.25088
O 14.206 5.22735 6.48909
O 10.5591 3.69977 6.93
O 13.733 7.92073 6.13923
O 12.6887 6.74308 8.20673
O 0.172956 2.12766 8.25257
O 11.57 7.94579 10.2636
O 14.2691 2.8913 10.477
Si 15.0219 13.1828 5.50108
Si 2.20831 8.53359 5.70099
Si 1.37926 15.1981 9.11042
Si 3.60003 10.6628 9.48811
Si 1.41135 11.0428 7.42867
Si 3.64024 15.0195 7.09587
O 1.67147 14.2801 10.3302
O 2.68056 9.49115 10.3527
O 2.73112 11.1351 8.30719
O 4.8104 15.3879 8.29261
O 1.49126 9.89841 6.06576
O 4.58373 14.0749 6.34625
O 0.775068 12.2869 6.62568
O 3.46641 16.2601 6.11891
O 2.10984 14.6156 7.78236
O 4.98438 10.4583 8.6673
O 2.0251 16.5955 9.47036
O 3.89912 11.8319 10.5288
Si 5.34393 12.8218 5.5987
Si 7.29457 9.04526 5.31126
Si 6.0599 15.2033 9.19061
Si 9.17325 10.7663 9.03546
Si 6.29962 10.644 7.70806
Si 8.5978 15.327 7.32561
O 5.8747 13.8719 10.0434
O 8.88701 9.51179 9.99401
O 7.60279 10.6745 8.35048
O 9.83335 15.5069 8.21405
O 6.31512 9.54746 6.44081
O 9.01915 13.8728 6.60039
O 6.05633 12.0064 6.72775
O 8.34844 16.6279 6.42183
O 7.35358 15.1805 8.20536
O 10.1679 11.0299 8.00143
O 6.3383 16.4335 10.2437
O 9.2151 11.8459 10.0775
Si 9.7399 13.0961 5.46589
Si 12.6839 8.70757 5.39711
Si 11.0774 15.0757 9.06198
Si 14.0268 10.9068 9.24916
Si 11.6349 11.2516 7.12617
Si 13.7361 15.209 7.5324
O 10.7417 13.9458 10.255
O 13.447 9.57038 9.98622
O 12.8978 11.4822 8.31847
O 14.8566 15.1675 8.83066
O 12.2095 9.93499 6.1976
O 14.3395 14.4133 6.30816
O 11.0725 12.1107 5.8504
O 12.8638 16.4806 6.85197
O 12.4409 14.3426 8.20139
O 0.11216 10.4015 8.38342
O 11.8256 16.2267 9.84256
O 14.6163 12.2126 10.0569
Si 0.0155968 4.15552 11.261
Si 2.64503 17.362 10.8388
Si 1.10658 6.58355 14.7655
Si 3.88283 2.10654 14.6857
Si 1.40199 1.83409 12.9878
Si 3.7532 6.42257 13.0451
O 0.770552 5.39189 15.7342
O 3.43064 0.891235 15.6511
O 2.99104 2.12837 13.3772
O 5.06166 6.87692 13.6679
O 1.53486 0.600528 11.8713
O 4.04682 5.0891 12.461
O 0.903153 3.38994 12.4783
O 3.14024 7.7769 12.2092
O 2.5237 6.16909 14.0314
O 5.58099 2.03509 14.2852
O 1.56503 7.92868 15.7125
O 3.73549 3.35813 15.5833
Si 5.1523 4.4544 11.4329
Si 7.34862 17.3094 11.1538
Si 6.23581 6.46979 14.5857
Si 9.23487 2.12107 14.3866
Si 6.61244 2.12273 12.955
Si 8.8672 6.18867 12.8104
O 5.64921 5.33751 15.53
O 8.57149 0.746218 15.0542
O 8.05853 2.44145 13.45
O 10.1181 6.55671 13.8655
O 6.67839 0.875809 12.063
O 9.1993 5.25728 11.7062
O 6.40798 3.43833 12.1252
O 8.43509 7.64039 12.1535
O 7.3257 5.82597 13.604
O 10.3467 1.55625 13.3518
O 6.93681 7.68275 15.3728
O 9.76686 3.16992 15.5009
Si 9.97132 4.33451 10.7167
Si 12.745 17.1583 10.628
Si 11.3505 6.62974 14.7876
Si 13.676 1.98942 14.5852
Si 11.5846 2.04826 12.2543
Si 13.7661 6.33204 12.7954
O 11.1589 5.25797 15.606
O 13.0926 0.729222 15.4374
O 12.5869 2.49416 13.4632
O 0.0788445 6.87218 13.4975
O 11.8673 0.832142 11.4358
O 14.2472 5.07996 12.0055
O 11.0208 3.36556 11.5747
O 13.3734 7.66816 12.0234
O 12.5601 6.03722 13.8857
O 0.161626 1.67316 13.8857
O 11.6911 7.92618 15.5068
O 14.0881 3.30959 15.6868
Si 0.316559 13.2267 11.047
Si 2.0988 8.46632 11.3855
Si 1.49793 15.2415 14.5143
Si 3.93037 10.7955 14.5802
Si 1.16611 10.9742 12.9154
Si 4.20523 15.3656 12.6389
O 0.652167 14.3329 15.4613
O 3.62898 9.8689 15.8204
O 2.61874 10.8736 13.6513
O 5.60934 15.6026 13.44
O 1.02366 9.51342 12.0936
O 4.29176 14.1393 11.7089
O 1.09693 12.29 12.0063
O 3.57564 16.4187 11.6992
O 2.94038 15.1242 13.8002
O 5.25697 10.4686 13.7834
O 1.52282 16.6734 15.5764
O 4.19784 12.2729 15.4602
Si 4.97152 12.9998 11.0922
Si 7.96304 8.75415 11.0339
Si 6.59648 15.4892 14.7511
Si 8.99506 11.0083 14.8698
Si 6.59163 11.0006 13.0631
Si 9.04271 15.2208 12.8218
O 5.90222 14.2657 15.6675
O 8.30154 9.88747 16.0313
O 7.55641 11.4667 14.0729
O 10.5231 15.3681 13.3925
O 7.40698 9.87379 12.0416
O 8.93644 13.8224 11.9602
O 5.77604 12.0988 12.1369
O 8.35204 16.479 11.9737
O 7.85871 15.076 14.0445
O 10.0815 10.5031 13.9191
O 6.67856 16.7384 15.6919
O 9.53043 12.0619 15.7879
Si 9.95156 12.9759 11.1229
Si 12.5735 8.83674 11.1162
Si 11.5143 15.2267 14.756
Si 13.7821 10.9485 14.7638
Si 11.3396 11.07 13.0857
Si 14.0296 15.2336 12.6623
O 11.0242 14.1456 15.6839
O 13.3026 9.67747 15.6406
O 12.5945 11.5141 14.0362
O 0.425358 15.4012 13.3711
O 12.1498 10.0272 12.0669
O 14.2898 13.8731 11.7825
O 11.0736 12.4374 12.1208
O 13.7341 16.5074 11.8108
O 12.9454 15.1132 13.8708
O -0.00439755 10.8208 13.9254
O 11.1089 16.5233 15.6449
O 14.1334 12.2577 15.8299
324
 Atoms. Timestep: 16000
Si 15.1574 4.53845 -0.0267814
Si 2.73301 17.2001 0.270553
Si 1.32537 6.53261 3.41322
Si 3.68162 2.16057 3.47424
Si 1.08217 2.00752 1.78618
Si 3.8025 6.66923 1.78318
O 0.719074 5.29555 4.37327
O 3.67246 1.0393 4.82877
O 2.44725 2.42281 2.54162
O 5.04097 6.60294 2.97567
O 1.79168 0.822977 1.09859
O 4.08791 5.64329 0.47486
O 0.394396 3.3178 0.945336
O 3.44894 8.06712 1.3377
O 2.52791 6.08002 2.41005
O 5.05538 1.86611 2.48124
O 2.14498 7.35341 4.42051
O 4.00928 3.39068 4.51486
Si 4.85869 4.4084 16.3187
Si 7.47831 0.315472 16.4208
Si 6.25706 6.17661 3.83244
Si 8.61535 2.54632 3.85793
Si 6.24663 2.68899 1.74715
Si 8.92635 6.00448 1.96064
O 5.93831 4.99998 4.86271
O 8.09751 1.0047 4.29383
O 7.31736 2.92706 2.97307
O 10.1039 6.39951 2.81389
O 6.76369 1.57164 0.576091
O 9.00947 4.71516 1.00842
O 5.65303 3.98019 1.0098
O 8.7344 7.34687 0.98424
O 7.57062 6.10003 2.94892
O 9.77041 2.3656 2.869
O 6.63175 7.50274 4.70887
O 8.94513 3.51052 5.07806
Si 10.2442 4.53714 -0.119748
Si 12.3099 0.182475 0.120154
Si 11.3402 6.49009 3.85451
Si 13.9152 1.87806 3.87251
Si 11.1463 2.4718 2.05923
Si 13.8619 6.90222 1.88445
O 11.0704 5.2486 4.91073
O 13.7501 1.02956 5.12236
O 12.518 2.40001 3.12881
O 0.090802 7.02969 2.59994
O 11.386 1.18858 1.08726
O 14.4088 5.62261 0.997797
O 11.1342 3.75916 1.12799
O 13.6085 8.05043 0.77576
O 12.7472 6.57689 2.9487
O 14.6996 1.33681 2.56092
O 11.6507 7.79996 4.80413
O 14.6624 3.16489 4.41309
Si 14.8012 13.2076 16.5015
Si 2.84462 8.97329 0.26083
Si 1.44733 15.2618 3.73132
Si 3.81554 10.9278 3.68958
Si 1.44025 11.2874 1.42206
Si 3.90662 14.6666 1.91982
O 0.966264 14.2902 4.86176
O 3.3414 9.52104 4.35471
O 2.55004 11.3275 2.57429
O 5.20574 14.723 2.78509
O 2.21458 10.3132 0.477922
O 3.844 13.4852 0.757796
O 0.873872 12.6087 0.830704
O 3.62379 16.1024 1.07437
O 2.56722 14.4956 2.96483
O 5.04328 10.714 2.5595
O 1.94289 16.6485 4.21365
O 4.1602 11.8813 4.72
Si 5.02677 12.7573 16.3493
Si 7.69471 8.22403 0.122975
Si 6.48379 14.7814 3.84198
Si 8.76651 10.7231 3.49207
Si 6.50362 10.7492 1.62436
Si 8.78125 15.334 1.92309
O 5.84042 13.8388 4.8992
O 8.60161 9.61866 4.63684
O 7.66554 11.2104 2.57467
O 9.95667 15.6672 2.86427
O 6.91345 8.96377 1.65663
O 9.16829 14.3619 0.640546
O 5.9443 11.6561 0.544761
O 8.23828 16.7152 1.17
O 7.62019 14.435 2.77536
O 10.0607 10.3952 2.64176
O 6.72962 16.1963 4.56088
O 9.3158 12.1315 4.38862
Si 10.0206 13.2175 16.557
Si 12.6844 9.07658 0.180791
Si 11.2371 15.4001 3.68949
Si 14.1168 10.8533 3.34957
Si 11.3033 11.1437 1.99235
Si 13.8602 15.4807 1.83162
O 11.0118 14.1032 4.54838
O 13.6365 9.47077 4.27513
O 12.7351 11.2456 2.90295
O 0.0380332 15.6104 2.78851
O 11.9521 10.2387 1.1087
O 14.0773 14.1272 1.02671
O 10.8457 12.4353 1.09059
O 13.3273 16.6458 0.784487
O 12.4986 15.3287 2.75163
O 0.109412 10.6503 2.0743
O 11.3837 16.8385 4.36466
O 14.8154 12.2304 4.14647
Si 15.202 4.25994 5.32206
Si 2.4654 0.101136 5.38332
Si 1.18756 6.50604 9.3207
Si 3.96887 2.10947 9.3197
Si 1.53318 2.47399 7.14237
Si 3.49771 6.56125 7.46513
O 0.755442 5.34574 10.4373
O 3.2569 0.976094 9.89559
O 2.85375 2.63891 8.00925
O 4.72336 6.97967 8.31844
O 1.49158 1.2246 6.12309
O 4.03469 5.14978 6.62502
O 1.24972 3.58774 6.23365
O 3.28107 7.99552 6.53505
O 2.28205 6.05567 8.36392
O 5.33026 1.79526 8.68132
O 1.748 7.52611 10.2433
O 4.43558 3.28976 10.323
Si 4.85567 4.17199 5.62412
Si 7.51412 17.3057 5.42927
Si 5.96412 6.82602 9.44322
Si 8.78557 2.80774 9.41808
Si 6.4408 2.07081 7.48296
Si 8.64722 6.93352 7.49103
O 5.7495 5.60567 10.3815
O 8.17167 1.61671 10.1011
O 7.60842 2.93189 8.20186
O 10.0752 7.04476 8.44036
O 6.79748 0.784026 6.50268
O 9.02739 5.6528 6.61279
O 5.74697 3.07485 6.45523
O 8.25556 7.96098 6.38648
O 7.28842 6.93586 8.50716
O 10.3092 2.15649 8.75803
O 6.15195 7.90661 10.5395
O 9.25136 4.04371 10.0527
Si 9.91501 4.53536 5.87014
Si 12.2374 0.0787559 5.5643
Si 11.4681 6.52518 8.8608
Si 14.1636 2.29989 9.11187
Si 11.3579 2.23757 7.61728
Si 13.9254 6.43043 7.06085
O 11.4527 5.42555 10.0361
O 13.7668 0.767637 9.94574
O 12.8034 2.53383 8.38721
O 15.0614 6.66577 8.20275
O 11.5777 0.991969 6.57098
O 13.9566 5.09794 6.24218
O 10.9076 3.71492 6.95391
O 14.0799 7.63759 6.00429
O 12.4783 6.69729 7.67202
O 0.0704431 2.23148 8.05241
O 11.9687 7.73981 9.89785
O 14.3929 3.13604 10.4506
Si -0.0216051 13.1655 5.37207
Si 2.454 8.65161 5.35478
Si 0.811452 15.3782 8.89698
Si 3.76825 10.4467 9.20345
Si 1.10864 10.9061 7.28366
Si 3.46022 15.1834 7.41694
O 15.212 14.2408 9.73339
O 3.35721 9.49802 10.3034
O 2.42556 10.7835 8.22757
O 4.72081 15.3816 8.69042
O 1.46208 9.6518 6.18748
O 3.90559 14.0008 6.47506
O 0.858447 12.2131 6.49715
O 3.18771 16.6201 6.82792
O 2.23728 14.807 8.26788
O 5.00954 10.1978 8.36217
O 1.33648 16.7768 9.83214
O 4.38266 11.6539 10.2128
Si 4.66891 12.906 5.71285
Si 7.54161 8.67367 5.30717
Si 6.31135 15.3061 9.22353
Si 8.81846 10.4275 8.99362
Si 6.13071 10.6723 7.11681
Si 8.62234 15.0996 7.29083
O 6.11296 13.9703 10.2337
O 8.23341 9.18707 9.7146
O 7.51809 10.5887 7.81287
O 10.1848 15.3815 8.08796
O 6.39742 9.6323 5.95307
O 9.14777 14.0142 6.24259
O 5.49685 12.1648 6.71566
O 8.48444 16.4342 6.40359
O 7.4587 14.7964 8.21115
O 10.1714 9.90856 8.15679
O 6.72478 16.5983 10.0795
O 9.19652 11.6251 9.80946
Si 10.202 13.0308 5.41407
Si 12.8463 8.5345 5.42658
Si 11.0983 15.1023 9.30046
Si 13.886 10.7253 9.31613
Si 11.386 10.6463 7.35692
Si 13.362 14.911 7.122
O 10.7289 13.9262 10.2172
O 13.7041 9.44855 10.2772
O 12.3992 11.0374 8.55425
O 14.7957 15.6257 7.6921
O 12.2208 9.65937 6.57253
O 13.8213 13.7945 6.16025
O 10.8299 11.8333 6.55171
O 12.9214 16.1214 6.10284
O 12.3565 14.8552 8.3599
O 14.9539 10.7697 8.14285
O 11.5007 16.3474 10.2255
O 14.1701 12.0613 10.048
Si 0.115968 4.31509 11.4584
Si 2.29955 0.0111179 10.7533
Si 1.67306 6.64217 14.9726
Si 3.72573 1.84815 15.0613
Si 1.14824 1.7866 13.1935
Si 3.91858 6.67031 13.0202
O 1.3542 5.28507 15.8037
O 3.64085 0.509835 15.889
O 2.4105 1.74284 14.2107
O 5.42466 6.89058 13.7076
O 1.61384 0.788019 12.0322
O 3.97902 5.24357 12.1227
O 0.849012 3.37633 12.4944
O 3.41702 7.94159 12.2643
O 2.92835 6.25525 14.1558
O 5.05674 2.01412 14.0635
O 1.76778 7.96539 15.9427
O 3.91852 3.21515 15.9583
Si 4.98409 4.45271 11.1234
Si 7.44487 0.317742 11.1489
Si 6.40704 6.06139 14.6182
Si 8.84366 2.48293 14.6942
Si 6.26414 2.44535 13.0313
Si 9.15179 6.68639 12.9443
O 5.75078 4.76117 15.15
O 8.62587 1.13834 15.5085
O 7.61808 2.83775 13.8861
O 10.0845 7.44598 13.8791
O 6.77155 1.17508 12.1763
O 9.96446 5.33576 12.318
O 5.81127 3.75657 12.1888
O 8.37052 7.25007 11.6854
O 7.87878 6.1219 13.9308
O 10.178 2.00796 13.5697
O 6.82489 7.17341 15.8814
O 9.60879 3.65942 15.3322
Si 10.3798 4.5637 10.8728
Si 12.8233 17.2411 10.8573
Si 11.4217 7.13964 14.8569
Si 13.6985 2.40579 14.8119
Si 11.4792 2.09385 12.5415
Si 14.1284 6.52282 13.2228
O 11.0255 5.85919 15.9246
O 13.0976 1.28519 15.7236
O 12.886 2.85055 13.4706
O 0.237185 6.71338 14.1052
O 12.1509 0.841541 11.7945
O 14.2243 5.27976 12.2226
O 11.0451 3.19518 11.4433
O 13.5298 7.79991 12.3918
O 12.8142 6.66005 14.2948
O 15.1444 1.62931 14.2338
O 11.7252 8.35047 15.7293
O 14.0718 3.65203 15.6294
Si 14.759 13.1708 10.957
Si 2.52267 8.73028 11.3302
Si 1.1591 15.2664 14.7277
Si 3.81242 10.441 14.3196
Si 1.2315 11.0543 12.6715
Si 3.48759 15.2234 12.8556
O 0.525313 13.9344 15.3099
O 3.76445 9.3225 15.2709
O 2.63209 10.9018 13.3733
O 4.69182 15.4839 13.8964
O 1.35408 9.76471 11.7851
O 4.12421 13.7987 12.0762
O 0.908136 12.3257 11.4731
O 3.1962 16.4538 11.864
O 2.09301 15.0424 13.6334
O 5.1078 10.3432 13.4047
O 1.86101 16.2734 15.8857
O 4.17632 11.7385 15.465
Si 5.14152 13.04 11.0424
Si 7.63957 8.62975 11.0634
Si 6.06059 15.2932 14.822
Si 8.66664 10.7412 14.895
Si 6.59114 10.806 12.7302
Si 8.51462 15.2114 12.5967
O 5.76494 13.9081 15.6216
O 8.27545 9.4509 15.736
O 7.31042 11.1742 14.1039
O 9.56644 15.3647 13.8728
O 7.4816 9.75727 12.0893
O 9.05067 13.6875 12.0576
O 6.27808 11.9693 11.7544
O 8.3697 16.4514 11.7338
O 7.22238 15.0232 13.5677
O 9.84276 10.6977 13.7685
O 6.63344 16.726 15.5341
O 8.91193 12.0142 15.8548
Si 9.78477 12.7715 10.8278
Si 12.7266 8.56687 11.2295
Si 11.0325 15.1716 14.6072
Si 13.8015 10.9368 14.6946
Si 11.2661 10.7272 12.8166
Si 13.6818 15.2613 12.9895
O 10.8628 13.8679 15.2347
O 13.5264 9.7828 15.7077
O 12.6453 11.1509 13.5781
O 14.8395 15.9683 13.9705
O 11.5271 9.42437 12.0377
O 14.277 13.8976 12.3168
O 10.8151 11.7115 11.5869
O 13.6014 16.2076 11.6094
O 12.2805 15.1932 13.5982
O -0.0312384 11.0019 13.7043
O 11.3459 16.4836 15.5948
O 13.879 12.1921 15.6844
324
 Atoms. Timestep: 16500
Si 0.375911 4.12759 0.0813084
Si 2.56622 17.245 16.3759
Si 1.57066 7.05082 3.65169
Si 3.80927 2.29038 3.88903
Si 1.39447 1.69693 1.98163
Si 4.28249 6.7159 1.68882
O 0.964258 5.61086 4.61538
O 3.31135 1.0165 4.65536
O 2.4179 2.2451 3.15788
O 5.71252 6.82152 2.46805
O 1.63767 0.689053 0.920704
O 4.74305 5.29763 1.05213
O 0.962566 2.91182 0.927675
O 4.0327 7.74411 0.578578
O 2.97525 6.86 2.69406
O 4.95803 2.208 2.82604
O 1.66947 8.19981 4.54262
O 3.93046 3.57267 4.73742
Si 5.41297 4.42697 16.4441
Si 7.01141 17.3403 16.5243
Si 6.55892 6.53657 3.76537
Si 8.82691 2.12566 3.93294
Si 6.28741 2.08201 1.92943
Si 8.99014 6.46647 1.72982
O 6.01689 5.21063 4.57282
O 8.37459 1.28583 5.10673
O 7.65443 2.06755 2.72883
O 10.3874 7.03722 2.49685
O 6.27167 0.749557 1.05016
O 9.47986 5.42339 0.622055
O 6.36348 3.26843 0.87306
O 8.35744 7.5898 0.94635
O 8.13443 5.91667 2.92722
O 10.1131 1.66824 2.87524
O 6.87628 7.65118 4.73228
O 9.30621 3.55267 4.26514
Si 10.081 4.19427 16.2899
Si 12.4145 17.3607 16.4942
Si 11.6495 6.60141 3.3404
Si 13.795 2.03703 3.75984
Si 11.2554 2.03813 1.81226
Si 14.2459 6.51829 1.75216
O 11.1781 5.52301 4.39465
O 13.2426 1.30003 4.99095
O 12.4603 2.31938 2.8191
O 0.305196 6.93657 2.75495
O 11.5502 0.986843 0.675027
O 14.7281 5.31661 0.832334
O 10.7439 3.27506 0.921368
O 13.7891 7.85367 0.744176
O 12.7088 6.14113 2.26291
O 15.0873 1.31256 2.85741
O 11.9432 7.85707 4.48727
O 14.4842 3.51375 4.29515
Si 15.0514 13.0097 16.5389
Si 2.78098 8.6415 0.177359
Si 1.25452 15.1721 3.66945
Si 3.55013 11.3928 3.62086
Si 1.02 10.8701 1.9775
Si 3.73716 14.9183 1.73165
O 0.923263 14.2081 4.85812
O 3.24022 10.1553 5.11311
O 1.9129 11.2372 3.20985
O 4.99261 15.4205 2.57021
O 1.95144 9.53677 1.14506
O 4.02535 13.6517 1.07007
O 0.721079 12.0384 1.08741
O 3.4148 16.2963 0.908886
O 2.37451 14.5509 2.69029
O 4.695 10.8884 2.54405
O 2.05807 16.5554 4.05657
O 4.12791 12.617 4.38421
Si 5.12433 13.1847 16.4177
Si 7.36008 8.57846 0.17773
Si 6.13783 15.4969 3.66427
Si 8.85697 10.6935 3.60442
Si 6.34316 11.1434 1.79031
Si 8.73292 15.2248 1.76095
O 5.8428 14.4718 4.81522
O 8.70199 9.39559 4.52087
O 7.42347 10.792 2.88754
O 10.2342 15.6354 2.28285
O 6.47182 9.76928 0.930225
O 9.05634 14.0457 0.721381
O 6.24896 12.4517 0.803324
O 7.76492 16.1801 0.851591
O 7.63278 14.8626 2.92648
O 10.1067 10.9061 2.54292
O 6.52006 16.8868 4.30861
O 9.42441 12.0611 4.42921
Si 9.99624 13.1343 16.3923
Si 12.8598 8.76167 16.3864
Si 11.07 15.4297 3.79562
Si 13.8399 10.6483 3.81907
Si 11.432 11.2359 1.8154
Si 13.6379 15.1986 1.96441
O 10.4349 14.2628 4.54384
O 13.5271 9.69418 5.054
O 12.5829 10.9462 3.1053
O 15.0076 15.4197 2.90332
O 12.1269 9.97422 0.804345
O 14.0148 13.8644 0.94566
O 10.9713 12.5706 0.943957
O 13.0418 16.3663 1.08802
O 12.5776 15.0171 3.2452
O 14.9872 10.1183 2.67196
O 11.3201 16.7578 4.77657
O 14.3838 12.1225 4.42162
Si 0.0189311 4.54575 5.33127
Si 2.38421 0.139874 5.43817
Si 1.16858 6.54898 9.27789
Si 3.44247 1.97842 9.25181
Si 1.16372 2.12925 7.24897
Si 3.82965 6.30392 7.34533
O 1.00636 5.62933 10.5144
O 3.13082 1.00434 10.4242
O 2.44106 2.09125 8.09709
O 4.86512 6.77527 8.45439
O 1.16894 0.856768 6.14807
O 4.52617 5.16892 6.47504
O 0.880156 3.67622 6.4522
O 3.24896 7.71166 6.4892
O 2.43497 6.09128 8.08668
O 4.91873 1.75589 8.57339
O 1.41738 7.90014 10.0265
O 3.61783 3.34923 10.0567
Si 5.35457 4.121 5.59755
Si 7.4129 17.4283 5.47417
Si 6.26806 6.2382 9.15965
Si 9.13831 2.18228 9.42655
Si 6.21775 1.93641 7.5331
Si 8.7499 6.2842 7.47125
O 5.84406 4.86608 9.88664
O 8.8183 0.88751 10.2913
O 7.59296 1.99638 8.36423
O 9.71669 6.72523 8.67731
O 6.56276 0.801142 6.42359
O 9.52745 5.13498 6.46229
O 6.04028 3.22804 6.62542
O 8.20963 7.52168 6.70046
O 7.48985 5.67221 8.16633
O 10.237 2.18786 8.34079
O 6.84941 7.50663 10.0008
O 8.90221 3.48985 10.1553
Si 10.2765 4.29911 5.18369
Si 12.5461 17.3774 5.62491
Si 11.2783 6.2953 9.23258
Si 13.8042 2.40532 9.09793
Si 11.4 2.27921 7.41375
Si 13.6543 6.51687 7.27924
O 10.8652 5.0422 10.0382
O 13.1787 1.09384 10.0051
O 12.5706 3.01299 8.32522
O 14.9119 6.79715 8.34773
O 12.0349 0.967786 6.76815
O 14.0026 5.3819 6.15122
O 11.0934 3.38577 6.18571
O 13.1978 7.97224 6.88341
O 12.3792 6.02459 8.17131
O 0.101562 1.95175 8.41827
O 11.9013 7.38906 10.3228
O 14.396 3.5111 10.3341
Si 0.138836 12.968 5.56544
Si 2.58783 8.84798 5.714
Si 1.05667 15.4584 9.33712
Si 3.98917 11.0449 9.09339
Si 1.37579 10.981 7.35204
Si 3.65683 15.5146 7.44976
O 0.709154 14.3542 10.4203
O 3.24345 9.93214 10.0194
O 2.82732 11.5624 7.90157
O 5.00822 15.8545 8.08949
O 1.7082 9.4174 6.93128
O 4.1165 14.2512 6.63064
O 1.08308 11.9957 6.17434
O 2.99207 16.6516 6.57443
O 2.40755 15.3791 8.48607
O 4.88872 10.5114 8.00999
O 1.07345 16.8281 10.2808
O 4.75005 12.3232 9.81691
Si 4.84067 13.3382 5.66537
Si 7.72441 8.64841 5.6272
Si 6.23088 15.6848 9.19954
Si 8.76552 11.1363 9.13297
Si 6.17721 10.8963 7.22458
Si 8.68972 15.0227 7.47406
O 6.00994 14.6417 10.328
O 8.4035 9.79827 9.89654
O 7.36701 11.2862 8.28095
O 9.85361 15.4574 8.43498
O 6.99896 9.72285 6.41454
O 9.30497 13.7982 6.62261
O 5.66713 12.1296 6.39395
O 8.49798 16.1853 6.23869
O 7.48423 14.9092 8.53969
O 10.0451 10.9797 8.29442
O 6.59164 17.0367 9.97534
O 8.99886 12.6248 9.8173
Si 10.0983 13.0845 5.46264
Si 12.4834 8.82874 5.75866
Si 11.2883 15.2811 9.20345
Si 13.9451 10.8652 9.2507
Si 11.3213 10.889 7.24934
Si 13.8122 15.0592 7.37023
O 11.0992 13.8055 10.3256
O 13.4867 9.51968 10.0786
O 12.7508 10.9928 8.00667
O 14.9436 15.4552 8.41175
O 11.4012 9.8067 6.25378
O 14.3187 13.6172 6.74232
O 11.1306 12.2219 6.19764
O 13.5401 16.3076 6.14175
O 12.4344 14.9316 8.16646
O 0.303628 10.8081 8.58072
O 11.6655 16.4008 10.2273
O 14.0856 12.0696 10.3789
Si 0.378445 4.37056 11.2512
Si 2.13166 0.088409 11.2844
Si 1.49903 6.236 14.7338
Si 3.57524 2.21444 14.921
Si 1.13637 2.22367 13.1462
Si 3.93077 6.66353 12.5404
O 1.44723 4.8861 15.6693
O 3.65622 0.744327 15.7987
O 2.15334 2.5775 14.4469
O 5.07963 7.10485 13.5836
O 1.41849 0.876213 12.4101
O 4.35751 5.26882 11.9445
O 1.23753 3.28362 11.9471
O 3.54763 7.81758 11.4335
O 2.57175 6.17222 13.372
O 4.58431 1.90554 13.526
O 2.08476 7.43167 15.8205
O 4.34511 3.2992 15.5757
Si 4.79771 4.09681 10.9562
Si 7.70391 0.097165 11.0805
Si 6.27158 6.42608 14.3592
Si 8.60773 2.0653 14.9395
Si 6.17077 1.99894 12.9328
Si 8.96819 6.57094 12.7274
O 6.02074 5.35615 15.3727
O 8.0869 0.754528 15.7239
O 7.27375 2.47579 13.9454
O 10.1997 6.79212 13.8488
O 6.89517 0.790226 12.2378
O 9.54397 5.15789 12.108
O 5.51001 2.86873 11.7847
O 8.7748 8.11722 11.9221
O 7.56057 6.46587 13.3072
O 9.88297 1.69413 13.8458
O 6.87581 7.67092 15.52
O 8.77172 3.38823 15.7298
Si 10.0287 4.29828 11.0041
Si 12.6447 0.0270093 10.9145
Si 11.4013 6.53081 14.7845
Si 13.5825 2.25879 14.8721
Si 11.196 1.91572 12.911
Si 13.9661 6.64167 13.1614
O 11.1739 5.14143 15.4744
O 13.3351 0.873897 15.6829
O 12.5763 2.35185 13.7191
O 0.288032 6.78488 13.9731
O 11.6264 0.522296 12.1899
O 14.5643 5.32849 12.4562
O 10.6643 3.09806 11.9822
O 13.3933 7.85172 12.1991
O 12.9435 6.53767 14.3235
O 14.8963 2.24844 13.819
O 11.7239 7.9507 15.8071
O 14.3071 3.44386 15.7213
Si 15.0751 13.0971 11.3182
Si 2.42535 8.85708 10.8655
Si 1.17534 15.2595 14.7389
Si 3.83408 11.1467 14.5125
Si 1.31767 10.9606 12.9441
Si 3.28995 14.8255 12.7088
O 0.793555 14.0345 15.9161
O 3.36219 9.76928 15.5538
O 2.41558 11.6012 13.8641
O 4.42998 15.3056 13.6777
O 1.67321 9.67397 12.1634
O 4.01493 13.8853 11.7245
O 1.02404 12.0661 11.8008
O 2.79507 16.1504 11.9929
O 2.15589 14.2059 13.8033
O 4.92569 10.921 13.4472
O 1.85724 16.4397 15.3553
O 4.44513 12.3774 15.4052
Si 5.33128 13.2351 10.9151
Si 7.82155 8.78118 10.7739
Si 5.82915 15.3844 14.5397
Si 8.79495 10.5101 14.7495
Si 6.50415 11.1095 12.5787
Si 8.50942 15.2007 13.0425
O 5.55757 14.5188 15.7209
O 8.24367 9.78319 16.1131
O 7.75558 11.0213 13.5454
O 9.58624 15.7378 13.9858
O 6.67288 9.79261 11.6002
O 9.12333 13.9382 12.1737
O 6.41512 12.4606 11.8539
O 8.33297 16.3379 11.8487
O 7.02808 14.9551 13.6613
O 9.81492 9.6905 13.7833
O 6.1776 16.7388 15.2997
O 9.45229 12.0506 15.3969
Si 10.0246 13.0719 11.0418
Si 12.6135 8.59661 11.0016
Si 11.0928 15.31 14.5976
Si 13.7338 10.9803 14.3886
Si 10.9476 10.568 12.8784
Si 13.724 15.2604 13.04
O 10.7348 14.0534 15.5155
O 13.6903 9.70193 15.3142
O 12.2916 11.2312 13.753
O 14.7729 15.4741 14.1983
O 11.4887 9.5089 11.812
O 14.3948 13.8565 12.403
O 10.3393 11.6826 11.7723
O 13.5532 16.3368 11.8583
O 12.2056 14.9349 13.3858
O 14.9212 10.8545 13.3546
O 11.7567 16.3612 15.4599
O 14.2157 12.0602 15.456
324
 Atoms. Timestep: 17000
Si -0.105735 4.39353 16.4142
Si 2.29427 17.3992 16.3571
Si 1.52129 6.31289 4.01981
Si 3.77023 2.29667 3.73653
Si 1.4285 2.49387 1.82112
Si 4.00428 6.34316 2.13986
O 0.71855 5.17225 4.52532
O 3.21631 0.90295 4.49419
O 2.61248 2.58244 2.87525
O 5.23284 6.61145 3.16287
O 1.69248 1.15788 1.08561
O 4.28523 5.22196 0.930025
O 1.09629 3.36591 0.463775
O 3.34072 7.50467 1.39107
O 3.03909 6.00713 3.31258
O 5.24178 2.00406 2.9544
O 2.15691 7.25219 5.02905
O 4.12858 3.3496 4.83742
Si 5.09177 4.3595 16.4842
Si 7.44073 17.221 16.5582
Si 6.54779 6.43392 4.04753
Si 9.1945 2.18568 3.5165
Si 6.39929 2.11026 1.86816
Si 8.87686 6.64783 1.7654
O 6.42746 4.96057 4.60393
O 8.77982 0.790696 4.6226
O 7.86747 2.38696 2.66534
O 10.1357 6.9654 2.73309
O 6.45752 0.686995 0.975368
O 9.38126 5.26515 0.939502
O 6.05278 3.33392 0.746494
O 8.36744 7.91988 0.824569
O 7.75592 6.39528 2.88903
O 10.2274 1.42267 2.51453
O 7.12522 7.56313 5.03562
O 9.85983 3.40476 4.14533
Si 9.8851 4.1915 -0.0313069
Si 13.0383 17.1957 0.0286733
Si 11.5204 6.76019 3.46729
Si 13.5701 2.62836 3.50133
Si 11.5073 1.8333 1.68173
Si 14.184 6.54682 1.96673
O 11.3979 5.42281 4.38226
O 13.3603 0.993304 4.14868
O 12.3228 3.0101 2.53131
O 0.563923 6.63545 2.72209
O 12.5886 0.905112 1.10421
O 14.266 5.21257 1.11459
O 10.5981 2.99927 0.623254
O 13.9269 7.73773 0.742974
O 13.0203 6.74206 2.76854
O -0.138882 2.70946 2.51541
O 11.7636 8.04161 4.6156
O 13.7853 3.60525 4.72377
Si 14.8219 12.7084 0.137141
Si 2.52769 8.47782 0.380401
Si 0.871801 15.5618 3.58922
Si 3.48556 11.2299 3.73346
Si 1.09314 10.8142 1.86574
Si 3.52711 15.4586 1.80615
O 0.822235 14.1039 4.54051
O 3.44651 9.76682 4.51702
O 2.19774 11.2216 2.83845
O 4.72355 15.9931 2.90849
O 1.5148 9.25773 1.11938
O 4.03841 14.091 1.00962
O 0.682171 11.8706 0.787062
O 3.36964 16.5091 0.599225
O 2.09851 15.2258 2.3674
O 4.7341 11.2285 2.65764
O 1.33381 16.614 4.62233
O 3.82918 12.4305 4.79721
Si 4.95209 13.0478 0.136009
Si 7.30029 8.92714 0.0295281
Si 6.2174 15.3034 3.50323
Si 9.03018 10.7456 3.62056
Si 6.13733 11.0621 2.14323
Si 8.6132 15.1802 1.71802
O 5.55808 14.0774 4.29059
O 8.75062 9.56336 4.60375
O 7.35759 11.0981 3.14645
O 9.72202 15.7669 2.8659
O 6.42716 9.57778 1.23046
O 9.23976 13.7633 1.05194
O 5.81435 12.1074 1.05867
O 8.54423 16.2764 0.553052
O 7.13932 14.9057 2.23412
O 10.2179 10.2593 2.58359
O 7.08122 16.3226 4.46106
O 9.11869 12.0877 4.48668
Si 10.2437 12.9383 0.0195139
Si 12.6839 8.39704 16.4488
Si 11.1853 15.5514 3.43468
Si 13.7233 10.7985 3.66227
Si 11.4142 10.56 1.50427
Si 13.6049 14.9368 1.7953
O 10.763 14.2981 4.39536
O 13.3042 10.0144 5.05184
O 12.5934 11.0175 2.58231
O 14.5955 15.278 2.99723
O 11.6948 9.23357 0.887344
O 14.0726 13.7128 1.07997
O 11.0509 11.5634 0.386844
O 13.7044 16.0281 0.748209
O 12.1661 14.9167 2.36882
O 14.9693 10.3858 2.78108
O 11.7436 16.8593 4.08951
O 14.0833 12.3007 4.41086
Si 14.979 4.3394 5.62027
Si 2.27538 17.6179 5.53511
Si 1.51804 6.88173 8.97519
Si 3.56603 2.33942 9.10265
Si 0.94492 2.23943 7.75618
Si 4.14727 6.79495 7.44812
O 1.19773 5.55477 9.9857
O 3.44731 1.11989 10.0762
O 2.09898 2.86363 8.64027
O 5.29725 7.06558 8.55925
O 1.74793 1.14479 6.81787
O 4.25151 5.62563 6.32273
O 0.558885 3.23041 6.60651
O 4.0157 8.12039 6.72371
O 2.74821 6.66274 7.9486
O 4.4035 1.70242 7.75656
O 1.96347 8.03135 9.91131
O 4.28653 3.6801 9.47078
Si 5.11721 4.36813 5.38282
Si 7.79837 -0.106856 5.43428
Si 6.60046 6.54733 9.06765
Si 8.71447 2.28516 9.27561
Si 5.85524 2.13819 7.29741
Si 9.38848 6.42869 7.28468
O 6.22384 5.16572 9.9863
O 8.57299 0.940038 10.087
O 6.90163 2.31446 8.51111
O 10.5302 6.19052 8.26314
O 6.66433 1.08572 5.98936
O 9.68563 5.48406 5.91107
O 5.67237 3.61226 6.56743
O 9.03779 7.87947 6.77943
O 7.90508 5.90119 7.9968
O 9.62116 2.23567 8.00451
O 7.51077 7.58846 9.88744
O 9.21504 3.24909 10.3251
Si 10.5329 4.41914 5.16669
Si 12.5072 0.187516 5.29178
Si 11.7312 6.09131 9.38638
Si 13.6884 2.24373 9.26576
Si 11.0064 2.08629 7.20868
Si 13.8588 6.77774 7.34184
O 11.0602 5.23713 10.588
O 13.2373 1.23554 10.4965
O 12.295 2.20139 8.20976
O 0.159046 6.80997 8.19086
O 11.4091 1.11854 6.07763
O 14.3027 5.76663 6.23136
O 10.9831 3.42228 6.33802
O 13.0559 7.97515 6.9233
O 12.8356 5.78178 8.33143
O 14.8147 1.55304 8.49163
O 11.78 7.5952 9.97142
O 14.3179 3.56241 9.70218
Si 15.1552 13.1067 5.33308
Si 2.96893 8.50728 5.74949
Si 1.20964 15.2004 9.28041
Si 3.94894 10.9462 9.19732
Si 1.22757 10.7852 7.23685
Si 3.76807 15.3093 7.60144
O 0.608106 14.0535 10.3318
O 3.84771 9.68179 10.0723
O 2.33541 11.3267 8.66434
O 4.80928 15.7527 8.60952
O 1.79272 9.5757 6.52324
O 4.36752 14.1165 6.58041
O 0.995223 12.1834 6.24915
O 3.34171 16.2501 6.31891
O 2.31416 14.9242 8.41535
O 5.04672 10.9168 8.087
O 1.82616 16.387 10.1776
O 4.23216 12.3835 10.154
Si 4.93855 13.2323 5.46506
Si 8.21711 8.67237 5.70795
Si 6.19356 15.2062 9.36837
Si 8.79014 11.3503 9.33675
Si 6.4873 11.0945 7.08812
Si 8.49582 15.0703 7.4242
O 5.82509 14.2463 10.58
O 8.68074 9.77428 10.1476
O 7.61378 11.5371 8.30371
O 9.80035 15.582 8.54049
O 7.21619 9.70801 6.586
O 9.29889 14.1135 6.58659
O 6.05536 12.1291 6.01967
O 8.12862 16.3708 6.72284
O 7.11211 14.6462 8.14623
O 10.079 11.2947 8.42836
O 6.90068 16.5338 10.0163
O 8.74056 12.574 10.3523
Si 10.0041 13.3276 5.41032
Si 12.3477 9.04579 5.81226
Si 11.1651 15.3018 9.43991
Si 13.7189 10.8221 8.92661
Si 11.2048 11.3629 7.31678
Si 13.696 15.4245 7.29789
O 10.7979 14.0454 10.2899
O 13.0152 9.75295 9.78673
O 12.6686 11.4386 7.89815
O 14.942 15.7194 8.30316
O 11.2358 9.95662 6.43962
O 14.0699 14.1996 6.39285
O 11.0956 12.5508 6.21491
O 13.0525 16.6366 6.39321
O 12.4012 15.1487 8.33893
O 14.9193 10.4119 7.96583
O 11.7558 16.4989 10.1181
O 14.2889 11.9629 9.90831
Si 0.338483 4.40131 10.6432
Si 2.77722 -0.0135032 11.035
Si 1.07031 6.67139 14.6585
Si 3.67901 2.17423 14.7267
Si 1.15778 2.12765 12.7456
Si 3.69142 6.38754 12.6728
O 0.512127 5.54544 15.5952
O 3.18345 0.983546 15.6049
O 2.22655 2.56744 13.8908
O 5.06067 6.73677 13.811
O 1.77868 0.791463 12.084
O 4.43852 5.1602 11.8064
O 1.11166 3.17771 11.5211
O 3.57853 7.55548 11.63
O 2.32389 6.25206 13.4487
O 4.81781 1.82949 13.4475
O 1.9145 7.54298 15.722
O 4.26868 3.6243 15.3784
Si 5.26285 4.24367 10.7075
Si 7.63517 17.3736 10.9382
Si 6.23494 6.72404 14.8735
Si 8.30474 2.20765 14.8783
Si 6.16603 2.06065 12.7069
Si 8.73974 6.6468 12.9996
O 5.91878 5.57624 15.8415
O 8.24395 0.873901 15.5051
O 7.18641 2.58318 13.8882
O 10.1622 6.70579 13.8491
O 6.80296 0.777413 12.0226
O 8.92168 5.37641 12.1194
O 5.61358 3.02912 11.5435
O 8.72492 7.89276 12.0278
O 7.64571 6.71156 13.992
O 9.67342 1.93542 13.9692
O 6.33499 8.09593 15.6815
O 8.60286 3.5126 15.7415
Si 10.0565 4.42531 11.495
Si 12.389 0.0378082 11.3191
Si 11.491 6.13953 14.6174
Si 13.7129 2.11932 14.6311
Si 10.9752 2.02217 13.1602
Si 13.9436 6.27467 12.5541
O 10.9553 4.7402 15.3305
O 13.7444 0.92261 15.6862
O 12.3827 1.86135 14.0733
O 14.9143 6.94762 13.7194
O 11.1445 1.05501 11.9205
O 14.4689 5.21179 11.5765
O 10.741 3.50539 12.5304
O 13.701 7.59985 11.5683
O 12.5685 5.76845 13.3184
O 14.9025 1.88954 13.5778
O 12.1213 7.14952 15.5999
O 14.0644 3.35651 15.5013
Si 14.8757 12.885 11.214
Si 2.84766 8.86376 10.9043
Si 0.930002 14.9975 14.9232
Si 3.82038 10.7055 14.8725
Si 1.22606 10.6124 13.1203
Si 3.61771 15.2457 13.097
O 0.578917 13.4949 15.5509
O 3.23564 9.71635 16.0993
O 2.49153 10.999 14.0447
O 4.84767 15.491 14.0841
O 2.04001 9.52473 12.021
O 4.00082 13.8301 12.2808
O 0.520967 11.8295 12.2194
O 3.40934 16.4962 12.0851
O 2.19713 15.0151 13.9454
O 4.98493 10.2624 13.883
O 1.32692 16.1967 16.0843
O 4.32425 12.1549 15.6619
Si 5.01395 13.0384 11.4616
Si 8.00663 8.7375 10.9285
Si 6.29243 15.119 14.7617
Si 8.88038 11.0583 14.5978
Si 6.27319 10.7275 13.0908
Si 8.86678 15.2111 12.978
O 5.99388 13.9254 15.8488
O 8.33715 10.0448 15.8227
O 7.66865 11.0749 13.5734
O 9.75073 15.7012 14.2391
O 6.67327 9.48123 11.6306
O 9.6397 13.9575 12.4666
O 5.96412 12.0385 12.2648
O 8.44723 16.2766 11.8219
O 7.33327 14.7038 13.6053
O 10.186 10.7862 13.8468
O 6.53768 16.3908 15.6016
O 9.18506 12.4027 15.3889
Si 10.0906 13.1599 11.2142
Si 12.4606 8.60843 10.8811
Si 11.2743 15.1368 14.9198
Si 13.7874 10.6901 14.6514
Si 11.3852 10.9809 12.8064
Si 13.5923 15.1893 12.8341
O 11.3061 13.8822 15.7561
O 13.0961 9.35126 15.3472
O 12.8285 11.1023 13.4796
O 14.7012 15.4597 14.0893
O 11.7217 9.45593 12.0272
O 13.7434 13.7853 12.0118
O 10.9158 11.9648 11.7433
O 13.2118 16.6146 12.3005
O 12.1744 14.9857 13.6526
O 0.0262041 10.183 13.9432
O 11.8705 16.2931 15.7877
O 13.8154 11.7445 15.7698
324
 Atoms. Timestep: 17500
Si -0.00881161 4.67852 16.6953
Si 2.26064 0.21018 16.3182
Si 1.53572 6.14077 3.97166
Si 3.99182 2.00102 3.62004
Si 1.2432 2.40375 1.84463
Si 3.9013 5.95426 1.79721
O 0.965821 4.96484 4.88225
O 3.62693 0.936439 4.85163
O 2.68383 2.31145 2.82482
O 5.23896 6.60276 2.44159
O 1.52655 1.18632 0.95305
O 4.48171 4.61514 1.06759
O 0.9401 3.95928 1.09764
O 3.42155 7.20168 0.799
O 2.78966 5.66593 2.98649
O 5.21747 1.39805 2.84269
O 1.7214 7.51205 4.96803
O 4.32699 3.47539 4.32761
Si 5.10967 4.00684 16.3139
Si 7.6691 17.0974 0.0685053
Si 6.5837 6.65896 3.43479
Si 8.7376 2.01114 3.54232
Si 6.38087 1.85789 1.86696
Si 9.23505 6.55276 1.64221
O 6.10948 5.44759 4.43536
O 8.02197 0.836545 4.16897
O 7.6356 2.73537 2.50691
O 10.3173 6.88265 2.7399
O 7.07244 0.709506 1.18107
O 9.52911 5.69325 0.370102
O 5.84793 2.67033 0.553837
O 8.87045 8.11576 1.04448
O 7.91871 6.11757 2.4785
O 10.1014 1.68364 2.68043
O 6.71774 8.11913 4.091
O 9.25155 3.13226 4.60765
Si 10.1338 4.29905 16.3439
Si 13.0333 0.0879571 16.376
Si 11.3856 6.70291 3.90766
Si 13.7859 2.54889 3.7425
Si 11.3553 2.16834 1.67391
Si 14.1306 6.72237 2.02206
O 11.0067 5.37348 4.77103
O 13.4634 1.24116 4.61816
O 12.5802 2.85856 2.63918
O 0.415442 6.25673 2.78008
O 12.1202 0.875481 1.103
O 14.0224 5.53381 0.932569
O 11.0146 3.21772 0.599506
O 13.7362 8.12846 1.23919
O 12.8804 6.5279 3.21119
O 0.0611258 2.00292 3.0236
O 11.4824 7.97557 4.94868
O 14.0129 3.75127 4.8298
Si -0.0208611 12.8805 16.4457
Si 2.50489 8.28127 16.5247
Si 1.26434 14.9528 3.54694
Si 4.01814 10.6928 3.3772
Si 1.35758 10.7894 1.76685
Si 3.6687 15.4995 1.75809
O 0.78899 13.874 4.50618
O 3.28935 9.57436 4.31776
O 2.65033 11.1945 2.63395
O 4.83384 15.6291 2.83283
O 1.73773 9.39523 0.986587
O 4.04086 14.1261 0.936999
O 1.02249 11.9459 0.663517
O 3.419 16.6792 0.774183
O 2.3263 14.8498 2.33768
O 5.2523 10.1323 2.56944
O 1.84942 16.2541 4.48759
O 4.35401 11.7377 4.53129
Si 4.7874 13.0844 0.182681
Si 7.57468 8.56167 0.0741085
Si 6.09711 15.2038 3.73591
Si 8.72179 10.7711 3.88304
Si 6.49801 10.829 1.78568
Si 8.90553 15.2238 1.97772
O 5.85583 13.8127 4.49832
O 8.26191 9.75004 5.0336
O 7.48409 11.394 2.93511
O 10.0925 15.5667 2.84156
O 7.00277 9.74228 0.84273
O 9.24404 13.8301 1.3486
O 5.86955 12.1965 1.03894
O 8.81357 16.3504 0.917099
O 7.40465 15.1098 2.76083
O 9.87831 10.2302 2.87995
O 6.32771 16.323 4.75589
O 9.56094 11.8805 4.80044
Si 9.93509 12.9033 0.256642
Si 12.9351 8.58364 16.5548
Si 11.3737 15.1864 3.74266
Si 13.7389 10.9091 3.61371
Si 11.177 10.5965 1.93092
Si 13.85 15.1997 1.72309
O 10.9949 14.0496 4.89303
O 13.2274 9.7803 4.61633
O 12.5026 11.048 2.70333
O 15.0986 15.3682 2.7034
O 11.5553 9.42925 0.836302
O 14.0225 13.7922 0.855093
O 10.7405 11.7951 0.997394
O 13.683 16.3287 0.731588
O 12.6762 15.0605 2.91315
O 0.111185 10.8636 2.71948
O 11.7799 16.4451 4.71974
O 13.8579 12.1378 4.55615
Si 14.8819 4.36607 5.98051
Si 2.53926 -0.117497 5.45448
Si 1.42699 6.59904 9.15599
Si 3.56269 2.52669 9.20641
Si 1.01458 1.88433 7.59588
Si 4.20129 6.74732 7.3435
O 0.644758 5.10995 9.26288
O 3.48365 1.08509 10.1701
O 2.22338 2.51714 8.36093
O 5.59779 7.18688 8.05151
O 1.46666 0.747879 6.49813
O 4.51576 5.75138 6.26824
O 0.36583 3.1549 6.80954
O 3.55105 8.08681 6.44084
O 2.79344 6.38693 8.21166
O 4.94925 2.33999 8.34253
O 1.64665 7.71715 10.2779
O 3.84471 3.75148 10.0185
Si 5.16826 4.43322 5.41816
Si 7.20183 0.0997084 5.36286
Si 6.50159 6.80488 9.22669
Si 8.71994 1.98759 9.17542
Si 6.18665 2.15496 7.31713
Si 8.90893 6.59814 7.1326
O 6.0561 5.42719 10.1384
O 8.04045 0.882127 10.1355
O 7.47014 2.30958 8.18214
O 10.2906 7.09698 7.62115
O 6.37109 1.02117 6.36824
O 8.80162 5.14301 6.3697
O 5.8668 3.40278 6.2384
O 8.00229 7.47422 6.23129
O 8.12455 6.50434 8.55216
O 9.87026 1.57049 8.37953
O 6.97553 7.95282 10.13
O 9.21325 3.19744 10.1611
Si 9.98579 4.28898 5.60965
Si 12.6279 0.158114 5.46173
Si 11.455 6.58496 8.90664
Si 13.5857 1.9731 9.32562
Si 11.1278 1.98222 7.52576
Si 14.052 6.93337 7.34853
O 10.8535 5.34932 9.65125
O 13.0491 0.959248 10.4442
O 12.7033 2.14336 8.0823
O 0.404841 7.25821 8.07513
O 11.6044 0.771672 6.57865
O 14.1441 5.51626 6.62652
O 10.6954 3.37478 6.68273
O 13.511 8.17155 6.63549
O 13.0047 6.67187 8.61744
O 14.8629 1.49058 8.59084
O 11.14 7.96892 9.72514
O 13.8142 3.50206 9.92349
Si 14.9094 12.9847 5.56897
Si 2.61252 8.76545 5.53463
Si 1.43711 15.1175 9.02424
Si 3.63635 10.6502 9.06979
Si 0.93074 10.6616 7.37428
Si 3.84754 15.1613 7.35646
O 0.790987 13.9158 9.96393
O 3.3654 9.19499 9.77144
O 2.65137 10.735 7.90039
O 4.73648 15.3749 8.6938
O 1.42553 9.47927 6.30196
O 4.4656 13.9603 6.48825
O 0.385627 11.8333 6.73837
O 3.40972 16.5655 6.74413
O 2.24078 14.8134 7.7912
O 5.10638 10.7241 8.46845
O 1.7085 16.5672 9.73728
O 3.56659 12.0469 10.2645
Si 5.18459 12.8671 5.5611
Si 7.27066 8.68863 5.50804
Si 6.13428 14.9784 9.29169
Si 8.91382 11.2029 9.48454
Si 6.44102 10.7882 7.54688
Si 8.4677 15.3695 6.93783
O 5.67792 13.5184 9.88612
O 8.31469 10.3504 10.6837
O 7.81565 11.0163 8.34082
O 9.70701 15.5994 8.00404
O 6.33215 9.60198 6.53351
O 8.8341 13.9201 6.19684
O 6.20806 12.1106 6.58641
O 8.20057 16.7596 6.44909
O 7.20207 15.0168 8.06034
O 10.3311 10.677 8.82598
O 6.72555 16.0675 10.3221
O 9.47761 12.4863 10.2611
Si 10.3048 13.0215 5.7296
Si 12.3403 9.09317 5.79786
Si 10.8662 15.5019 9.02319
Si 13.7414 11.0324 9.65583
Si 11.4379 11.2467 7.83209
Si 13.6689 15.4607 6.9864
O 11.0716 14.2233 10.1059
O 12.9651 9.75609 10.1776
O 12.6317 11.5627 8.63203
O 14.9746 15.6327 7.96962
O 11.609 10.0706 6.74148
O 13.861 14.1531 6.25243
O 10.8995 12.4461 7.00134
O 13.8417 16.6948 6.08818
O 12.3659 15.3326 8.05223
O 14.863 10.5808 8.50651
O 11.2023 16.7581 9.86761
O 14.5855 11.8885 10.7695
Si 14.8538 4.52043 10.4071
Si 2.43459 17.4302 10.8032
Si 1.23745 6.62105 14.3518
Si 3.68099 2.31804 14.583
Si 1.24009 2.43998 12.4055
Si 4.05962 6.64942 13.199
O 0.766149 5.3322 15.3532
O 2.98498 1.07212 15.2253
O 2.68089 2.57757 13.2806
O 5.41673 6.84917 14.0048
O 1.29445 0.919695 11.6493
O 4.33917 5.50326 12.0287
O 0.813899 3.70024 11.4157
O 3.48906 7.90929 12.3186
O 2.77204 6.20329 14.0148
O 5.08405 1.88617 14.2012
O 1.37509 7.60171 15.696
O 3.76592 3.62912 15.4163
Si 4.97715 4.4252 10.9925
Si 7.48355 17.1733 11.1002
Si 6.71264 6.13128 14.8034
Si 8.64431 2.25517 14.8569
Si 6.12276 2.03884 12.8894
Si 9.05864 6.56333 12.9745
O 6.17295 4.866 15.5583
O 8.38248 0.80739 15.7821
O 7.4535 2.29173 13.7029
O 10.5018 7.10917 13.8107
O 6.50864 0.679827 12.0372
O 9.48694 5.56812 11.6852
O 5.51436 3.12148 11.9389
O 8.25513 7.86181 12.5163
O 8.11357 5.94162 14.0315
O 10.0871 2.42994 14.2288
O 6.85638 7.26545 15.9606
O 8.86902 3.41267 15.8424
Si 10.1387 4.48537 10.7725
Si 12.1033 -0.0966868 11.0741
Si 11.542 6.49252 14.7826
Si 13.8435 2.46143 14.659
Si 11.1825 2.36139 13.0923
Si 13.7259 6.63794 12.5929
O 11.1834 4.95975 15.2479
O 13.7127 1.09214 15.4923
O 12.5156 2.67091 13.8579
O 0.161754 6.88025 13.3369
O 11.3915 1.0119 12.2904
O 14.2178 5.63237 11.3732
O 11.0082 3.70616 11.9345
O 12.8333 7.4956 11.6758
O 12.8554 6.49928 13.7851
O -0.00416089 2.37929 13.4425
O 12.1662 7.27497 16.0856
O 14.3814 3.66443 15.5928
Si 0.145778 13.1651 11.2359
Si 2.52955 8.82233 11.1797
Si 0.843035 15.1951 14.6242
Si 3.71248 10.7447 14.9304
Si 1.48441 11.1482 12.8762
Si 3.67154 15.3012 12.7953
O 0.704385 13.7882 15.3567
O 3.52283 9.13222 15.5011
O 2.60316 11.1682 13.9698
O 4.96227 15.4993 13.6798
O 1.93904 9.99188 11.9316
O 4.17848 14.1294 11.9416
O 1.3206 12.4786 12.097
O 3.26998 16.3034 11.7135
O 2.23604 15.1989 13.7355
O 5.09858 10.9337 14.1831
O 1.45651 16.2907 15.6084
O 3.8368 11.8913 16.1468
Si 4.6898 12.8398 11.0203
Si 7.60597 8.96437 11.373
Si 6.14711 15.2163 14.6784
Si 8.67662 10.8913 14.5234
Si 6.05362 10.9903 13.0377
Si 8.87003 15.4587 13.0626
O 5.64213 13.8448 15.3526
O 8.34141 9.30853 15.3944
O 7.44773 11.3416 13.6373
O 10.1794 15.5921 14.0849
O 6.24172 9.623 12.1954
O 9.54445 14.3027 12.0744
O 5.37066 11.9795 12.1422
O 8.71839 16.6212 12.1334
O 7.49635 14.8533 13.8219
O 10.0135 10.8144 13.6767
O 6.79443 16.1096 15.8138
O 9.08934 12.1282 15.6284
Si 10.3724 13.3804 11.1727
Si 11.963 8.60977 11.0065
Si 11.4079 15.1367 14.9273
Si 13.985 10.5824 14.5361
Si 11.201 10.896 12.7524
Si 13.7046 15.2675 13.0101
O 10.7879 14.1326 16.0204
O 13.7545 9.38075 15.617
O 12.5939 10.7045 13.6617
O 14.4994 15.8723 14.1391
O 11.096 9.5954 11.899
O 14.7491 14.3269 12.2215
O 11.4376 12.2301 11.8112
O 12.9184 16.1637 11.8442
O 12.4718 14.514 13.8704
O 0.214709 10.7327 13.6007
O 11.9833 16.5659 15.5641
O 14.1858 11.8554 15.5055
324
 Atoms. Timestep: 18000
Si 15.0064 4.28074 16.4592
Si 2.31858 0.022311 0.0372806
Si 1.39037 6.59267 3.73638
Si 3.63794 2.3635 3.83214
Si 1.2826 2.37702 1.96195
Si 3.70767 6.33234 1.57509
O 1.12421 5.08134 4.44425
O 3.302 1.12693 4.60303
O 2.44672 2.68924 2.76378
O 5.04457 7.04219 1.97628
O 1.47036 1.04782 1.05434
O 4.00167 4.98566 0.823978
O 0.910782 3.49786 0.815464
O 3.09379 7.26115 0.432081
O 2.76685 6.42346 2.86251
O 4.77423 1.94464 2.7827
O 1.80317 7.44025 4.86065
O 4.40544 3.53038 4.64825
Si 4.97423 4.42861 16.2293
Si 7.52861 17.3197 16.3398
Si 5.99632 6.92314 3.25186
Si 8.71115 2.25749 3.5607
Si 5.97318 2.13393 1.71652
Si 8.91573 6.80151 2.02406
O 5.75106 5.4764 3.87322
O 8.44042 1.11457 4.60523
O 7.33676 2.27167 2.6133
O 10.0678 6.89289 2.93464
O 6.26048 0.792271 0.637285
O 8.92009 5.3684 1.26039
O 5.82448 3.41315 0.588102
O 9.08193 8.02422 0.979464
O 7.48174 7.10662 2.75681
O 9.95803 2.11537 2.753
O 5.98497 7.84278 4.5432
O 8.9847 3.49582 4.40258
Si 9.5698 4.47954 0.195272
Si 12.2367 17.2664 0.216468
Si 11.3683 6.51483 3.89113
Si 13.6724 2.45005 3.76987
Si 11.0722 2.2126 1.73903
Si 13.97 6.53112 2.02383
O 10.688 5.31373 4.73914
O 13.4742 1.1888 4.64309
O 12.5468 2.4893 2.59202
O 0.136832 6.84697 2.85549
O 11.2875 0.941151 0.940857
O 14.1891 5.34592 0.987831
O 10.6612 3.44151 0.747311
O 13.503 7.89069 1.0196
O 12.7488 6.05904 3.1156
O 15.0861 2.4113 2.91786
O 11.9413 7.54258 5.08355
O 14.0356 3.68378 4.69144
Si 0.0709781 13.2097 16.3705
Si 2.35184 8.67624 0.0454115
Si 1.46702 15.1157 3.80322
Si 3.97793 10.7693 3.51045
Si 1.48468 11.0387 1.84641
Si 3.89552 15.3604 1.85663
O 1.28876 13.9733 5.01533
O 3.20995 9.48722 4.05983
O 2.93258 11.464 2.37055
O 4.93603 15.6878 2.90668
O 1.75541 9.71903 1.16532
O 4.26649 14.2132 0.898579
O 0.813042 12.3469 0.948082
O 3.26952 16.5624 0.918599
O 2.73383 14.7828 2.99919
O 5.19884 10.5698 2.60455
O 1.49846 16.6418 4.43416
O 4.42916 12.0215 4.70814
Si 4.98449 12.9203 0.217351
Si 8.05254 8.65956 16.5521
Si 6.22743 15.3889 3.93708
Si 9.21942 10.4022 3.63119
Si 6.58916 10.6235 1.73418
Si 8.69049 15.4061 1.84374
O 5.82423 14.2068 4.861
O 8.58489 9.2176 4.52436
O 8.07784 10.7781 2.47861
O 10.2137 15.2102 2.7648
O 6.80632 9.26415 0.948555
O 8.8246 14.1266 0.936753
O 6.09607 12.0177 0.950013
O 8.2982 16.4896 0.860815
O 7.4938 15.4658 2.90112
O 10.5681 10.4092 3.07012
O 6.68425 16.6789 4.92757
O 9.19445 11.724 4.8578
Si 9.68692 12.9843 0.32519
Si 12.6203 8.74436 0.0319616
Si 11.487 14.8197 3.6302
Si 13.9078 11.0465 3.62919
Si 11.4951 10.778 1.66505
Si 13.9003 15.1342 1.95795
O 11.0873 13.4109 4.29944
O 13.4102 9.7082 4.27708
O 13.0326 11.1073 2.33125
O 0.157441 15.2607 2.88061
O 11.616 9.61729 0.788724
O 14.1641 14.17 0.693062
O 10.7468 12.1489 1.15306
O 13.2929 16.3396 1.27044
O 12.8232 14.638 2.87745
O 0.371911 10.8569 3.2093
O 11.8552 16.3093 4.49877
O 14.1628 12.1764 5.04422
Si 0.19502 4.42032 5.40842
Si 2.52019 0.0312536 5.32441
Si 1.33913 6.03525 9.53156
Si 3.895 2.28218 9.12576
Si 1.43542 2.05593 7.28221
Si 3.58058 6.68459 7.40955
O 1.06195 4.65015 10.3638
O 3.44483 1.0489 9.89784
O 2.62015 2.6934 8.23659
O 4.76171 6.74587 8.48903
O 1.97873 0.760474 6.58987
O 4.01789 5.86333 6.12604
O 0.843393 3.06381 6.07573
O 3.08044 8.22439 6.84642
O 2.31513 6.21516 8.28367
O 5.19316 2.10804 8.16746
O 1.92036 7.30936 10.4014
O 4.15031 3.28534 10.3216
Si 5.02378 4.8541 5.15204
Si 7.50852 0.330029 5.48332
Si 6.10712 6.61049 9.37212
Si 8.83886 2.22815 9.30681
Si 6.43291 2.84951 7.08506
Si 8.70004 6.55885 7.51529
O 5.79996 5.14523 10.1162
O 8.51288 0.682314 9.98282
O 7.7905 2.78386 8.11655
O 10.0836 7.18043 8.13012
O 6.60054 1.6886 6.04634
O 9.11709 4.9742 6.77428
O 5.9545 4.22747 6.37565
O 8.06305 7.27754 6.26883
O 7.44396 6.26755 8.70022
O 10.2104 1.76326 8.49084
O 6.17407 7.89157 10.4486
O 9.07145 3.39644 10.3925
Si 9.90125 4.264 5.52923
Si 12.7394 -0.0507756 5.42415
Si 11.35 6.61294 8.99676
Si 13.8638 1.87011 9.20986
Si 11.1877 1.94508 7.2941
Si 14.2319 6.76112 7.6295
O 10.8857 5.17141 9.57989
O 13.7616 0.541539 9.99773
O 12.5684 2.12153 8.36948
O 14.9294 6.70692 8.99762
O 11.4296 0.562911 6.44346
O 14.818 5.5165 6.61587
O 10.7576 3.11251 6.29892
O 14.0186 7.93889 6.55866
O 12.6426 6.41638 8.10283
O 0.128677 2.00773 8.27687
O 11.9059 7.745 10.0416
O 13.9784 3.16191 10.2357
Si 0.0465316 13.2169 5.7554
Si 2.42762 8.78558 5.50002
Si 1.38926 15.3509 9.47098
Si 3.65847 10.8477 9.12494
Si 1.24016 10.8781 7.24777
Si 3.63252 15.2131 7.18973
O 0.988821 14.0475 10.4059
O 3.17693 9.60318 10.1402
O 2.5691 11.3102 8.2471
O 4.90928 15.6342 8.14139
O 1.44596 9.94841 6.00229
O 4.20457 13.8917 6.68056
O 0.469824 12.2515 6.97616
O 3.41183 16.2997 6.11053
O 2.53263 15.1422 8.345
O 5.01583 10.5563 8.28386
O 1.55135 16.7477 9.99053
O 3.91207 11.9812 10.1118
Si 5.19345 13.1055 5.67266
Si 7.36162 8.42328 5.34315
Si 6.12658 14.9975 9.04499
Si 8.73172 10.5074 9.16266
Si 6.41113 10.5469 7.10491
Si 8.67021 15.5452 7.42247
O 5.7899 13.7808 10.0192
O 8.01862 9.32099 10.12
O 7.6258 11.0538 8.10196
O 10.169 15.8386 8.10259
O 6.69812 9.34073 6.25095
O 9.09521 14.3974 6.21221
O 6.08834 12.0279 6.33871
O 8.20771 16.9584 6.71324
O 7.48598 14.8768 8.30708
O 9.97204 10.4368 8.11495
O 6.5937 16.3173 10.0435
O 9.26641 11.6212 10.264
Si 9.95616 13.0193 5.53189
Si 12.9394 8.66605 5.69517
Si 11.3354 15.1957 8.94842
Si 14.0343 10.879 9.1353
Si 11.273 10.7592 7.37996
Si 14.0499 15.366 7.44452
O 10.6616 13.8249 9.59166
O 13.6175 9.7133 10.3009
O 12.5486 10.9827 8.26444
O -0.0162165 15.2776 8.61611
O 11.9801 9.64969 6.49533
O 14.3779 14.346 6.182
O 10.7536 12.119 6.57387
O 13.5373 16.7953 6.57961
O 12.6449 14.929 8.22722
O 0.164024 10.233 8.33857
O 11.5628 16.3306 10.1415
O 14.6731 12.0141 9.98468
Si 14.738 4.05607 11.2794
Si 2.26143 0.364707 10.7932
Si 1.09701 6.73396 14.6725
Si 3.88366 1.9505 14.5504
Si 1.135 2.1491 13.0674
Si 3.93577 6.68549 13.2498
O 0.66008 5.48101 15.5596
O 3.33452 0.988433 15.9843
O 2.50985 2.05087 13.7746
O 5.31845 7.13253 13.8139
O 1.3631 1.46793 11.6433
O 4.09012 5.3287 12.1512
O 0.347067 3.54146 12.7077
O 3.33806 7.88723 12.3348
O 2.57597 6.3947 14.0258
O 5.28594 1.25047 14.0322
O 1.22522 8.15559 15.6597
O 4.23135 3.5387 15.0276
Si 4.89377 4.41509 11.2986
Si 7.43235 17.4991 10.7977
Si 6.66376 6.55334 14.7022
Si 8.82975 2.3233 14.6625
Si 6.24305 2.08354 12.8492
Si 8.82106 6.48359 13.0443
O 5.8918 5.57114 15.6354
O 8.3125 0.94283 15.5437
O 7.6648 2.38223 13.609
O 10.0889 6.92618 13.8341
O 6.60135 1.01345 11.7369
O 9.36308 5.61594 11.6148
O 5.75611 3.46058 12.2017
O 8.05071 7.72853 12.3115
O 7.62763 5.69529 13.7581
O 10.0772 2.13824 13.6105
O 7.37651 7.6073 15.5365
O 8.71741 3.48603 15.7788
Si 10.0548 4.50842 10.7487
Si 12.6531 17.2218 10.8271
Si 11.5251 6.5478 14.4736
Si 13.7271 1.96191 14.7468
Si 11.528 2.47921 12.6855
Si 13.8256 6.35079 12.7477
O 10.6377 5.14983 15.664
O 13.2285 0.72495 15.7249
O 12.4479 2.34912 13.8395
O 0.141309 6.83539 13.4806
O 12.0553 1.29372 11.7175
O 14.0823 5.3853 11.6862
O 11.1147 3.68716 11.6051
O 13.1691 7.81497 12.2493
O 12.7149 5.87855 13.774
O 15.016 1.51312 13.9402
O 11.9742 7.73071 15.3502
O 14.1487 3.27062 15.4657
Si 0.193932 12.9115 11.1748
Si 2.54388 8.6259 11.1787
Si 1.22816 15.333 14.5875
Si 4.03704 10.7334 15.0294
Si 1.31747 10.6589 13.1736
Si 3.72462 15.4418 12.6293
O 1.03261 14.0225 15.4093
O 3.62279 9.40202 15.8926
O 2.79738 10.7059 13.9793
O 5.03391 15.6721 13.5806
O 1.38961 9.49161 11.9581
O 3.80607 14.188 11.5174
O 1.05149 12.059 12.5056
O 3.12669 16.7999 11.9033
O 2.3586 15.0241 13.7237
O 5.37418 10.6178 14.1834
O 1.45169 16.6386 15.6129
O 4.00481 12.0037 15.8936
Si 4.75124 12.959 10.9749
Si 7.16526 8.76481 11.2967
Si 6.39791 15.0245 14.3452
Si 8.82554 11.1152 14.8311
Si 6.17132 11.304 13.0366
Si 8.7872 15.2614 12.561
O 5.95982 13.812 15.2223
O 8.5624 9.78895 15.4861
O 7.53884 11.5345 13.7986
O 10.1416 15.2882 13.6434
O 6.41322 10.095 11.8122
O 9.11778 14.054 11.6312
O 5.55631 12.3896 12.1864
O 8.60671 16.6182 12.1396
O 7.50245 14.7264 13.2954
O 10.0904 10.8446 13.7828
O 7.05007 16.0688 15.4452
O 8.93114 12.012 15.932
Si 9.97217 12.8955 10.8067
Si 12.6047 8.74398 11.0475
Si 11.071 15.0882 14.913
Si 13.7594 10.9693 14.7635
Si 11.2927 10.8822 12.8101
Si 13.683 14.9232 12.925
O 10.7601 13.7257 15.9051
O 13.5537 9.72332 15.8729
O 12.7012 11.2729 13.588
O 14.8383 15.5077 13.75
O 11.6799 9.47685 12.1813
O 14.3499 13.7274 12.2066
O 11.177 12.1606 11.8779
O 13.2323 16.1251 11.837
O 12.5877 14.8408 14.1275
O 0.217395 10.431 14.3133
O 11.2854 16.295 16.0872
O 14.1732 12.2671 15.6562
324
 Atoms. Timestep: 18500
Si 15.0726 4.11368 16.3815
Si 2.70621 17.0803 0.284864
Si 0.833705 6.63085 3.59688
Si 3.6287 1.87303 3.74371
Si 1.07315 1.85303 1.94541
Si 3.35229 6.66936 1.85388
O 0.195866 5.5199 4.45296
O 3.66573 0.423596 4.51115
O 2.17914 2.28647 3.18734
O 4.61566 7.24989 3.03857
O 1.85598 0.605591 1.25245
O 4.16912 5.79786 0.756502
O 0.565232 2.95568 0.795686
O 3.02508 7.80623 0.807583
O 2.15142 5.97727 2.74258
O 4.83406 1.70292 2.6935
O 1.43877 7.92962 4.32213
O 3.98584 3.14785 4.73457
Si 4.82874 4.55095 0.161462
Si 7.55758 0.16837 0.1196
Si 5.98805 6.56584 3.74865
Si 8.67828 2.36416 3.9765
Si 6.13896 2.31057 1.95861
Si 8.84691 6.27912 1.77274
O 5.54847 5.27661 4.68852
O 8.46821 1.02555 4.88804
O 7.28112 2.78822 3.25681
O 9.83073 7.29574 2.65019
O 6.76848 1.06962 1.16693
O 9.24759 5.2094 0.720338
O 5.78423 3.76707 1.27494
O 8.38461 7.38287 0.818842
O 7.3125 6.24929 2.65853
O 9.80528 2.28938 2.67163
O 6.58426 7.78242 4.61429
O 9.23042 3.72974 4.57968
Si 10.2297 4.42613 16.2116
Si 12.2814 0.0372432 0.0912818
Si 11.1956 6.91744 3.4995
Si 13.6777 1.87099 3.62432
Si 11.3983 2.43835 1.73756
Si 13.4999 6.46848 1.4493
O 11.1257 5.60765 4.64226
O 13.2098 0.542738 4.4454
O 12.4707 2.35137 2.7952
O 14.7496 6.88732 2.26647
O 11.5221 1.05004 0.971787
O 13.9325 5.25994 0.581694
O 11.1373 3.46554 0.682085
O 12.9962 7.65236 0.405627
O 12.2343 6.1493 2.43462
O 14.8617 1.32389 2.64861
O 12.1456 7.87131 4.1997
O 14.1731 3.08547 4.47779
Si 0.183225 13.0536 0.0939451
Si 2.14153 8.86792 16.3872
Si 1.2798 15.1132 3.59924
Si 4.05533 10.8578 3.52908
Si 1.22365 10.8962 1.77766
Si 4.03981 15.1785 1.9268
O 0.797435 13.7994 4.2878
O 3.53335 9.71682 4.61605
O 2.78311 10.6844 2.44475
O 5.32218 15.3367 2.97928
O 1.31968 9.96159 0.544522
O 4.41421 13.9131 1.09624
O 1.33244 12.2852 1.18175
O 3.66263 16.3954 1.24871
O 2.55864 15.0052 2.63907
O 5.33168 10.7897 2.64777
O 1.43372 16.2564 4.95504
O 4.34573 12.1602 4.5671
Si 5.27873 13.034 16.4181
Si 7.75594 8.56754 16.5264
Si 6.34723 15.4409 4.12552
Si 8.81995 10.8913 3.65973
Si 6.49277 11.1267 1.66977
Si 8.9056 15.3849 2.15074
O 6.05946 14.2866 5.00706
O 8.2056 9.64873 4.57376
O 7.90407 11.3798 2.47073
O 10.1777 15.8391 3.01359
O 6.9976 9.80718 0.868686
O 9.47438 14.1033 1.36902
O 6.22845 12.058 0.426479
O 8.43819 16.5902 1.26067
O 7.73858 15.101 3.25463
O 10.3162 10.5873 3.22077
O 6.42582 16.8929 4.93772
O 8.86048 12.2019 4.69477
Si 10.0835 13.0403 0.358084
Si 12.4681 8.90913 16.2276
Si 11.1527 15.0341 3.67163
Si 14.0581 10.8534 4.03357
Si 11.4579 10.9346 2.07535
Si 13.7289 15.2182 1.77322
O 10.55 13.6483 4.17397
O 14.1185 9.42034 4.6177
O 12.8124 10.8712 2.94544
O 15.0643 15.5308 2.64428
O 11.672 9.8209 1.04522
O 14.3714 13.9262 0.919173
O 11.1863 12.1507 1.08352
O 13.0337 16.4695 0.978579
O 12.4409 14.9764 2.767
O 0.220404 10.9092 2.86502
O 11.7331 15.8038 5.08618
O 14.2828 12.0012 5.11804
Si 14.8208 4.3333 5.34706
Si 2.60073 17.385 5.64663
Si 0.988672 6.2652 9.25813
Si 3.78292 2.26722 9.10335
Si 1.18204 2.33919 7.19431
Si 3.39952 6.50357 7.3271
O 0.642824 5.06399 10.1151
O 2.98548 1.02128 9.80256
O 2.82318 2.60083 7.80041
O 4.91921 6.82648 7.93203
O 1.59064 1.10802 6.1506
O 3.7332 5.44111 6.2325
O 0.688958 3.63049 6.44028
O 2.86773 7.80191 6.32476
O 2.43554 5.99469 8.50658
O 5.2556 2.21981 8.62066
O 1.28371 7.55564 10.2564
O 3.83586 3.64162 10.0544
Si 4.72167 4.31953 5.74622
Si 7.5693 0.25405 5.8814
Si 6.00707 6.43157 9.02482
Si 8.95171 2.24675 9.11191
Si 6.37776 2.45157 7.60483
Si 8.63535 6.36825 7.58697
O 5.46825 5.30961 9.9618
O 8.5232 1.01912 9.96661
O 7.67594 2.95806 8.43202
O 9.59946 6.26933 8.85273
O 7.08291 1.33809 6.96467
O 9.21324 5.43121 6.44182
O 5.51574 3.62096 6.85666
O 8.40748 7.67722 6.6989
O 7.20763 5.88961 8.20939
O 10.0196 2.01073 8.0628
O 6.55483 7.74379 9.91279
O 9.5558 3.36994 10.134
Si 10.0951 4.5078 5.5785
Si 12.493 17.2022 5.55543
Si 11.1926 6.36489 9.39224
Si 13.8085 1.77118 9.17397
Si 11.5032 2.13683 7.13088
Si 13.4934 6.08632 7.35561
O 11.4086 5.19314 10.5136
O 13.3479 0.407008 9.88893
O 12.5686 2.20633 8.3487
O 14.9495 6.37744 8.0969
O 11.6035 0.966718 6.21812
O 13.8246 4.93477 6.45536
O 11.0782 3.49752 6.34717
O 13.2555 7.38345 6.35443
O 12.2142 6.1648 8.26412
O 15.0867 1.97484 8.08194
O 11.3379 7.75067 10.337
O 14.1695 2.9483 10.2343
Si 0.152273 13.3389 5.5915
Si 2.29728 8.88465 5.49764
Si 1.29947 15.1534 9.25872
Si 3.66566 10.9102 9.30427
Si 1.2725 11.2769 7.39307
Si 3.72099 15.1879 7.42538
O 0.56676 13.7867 9.5855
O 3.22145 9.49566 9.83192
O 2.3387 11.4637 8.34849
O 5.11763 15.38 8.32773
O 1.83974 9.96848 6.54119
O 3.89954 14.2149 6.23234
O 1.24443 12.5059 6.46065
O 3.28333 16.5647 6.94281
O 2.52831 14.6166 8.38523
O 5.1231 10.8324 8.30664
O 1.67401 16.2067 10.4295
O 4.15561 11.8565 10.3608
Si 4.98816 13.2629 5.69636
Si 7.42173 8.7585 5.63074
Si 6.35666 15.1398 9.15247
Si 8.89845 10.9052 8.98905
Si 6.42334 11.0201 7.41633
Si 8.98859 15.3195 7.50441
O 6.0199 13.7767 10.0196
O 8.55391 9.51134 9.59478
O 7.54106 11.5942 8.52034
O 10.2901 15.571 8.31478
O 6.68883 9.68067 6.63663
O 9.38381 14.1177 6.58774
O 5.91294 12.3634 6.66734
O 8.13481 16.2482 6.56673
O 7.7617 14.7434 8.44109
O 9.80916 10.7571 7.6728
O 6.51978 16.688 10.0272
O 9.60833 11.4112 10.4669
Si 9.79544 13.1056 5.4998
Si 13.0476 8.49465 5.45355
Si 11.4853 14.8104 9.1024
Si 13.6643 10.7325 9.14939
Si 11.437 10.9183 6.94316
Si 14.3213 15.7394 7.57361
O 10.7746 13.5109 9.64978
O 13.411 9.29736 9.81242
O 12.2889 11.0682 8.28643
O 0.569954 16.0454 8.24954
O 12.1217 9.67429 6.05306
O 14.663 14.7074 6.39959
O 11.009 12.2879 6.21999
O 13.5689 16.8888 6.66745
O 13.0351 15.1479 8.44356
O 14.8801 10.7238 8.16061
O 11.712 15.946 10.2139
O 13.8824 11.8376 10.2594
Si 14.9929 4.0323 11.1454
Si 2.66049 17.3011 10.8595
Si 1.05534 6.51942 14.7747
Si 3.86753 1.96938 15.0687
Si 1.36885 2.11509 13.1632
Si 3.54025 6.45618 12.9264
O 0.899411 5.27126 15.7641
O 3.43207 0.721677 15.7522
O 2.54234 2.31527 14.2114
O 4.98414 6.40395 13.9237
O 1.98795 0.829554 12.1304
O 3.83738 5.18808 12.1357
O 0.851771 3.1521 12.0653
O 3.15596 7.86356 12.2289
O 2.28588 6.24108 13.9637
O 5.13767 1.89679 14.0532
O 1.065 7.81703 15.6159
O 4.04469 3.19567 16.0953
Si 4.72649 4.27727 11.0331
Si 7.40008 0.313063 10.7836
Si 6.25992 6.38646 14.7475
Si 8.92366 2.00343 14.807
Si 6.32219 2.26405 12.8866
Si 8.70232 6.55507 12.821
O 5.92102 5.24675 15.7928
O 8.64831 1.09555 16.0205
O 7.49034 2.24591 13.8912
O 9.96982 7.11015 13.8342
O 6.66877 1.18121 11.8499
O 9.38611 5.25863 12.1548
O 5.88481 3.34574 11.9082
O 8.17525 7.67113 11.906
O 7.47727 6.08642 13.7932
O 9.89883 1.23441 13.9156
O 6.95642 7.722 15.5225
O 9.43499 3.33089 15.3027
Si 10.1669 4.11715 11.3481
Si 12.3639 17.1807 10.8955
Si 11.1508 6.86623 14.8156
Si 13.9323 2.00065 14.7244
Si 11.2806 1.67618 12.8641
Si 13.5964 6.40201 12.8725
O 10.7792 5.6886 15.7471
O 13.3043 1.2424 15.9995
O 12.6965 1.95524 13.6622
O 14.8727 6.62837 13.7053
O 11.3174 0.753431 11.705
O 13.8503 4.98589 12.0458
O 11.0148 3.14788 12.3594
O 13.3592 7.51337 11.8375
O 12.4794 6.59063 14.1161
O 0.0621472 1.36532 13.8691
O 11.2475 8.38648 15.2438
O 14.545 3.39552 15.1671
Si 14.8364 13.0025 10.7914
Si 2.41163 8.50945 10.9381
Si 1.39951 15.2767 14.5466
Si 3.81116 10.9996 14.3321
Si 1.44793 10.9346 12.6094
Si 4.19935 15.6587 12.7642
O 1.14309 13.9522 15.4073
O 3.09595 9.76804 15.2391
O 2.88436 11.5663 13.1275
O 5.03858 15.4317 13.9682
O 1.62546 9.78899 11.6728
O 4.20812 14.1854 11.9746
O 0.751899 12.1816 11.7064
O 4.12341 16.7432 11.6153
O 2.65531 15.6267 13.5443
O 5.09132 10.5563 13.3212
O 1.76128 16.2283 15.9113
O 4.47109 12.1702 15.303
Si 5.04717 13.0297 11.0802
Si 7.58269 8.65435 10.7625
Si 6.44424 15.4041 14.7336
Si 9.0447 11.1615 14.754
Si 6.58706 11.0094 12.7393
Si 8.88413 15.1637 12.5902
O 6.09201 14.3426 15.7496
O 8.57845 9.54629 15.5579
O 7.83446 11.2251 13.6297
O 10.1928 15.1546 13.6991
O 7.00476 9.87699 11.6248
O 9.12655 13.8085 11.7391
O 5.99687 12.4165 12.1008
O 8.39785 16.472 11.8453
O 7.62334 15.0816 13.6601
O 10.5515 11.059 13.8258
O 6.95431 16.5849 15.5772
O 9.17812 12.1042 16.0141
Si 10.1768 12.7706 11.0411
Si 12.5856 8.67386 11.11
Si 11.2764 15.2354 14.7166
Si 14.3171 11.0554 14.6291
Si 11.7798 11.2682 12.8927
Si 14.0202 15.3254 12.8699
O 10.9195 13.9666 15.7331
O 13.4106 9.9892 15.4914
O 13.1351 11.5617 13.5779
O 0.194327 15.6831 13.7084
O 11.9678 9.95325 11.8959
O 14.2357 14.2706 11.6425
O 11.4158 12.651 11.831
O 13.3315 16.5897 12.0456
O 12.7499 15.1237 13.9576
O 0.316247 10.6441 13.6936
O 11.4806 16.6182 15.5514
O 14.5564 12.0772 15.7274
324
 Atoms. Timestep: 19000
Si 0.0232099 4.21301 0.032237
Si 2.97261 -0.0283167 16.2921
Si 0.801639 6.71525 3.66365
Si 3.48752 1.87212 3.87203
Si 1.15575 2.11699 1.78747
Si 3.70955 6.89755 2.20702
O 0.817964 5.41567 4.43234
O 3.19143 0.566408 4.73911
O 2.17075 2.23071 2.90871
O 4.62382 6.99229 3.40168
O 1.84993 1.02856 0.65604
O 4.20403 5.5783 1.36075
O 1.23137 3.44149 0.908628
O 3.83179 7.93202 0.97884
O 2.09088 6.82779 2.74344
O 4.87227 2.07154 2.83248
O 1.14426 7.99641 4.42376
O 3.78524 3.31734 4.56867
Si 5.05391 4.67762 0.194833
Si 7.75602 0.374036 0.230812
Si 5.99713 6.49522 3.88344
Si 8.70187 2.33103 3.76419
Si 6.14567 2.47236 2.03502
Si 8.29553 6.24629 1.72107
O 5.5997 5.16228 4.58914
O 8.55258 1.11387 4.8574
O 7.32698 2.52324 3.12092
O 9.5297 6.74301 2.57101
O 6.84888 1.26153 1.19054
O 9.00241 4.89575 1.15389
O 5.86223 3.66236 1.21009
O 7.87455 7.22973 0.537876
O 7.11651 6.18706 2.7532
O 9.75087 1.81786 2.70811
O 6.5407 7.69772 4.80729
O 9.14126 3.6578 4.47026
Si 9.98065 4.52985 0.0366138
Si 12.6769 0.362417 16.412
Si 10.8887 6.65477 3.20479
Si 13.6367 2.08007 3.58107
Si 11.1114 2.18202 1.8763
Si 13.4996 6.18677 1.65353
O 10.8321 5.59344 4.41079
O 13.3876 0.933097 4.70994
O 12.2223 2.01829 3.01267
O 14.3892 6.92915 2.91408
O 11.5916 1.2811 0.580002
O 14.3192 5.02263 1.21117
O 10.6812 3.43894 0.968904
O 13.3453 7.61899 0.838147
O 11.9799 5.88029 2.12232
O 14.8796 1.837 2.39802
O 11.4262 7.9637 4.03083
O 14.2337 3.51754 4.12356
Si 0.12385 13.312 0.0396792
Si 2.86735 8.76643 16.5806
Si 1.65792 15.1911 3.62931
Si 3.86761 10.6947 3.86277
Si 1.48213 11.0627 1.97982
Si 4.23917 15.3486 1.74079
O 0.791683 13.8108 4.20154
O 3.12687 9.58891 4.78068
O 2.73029 11.5816 2.96451
O 5.63722 15.6968 2.3932
O 2.03297 9.6749 1.04514
O 4.5297 13.8844 1.12447
O 1.04089 12.2959 0.940187
O 3.74395 16.338 0.738926
O 3.07765 15.4914 3.13447
O 5.05784 10.1441 2.84911
O 1.59917 15.9326 5.11602
O 4.46613 11.9463 4.7526
Si 5.37614 12.8814 0.0914344
Si 7.19263 8.58645 16.355
Si 6.73691 15.2078 3.45426
Si 8.82959 10.7144 3.50119
Si 6.2788 10.4806 1.94845
Si 9.10948 15.5327 1.62996
O 6.07006 14.0529 4.65249
O 8.33111 9.37047 4.39852
O 7.51711 11.2088 2.83457
O 10.6637 15.454 2.40871
O 6.58497 9.25042 1.13498
O 9.12937 14.1783 0.630152
O 5.8936 11.6387 0.866867
O 8.63526 16.702 0.826495
O 8.2072 15.004 2.83702
O 9.98498 10.5811 2.4834
O 6.71886 16.6536 4.38945
O 9.12979 12.0857 4.47239
Si 10.1381 13.2342 0.0492439
Si 12.6805 8.70252 16.3895
Si 11.5865 14.9974 3.67655
Si 13.9583 10.8702 3.6701
Si 11.4945 11.0803 1.73827
Si 14.0247 15.4769 2.01362
O 10.9691 13.8295 4.47674
O 13.4573 9.51636 4.46703
O 12.5632 11.2558 2.97528
O 0.44936 15.6804 2.58681
O 12.2045 9.95097 0.905314
O 14.2544 14.2675 0.941566
O 11.0464 12.3792 0.998374
O 13.1567 16.739 1.16286
O 13.1326 14.9393 3.15973
O 0.0143563 10.7451 2.70796
O 11.5416 16.5269 4.50285
O 14.3552 11.7172 5.04741
Si 14.9816 4.46026 5.1834
Si 2.1898 17.2559 5.84545
Si 0.617187 6.73204 8.82237
Si 3.58125 1.63865 9.11923
Si 1.09279 2.39366 7.31606
Si 3.26974 6.29565 7.26128
O 0.159902 5.50687 9.85276
O 3.50886 0.543738 10.2156
O 2.16649 2.2994 8.52949
O 4.21315 6.81938 8.3811
O 1.25404 0.947223 6.40659
O 3.85196 4.88457 6.53567
O 0.733939 3.45173 6.08448
O 2.92528 7.31255 6.13173
O 1.88086 5.92038 8.02428
O 4.73121 1.67755 8.06133
O 1.49004 7.73263 9.86231
O 4.06591 3.06052 9.96422
Si 4.84615 4.13812 5.6126
Si 7.80365 17.3124 5.36717
Si 5.71258 6.46911 9.0904
Si 8.7331 2.11324 9.38909
Si 6.18804 1.92691 7.33013
Si 8.49318 6.58684 7.46792
O 5.7124 4.94451 9.59565
O 8.4217 0.765313 10.2494
O 7.24143 2.27161 8.56667
O 9.59597 7.03223 8.60886
O 6.78004 0.615329 6.52156
O 9.04766 5.60026 6.32541
O 5.97306 3.16697 6.16003
O 8.29474 8.05765 6.7633
O 7.05348 6.19828 8.05277
O 9.78092 1.91149 8.14621
O 6.28929 7.68464 10.1701
O 8.95291 3.5121 10.2669
Si 9.97428 4.71487 5.3519
Si 12.4779 17.345 5.45013
Si 10.9931 6.66256 9.34
Si 13.6834 2.35494 9.17596
Si 11.1357 2.16775 7.31643
Si 13.1413 6.48523 7.11833
O 10.6089 5.56797 10.3945
O 13.7201 1.12483 10.2121
O 12.2854 2.59071 8.4532
O 14.5523 7.21568 8.03298
O 11.6258 0.968691 6.5417
O 13.9542 5.43479 6.16274
O 10.7853 3.43942 6.29939
O 12.5974 7.63096 6.24727
O 12.0052 6.16861 8.15919
O 14.6878 2.11933 8.06218
O 11.9454 7.70317 10.3644
O 13.7304 3.50668 10.2682
Si 0.179985 13.1386 5.43192
Si 2.1918 8.69626 5.58729
Si 1.32839 15.0492 9.25868
Si 3.84961 10.6106 9.48195
Si 1.54757 10.9146 7.50052
Si 3.72123 15.2183 7.47088
O 0.999108 13.6903 9.90438
O 2.96928 9.65336 10.197
O 2.91298 11.1804 8.22799
O 5.06996 15.4059 8.39981
O 1.68895 9.36517 6.90316
O 3.96435 14.0397 6.55762
O 1.0105 12.0245 6.48812
O 3.30084 16.7084 6.89435
O 2.72396 14.9114 8.61693
O 5.1878 10.1472 8.57032
O 1.44514 16.3981 10.1616
O 4.42954 11.9242 10.1245
Si 5.04462 13.059 5.80511
Si 7.49371 8.72957 5.51854
Si 6.54812 15.051 9.22107
Si 8.80213 10.8422 9.28311
Si 6.30159 10.7759 7.41822
Si 9.13889 15.2587 7.28201
O 6.36636 13.6111 9.80795
O 8.11333 9.73105 10.1266
O 7.92512 10.8322 7.71697
O 10.5168 15.4695 8.30946
O 6.40046 9.63649 6.18747
O 9.26882 13.9539 6.43415
O 5.81635 12.2982 6.8342
O 8.77381 16.3933 6.10512
O 7.80566 15.1405 8.17647
O 10.3056 10.5336 8.6858
O 6.76526 16.3217 10.2508
O 9.10029 12.3362 10.0155
Si 9.96593 13.0822 5.45422
Si 12.0851 8.9716 5.089
Si 11.6081 15.1978 9.23911
Si 13.816 10.9201 9.06929
Si 11.2173 10.8703 7.36335
Si 14.0701 15.3658 7.29438
O 10.9374 14.0133 10.2772
O 13.5372 9.72696 10.1465
O 12.7947 10.7013 7.85216
O 0.255173 15.4465 8.19251
O 11.1681 10.0015 5.97388
O 14.5056 14.1248 6.26427
O 10.8617 12.3772 6.71389
O 13.45 16.4651 6.50038
O 12.919 15.0532 8.37576
O 0.208693 10.8933 8.31406
O 11.9917 16.5374 10.1857
O 13.9365 12.4016 9.9866
Si 14.7332 4.52661 10.9257
Si 2.44104 17.0783 11.1958
Si 1.15361 6.68217 15.0245
Si 4.0468 2.56421 14.6632
Si 1.54798 2.32758 12.735
Si 3.31535 6.28553 12.7002
O 0.516772 5.4177 15.7639
O 3.95544 0.994539 15.4964
O 2.75701 2.69147 13.5408
O 4.55523 6.91129 13.483
O 2.09171 0.800465 12.235
O 4.11408 5.134 11.7658
O 0.828098 3.33181 11.4722
O 2.59547 7.58401 11.9714
O 2.41492 5.90258 13.9431
O 5.11676 2.69055 13.7437
O 1.81385 7.8464 15.7271
O 4.18355 3.58272 15.8434
Si 4.96777 3.9661 10.6979
Si 7.48455 17.298 11.2102
Si 5.7623 6.99588 14.3584
Si 8.90662 2.43478 14.8009
Si 6.48831 2.40872 12.8761
Si 8.40861 6.43624 12.7452
O 5.47857 5.86074 15.5614
O 8.37067 1.1589 15.621
O 7.70725 2.67414 13.8102
O 9.69671 6.73117 13.9133
O 6.47672 0.942778 12.1291
O 8.86647 5.08562 12.3108
O 6.24434 3.43973 11.609
O 8.23912 7.36948 11.4334
O 7.08598 6.3217 13.5966
O 10.1418 1.99259 13.8445
O 6.38374 8.38876 15.1135
O 9.47487 3.57703 15.505
Si 9.89982 4.37323 11.2825
Si 12.6102 0.162658 11.052
Si 10.9868 6.82809 14.8243
Si 14.3253 1.91482 14.8359
Si 11.5993 2.36855 13.0552
Si 13.6627 6.53686 13.0248
O 10.755 5.62732 15.9027
O 14.1363 0.634222 15.6316
O 12.7634 2.22847 14.2402
O 14.797 6.9387 14.062
O 11.5436 1.15965 11.9295
O 14.1859 5.1056 12.2286
O 11.1336 3.57597 12.1977
O 13.7501 7.65063 12.0318
O 12.3891 6.48168 13.9523
O 0.321482 2.02125 13.7288
O 11.5536 8.06623 15.6368
O 14.3253 3.17285 15.8827
Si 15.066 13.049 10.9498
Si 2.05921 8.72533 10.9622
Si 1.67517 15.0604 14.5111
Si 4.10761 11.1343 14.3717
Si 1.17454 10.9028 12.8208
Si 4.19756 15.0068 13.02
O 1.09093 14.0702 15.6984
O 3.53791 9.69146 15.3499
O 2.73078 11.3109 13.4187
O 5.36672 15.482 13.9745
O 1.01474 9.72519 11.78
O 5.06307 13.844 11.9602
O 0.939026 12.175 11.8717
O 3.23517 15.9709 11.9597
O 2.96399 14.5331 13.9423
O 5.39788 10.8687 13.5541
O 2.13267 16.4789 15.3169
O 4.4828 12.174 15.4483
Si 5.58468 12.812 10.9032
Si 7.40772 8.54417 10.8667
Si 6.59403 15.2378 15.0232
Si 9.18962 10.6015 15.057
Si 6.74466 10.6029 12.8846
Si 8.99777 15.2138 12.9898
O 6.52832 13.9143 16.0043
O 8.51639 9.34121 15.6885
O 7.75978 11.0177 14.2121
O 10.6238 15.604 13.3785
O 6.8902 9.06686 12.2183
O 9.10843 13.9311 12.0575
O 6.47603 11.5013 11.5131
O 8.37112 16.5109 12.2575
O 7.93948 14.9642 13.9335
O 10.2245 10.1758 13.8986
O 6.77895 16.5667 16.0608
O 9.61257 11.6924 15.9676
Si 9.8766 12.9672 11.1531
Si 12.953 8.70929 11.128
Si 11.6823 15.3634 14.722
Si 13.9665 11.1006 14.7994
Si 11.528 10.5985 13.1007
Si 14.0442 15.5423 12.9273
O 11.2202 14.1669 15.6948
O 13.647 9.54917 15.4144
O 12.6075 11.2899 13.9569
O 0.715249 15.5059 13.3807
O 12.1537 9.65065 12.1761
O 14.2816 14.3642 11.7439
O 10.6834 11.941 12.0039
O 13.4207 16.8026 12.1996
O 13.151 14.9738 13.9705
O 0.20054 10.8498 14.0329
O 11.8021 16.7678 15.445
O 14.2469 12.278 15.813
324
 Atoms. Timestep: 19500
Si 0.161611 4.61728 0.235769
Si 2.7719 0.0757528 16.3918
Si 0.863536 6.84394 3.81415
Si 3.78845 2.18393 3.65108
Si 1.18225 2.06416 1.75692
Si 3.44448 6.66763 1.76722
O 1.11378 5.46086 4.71979
O 3.78189 1.51587 4.98307
O 2.40283 2.31186 2.99981
O 4.5482 6.76828 2.88854
O 1.73614 0.986078 0.669893
O 3.71297 5.42452 0.851096
O 0.954319 3.49713 1.1259
O 3.29439 7.90063 0.952848
O 1.87795 6.49602 2.31292
O 5.1406 1.74152 2.74346
O 1.49378 8.2194 4.4254
O 4.10365 3.59978 4.30576
Si 4.53517 4.56196 16.3841
Si 7.71475 17.3168 16.4043
Si 5.93456 6.46845 3.78871
Si 8.67114 2.35647 3.62364
Si 6.30553 2.18095 1.42027
Si 8.25927 6.29022 1.96591
O 5.81011 5.68492 5.05337
O 8.3396 1.09146 4.39842
O 7.59845 2.6404 2.31448
O 9.28328 6.79042 3.18075
O 6.60561 0.937042 0.40695
O 9.02686 5.05656 0.980597
O 5.27443 3.16861 0.580802
O 7.60975 7.48025 1.20071
O 6.99551 5.83043 2.79132
O 10.1152 2.04548 2.99533
O 6.59055 7.9152 4.01352
O 8.64047 3.78851 4.3803
Si 9.76489 4.07876 16.3761
Si 12.7534 17.4042 0.183616
Si 10.7746 6.58687 3.83988
Si 13.923 2.12305 3.6955
Si 11.4304 2.1642 1.93473
Si 13.3886 6.50476 2.25221
O 10.421 5.6906 5.0722
O 13.8023 1.09229 4.79007
O 12.615 2.77436 2.81015
O 14.2921 6.60383 3.64687
O 11.9323 0.761032 1.2908
O 13.9842 5.24016 1.21918
O 10.6703 2.73051 0.683786
O 13.4531 7.65321 1.11263
O 11.9274 6.45514 2.86502
O 14.7296 1.68554 2.40039
O 11.3772 8.05579 4.30929
O 14.4967 3.40025 4.39598
Si 0.107186 13.009 -0.12343
Si 2.63699 8.84182 16.4383
Si 1.53154 15.4934 3.81405
Si 3.64073 11.1393 3.97702
Si 1.35732 10.7299 1.78074
Si 4.00466 15.5558 1.85267
O 1.16977 14.2847 4.9088
O 3.12864 10.1162 4.9586
O 2.58548 11.0638 2.7455
O 5.39078 15.5387 2.52982
O 1.66795 9.69669 0.819711
O 4.20662 14.4267 0.732339
O 1.07417 12.0262 0.85835
O 3.65018 16.8474 1.0072
O 2.71259 15.1132 2.80092
O 5.19495 10.875 3.33007
O 2.08775 16.9105 4.55223
O 3.89423 12.6161 4.58388
Si 4.85757 13.1232 0.0736613
Si 7.29824 8.7882 0.158335
Si 6.58949 14.9515 3.35197
Si 8.82556 11.4347 3.63077
Si 6.17435 11.1121 1.98936
Si 9.10662 15.1959 1.65315
O 6.08233 13.8348 4.54489
O 8.41335 10.1107 4.40561
O 7.57354 11.6463 2.66984
O 10.0094 15.2966 3.0349
O 6.42567 9.8986 1.06293
O 9.88835 14.023 0.788765
O 5.40371 12.2707 1.20596
O 8.68906 16.3353 0.727
O 7.7072 14.7026 2.14339
O 10.1612 10.9202 2.70253
O 6.99359 16.0863 4.53385
O 9.34079 12.5274 4.64353
Si 10.1527 12.8695 16.1966
Si 12.5198 8.59798 0.192832
Si 11.4791 15.4201 3.79617
Si 13.7604 11.0702 3.25902
Si 11.3343 10.8533 1.76292
Si 14.0772 15.3849 2.04904
O 11.3441 14.3151 4.94788
O 13.1052 9.80808 4.27907
O 12.5888 11.4941 2.41785
O 0.157425 15.5755 3.04358
O 11.7385 9.14781 1.44907
O 14.5994 14.1483 1.06667
O 10.842 11.6665 0.478145
O 13.7032 16.6559 1.03316
O 12.5857 15.0228 2.60208
O 15.1279 10.4811 2.66214
O 11.9192 16.9533 4.48359
O 14.4475 12.2443 4.3549
Si 0.415585 4.25662 5.4583
Si 2.9328 0.33204 5.68003
Si 0.841746 6.9515 9.13569
Si 3.64751 1.92004 9.41562
Si 1.20383 2.21808 7.5803
Si 3.55426 6.63374 7.4322
O 0.441972 5.80501 10.2159
O 3.3618 0.672294 10.1052
O 2.18653 2.24861 8.87235
O 4.85978 7.17327 8.20226
O 1.78937 0.998466 6.58679
O 3.96237 5.06457 6.708
O 1.36356 3.3493 6.46219
O 3.29219 7.48383 6.13725
O 2.31419 6.49771 8.50771
O 4.86259 1.8806 8.07271
O 1.481 8.21773 9.91229
O 4.05436 3.14681 10.2529
Si 4.93483 4.43242 5.74139
Si 7.84867 17.4781 5.51823
Si 6.0074 6.73064 9.16475
Si 8.71829 1.9062 9.30252
Si 6.22627 2.24559 7.4286
Si 8.3538 6.71511 7.20484
O 5.58988 5.32869 9.81592
O 8.44058 0.826602 10.366
O 7.38173 2.20499 8.48919
O 9.80856 6.83849 7.99397
O 6.89577 1.08805 6.46646
O 8.47899 5.24528 6.55684
O 5.9671 3.52678 6.59494
O 8.33306 7.62365 5.89382
O 7.23142 6.93896 8.25547
O 9.96719 1.6918 8.48358
O 6.46943 7.60006 10.4608
O 8.97724 3.18449 10.0079
Si 9.41905 4.50787 5.53263
Si 12.8386 0.384587 5.65855
Si 11.0572 6.50539 8.76155
Si 13.5956 2.3278 9.1196
Si 10.9886 2.36456 7.43238
Si 13.6386 6.2424 6.92707
O 10.6385 5.18393 9.95462
O 13.3225 1.00642 10.0404
O 12.1514 2.99018 8.37898
O 14.9324 7.00889 7.97381
O 11.9115 1.22212 6.69466
O 14.2322 4.9172 6.29489
O 10.3573 3.42511 6.3411
O 13.2854 7.56185 6.08173
O 12.2928 6.2648 7.78452
O 14.8467 1.86661 8.05543
O 11.7923 7.6371 9.77204
O 13.9982 3.69841 9.91037
Si 0.204613 12.9909 5.67285
Si 2.50534 8.74224 5.62749
Si 1.37596 14.7781 9.242
Si 4.0239 10.7113 9.05502
Si 1.49517 10.8137 7.71044
Si 4.05692 15.4384 7.6026
O 1.09518 13.4576 9.98247
O 3.70504 9.49201 10.0756
O 2.61387 11.3263 8.56456
O 5.28218 15.7356 8.6524
O 1.94302 9.49155 6.99462
O 4.67625 14.3313 6.65193
O 0.925192 11.9312 6.56261
O 3.75386 16.9812 6.79629
O 2.73255 14.8109 8.24181
O 5.11194 10.4453 7.80463
O 1.94989 15.7828 10.4292
O 4.54625 11.8318 10.2235
Si 5.21655 13.1075 5.58291
Si 7.54501 8.93096 5.03045
Si 6.54773 15.163 9.20548
Si 9.03605 10.6141 9.39941
Si 6.58876 10.7145 7.13019
Si 8.92849 15.4269 7.19908
O 6.38672 13.6661 9.69344
O 8.52399 9.23761 10.1226
O 7.84133 10.9422 8.19207
O 10.1843 15.5287 8.32671
O 6.63263 9.46055 6.1476
O 9.44149 14.1029 6.59424
O 5.96294 11.8629 6.29886
O 9.09336 16.7027 6.22593
O 7.61317 15.3895 7.9351
O 10.3017 10.5658 8.35551
O 6.89916 16.0067 10.455
O 8.90845 11.9424 10.2564
Si 10.4083 13.141 5.57897
Si 12.5148 8.70882 5.12051
Si 11.4589 14.9424 9.26971
Si 13.7809 10.8351 9.32954
Si 11.5086 10.8552 7.31321
Si 13.9657 15.1341 7.27283
O 11.2101 13.677 10.1234
O 13.4968 9.40004 10.0472
O 12.7254 11.3533 8.15436
O 0.321349 15.4246 8.07865
O 11.804 9.52154 6.4373
O 14.1423 13.7663 6.41162
O 11.2011 11.9254 6.16863
O 13.498 16.4699 6.5258
O 12.8034 14.6949 8.2904
O 0.130508 10.6134 8.63491
O 11.7497 16.2145 10.2666
O 14.0142 11.8354 10.5251
Si 14.9203 4.41785 11.0528
Si 2.70027 17.1777 11.1683
Si 1.08088 6.80908 14.6592
Si 3.48883 2.47832 14.6721
Si 1.15527 1.88757 12.7587
Si 3.67353 6.4929 12.7583
O 0.738964 5.74823 15.8464
O 3.21796 1.02587 15.3924
O 2.38677 2.42894 13.6325
O 4.83549 6.71957 13.7405
O 1.58184 0.411949 12.1218
O 4.14757 5.19773 11.8089
O 0.761183 3.07914 11.7633
O 3.46373 7.55638 11.6277
O 2.08587 6.38414 13.4072
O 4.89183 2.24579 14.0452
O 1.97679 7.99085 15.3127
O 3.84427 3.92544 15.1416
Si 4.95879 4.21912 10.8723
Si 7.5492 17.2279 11.3152
Si 6.08288 6.60564 14.6748
Si 8.79095 1.97495 14.4912
Si 6.20968 2.1811 12.7566
Si 8.45148 6.32931 12.7987
O 5.39997 5.64864 15.6343
O 8.52266 0.653276 15.3859
O 7.49868 2.45684 13.5379
O 10.0339 6.86472 13.6121
O 6.65359 0.780533 12.0808
O 8.81572 5.13338 11.899
O 6.11601 3.47265 11.8358
O 7.79025 7.84258 12.6756
O 7.49666 5.84309 13.9328
O 10.2772 1.98349 13.902
O 6.51484 7.96754 15.5751
O 8.89143 3.11743 15.5729
Si 9.72246 4.12881 10.8667
Si 12.5842 17.2805 11.0448
Si 11.1137 6.36979 14.7697
Si 13.9546 2.32439 14.7573
Si 11.4384 2.27312 12.8584
Si 13.5786 6.40675 13.0761
O 10.7251 5.26709 15.7714
O 13.4892 1.10296 15.7021
O 12.7888 2.6828 13.5444
O 14.6906 7.2634 14.142
O 11.9241 0.784702 12.3008
O 14.2328 5.27237 12.2518
O 10.878 3.17534 11.7181
O 13.1866 7.71245 12.221
O 12.3414 5.81328 13.8786
O 0.052466 1.89543 13.8804
O 11.5285 7.69285 15.7704
O 14.4555 3.58642 15.7997
Si 15.0106 12.9697 11.058
Si 2.62738 8.63592 10.8376
Si 1.72354 15.0904 14.6735
Si 3.69 11.0685 14.7154
Si 1.1783 10.7425 12.9103
Si 4.31629 15.225 12.7904
O 0.92647 13.8511 15.3549
O 3.66906 9.85266 15.8393
O 2.42952 10.7556 13.8073
O 5.61573 15.1856 13.4908
O 1.77485 9.61019 11.7855
O 4.62362 14.2721 11.5341
O 0.821178 12.1323 12.163
O 3.76324 16.5736 12.2176
O 3.06096 14.5436 13.8961
O 4.83455 11.2024 13.6624
O 1.84152 16.2598 15.7617
O 3.80895 12.4946 15.6847
Si 5.34859 13.0328 10.9804
Si 7.26968 8.60674 11.2953
Si 6.62319 14.9719 14.7006
Si 8.63267 10.5355 14.8031
Si 6.25779 10.9663 12.9038
Si 9.19854 15.3557 13.0928
O 6.20611 13.6733 15.681
O 8.34264 9.44044 15.8692
O 7.39626 10.4575 13.9059
O 10.4359 15.5043 13.9925
O 6.30962 9.88381 11.7723
O 9.40571 14.3501 11.8551
O 6.41951 12.5324 12.2756
O 8.75349 16.6346 12.2231
O 8.05896 14.6738 14.0427
O 10.0747 10.2809 14.0218
O 6.60265 16.3682 15.4152
O 8.91196 12.1034 15.4591
Si 10.045 13.1859 11.1142
Si 12.4145 8.46056 10.9185
Si 11.7318 15.0952 14.819
Si 13.8157 10.7898 14.7162
Si 11.1404 10.6167 12.9999
Si 14.2735 15.2069 12.8333
O 11.3576 13.5794 15.3025
O 13.1649 9.73928 15.907
O 12.5656 10.7576 13.66
O 0.652048 15.6226 13.687
O 11.3606 9.62844 11.6731
O 14.4467 13.8831 12.1269
O 10.6207 12.0029 12.2397
O 13.7087 16.3273 11.7591
O 13.1385 15.1268 13.9899
O 15.0263 10.5324 13.826
O 12.0049 16.2005 15.9092
O 14.1353 12.1271 15.6094
324
 Atoms. Timestep: 20000
Si 15.0482 4.461 16.4229
Si 2.5838 0.0974738 16.6381
Si 1.23773 6.54532 3.70577
Si 3.90321 2.22826 3.69371
Si 1.45962 2.51749 1.73617
Si 3.75002 6.22082 1.69398
O 0.786587 5.34665 4.69538
O 3.18212 1.0367 4.49698
O 2.79942 2.4814 2.53126
O 5.08062 6.31092 2.55983
O 1.59442 1.38704 0.621924
O 4.02265 4.81553 0.898476
O 0.681188 3.49815 0.86742
O 3.13204 7.29253 0.628552
O 2.44363 6.10651 2.73877
O 5.27692 1.77035 2.86651
O 1.62438 8.08792 4.51813
O 4.4216 3.54082 4.58525
Si 4.76155 3.87255 16.4596
Si 7.35474 17.0774 0.00352088
Si 6.37101 6.66176 3.54563
Si 8.88628 2.0165 3.82141
Si 6.234 1.71645 1.82081
Si 9.06256 6.64571 1.87867
O 6.15834 5.56582 4.74372
O 8.20771 0.868075 4.86961
O 7.6607 1.69595 2.57365
O 10.3532 6.61517 2.81693
O 6.28777 0.0803058 1.07832
O 9.18272 5.32517 0.866794
O 5.55151 2.8373 0.806206
O 8.73872 8.01364 1.07376
O 7.81668 6.37485 2.70271
O 10.4707 1.79132 3.49633
O 6.6243 8.20649 4.23932
O 8.80008 3.47216 4.36969
Si 10.2359 4.30476 0.133462
Si 12.7907 0.164728 0.130147
Si 11.3568 6.34452 3.98069
Si 14.0668 2.41698 3.87622
Si 11.4779 2.28501 2.21159
Si 13.5787 6.27243 2.03174
O 11.0872 5.49134 5.2872
O 13.3836 1.07753 4.52287
O 12.8933 2.62942 2.80144
O 15.1288 6.56415 2.59628
O 11.6026 1.09617 0.971451
O 13.9186 5.16134 0.830907
O 11.0135 3.5181 1.3248
O 13.0475 7.49015 1.32641
O 12.5507 5.78402 3.08278
O 0.266578 2.20885 3.01289
O 12.1263 7.69522 4.72085
O 14.0433 3.59131 4.97191
Si 15.0198 12.9691 16.3993
Si 2.42523 8.47609 16.4075
Si 1.44733 14.9561 3.65899
Si 3.85358 10.8811 3.45384
Si 1.39234 11.0465 1.76359
Si 3.92637 15.3914 1.88115
O 0.964501 14.0192 4.76761
O 3.5834 9.68824 4.66034
O 2.64894 11.3137 2.7341
O 5.06862 15.4638 2.84268
O 1.7583 9.80443 0.817107
O 4.15949 14.5561 0.550742
O 1.02881 12.2526 0.666154
O 3.42528 16.8436 1.34424
O 2.78336 14.6251 2.75364
O 5.00825 10.4948 2.53068
O 1.66478 16.3776 4.24274
O 4.40988 11.9051 4.52208
Si 4.85926 13.2444 16.488
Si 7.76332 8.93973 0.10372
Si 6.42654 15.0745 3.62871
Si 8.77124 11.0957 3.62242
Si 6.29017 11.0974 1.66809
Si 8.91843 15.2378 1.95198
O 6.06208 13.8344 4.49972
O 8.50064 9.8725 4.62983
O 7.47565 11.2792 2.77373
O 10.0146 15.6832 3.07243
O 6.70961 10.0743 0.520565
O 9.53331 14.077 1.24199
O 5.76516 12.4521 1.09755
O 8.4287 16.1919 0.726282
O 7.55343 14.7957 2.69278
O 10.1214 10.8159 2.65879
O 6.75678 16.2926 4.767
O 9.18497 12.2736 4.57396
Si 10.5811 13.3152 0.22431
Si 12.2423 8.51865 0.18299
Si 11.4332 15.0909 3.46027
Si 14.0483 10.9084 3.76057
Si 11.4691 11.0708 2.04777
Si 13.9698 15.0372 1.62162
O 11.3477 13.8873 4.53668
O 13.8071 9.55532 4.86874
O 12.6063 10.9075 3.01606
O 0.184773 15.1192 2.48044
O 11.6165 9.85708 0.741051
O 14.0348 13.9396 0.627095
O 11.3755 12.3735 1.23729
O 13.6718 16.695 0.947393
O 12.5571 14.7107 2.4531
O 0.169384 10.8121 2.79851
O 12.0806 16.1895 4.56763
O 14.1136 12.2073 4.53893
Si -0.0345025 4.4564 5.8374
Si 2.42259 -0.0226312 5.31002
Si 1.39198 6.03635 9.40303
Si 3.68113 2.33643 9.16912
Si 1.47813 2.28547 7.3391
Si 3.79126 6.43218 7.25648
O 1.00026 4.57752 10.1
O 3.163 1.19578 10.1274
O 2.66284 2.94734 8.07695
O 4.84972 6.66103 8.46554
O 1.44283 0.907601 6.37683
O 4.31907 5.38915 6.26142
O 0.894226 3.38865 6.3546
O 3.16179 7.61467 6.36537
O 2.55695 5.94036 8.16298
O 4.82973 1.95146 8.25933
O 1.89016 7.11382 10.41
O 4.54812 3.62189 9.91184
Si 5.24353 4.38465 5.46046
Si 7.37646 17.3795 5.69592
Si 6.26121 6.64079 9.15221
Si 8.76035 2.31163 9.07697
Si 6.10191 2.09179 7.38243
Si 8.69753 6.46535 6.91896
O 6.42211 5.43676 10.3298
O 8.402 1.05321 10.0968
O 7.31378 2.32579 8.34489
O 9.9128 6.78995 7.95772
O 6.29956 0.648459 6.4492
O 8.80934 5.09214 6.2115
O 6.0553 3.46673 6.48333
O 8.17887 7.83064 6.32651
O 7.25875 6.47803 7.92186
O 9.90526 1.92292 8.05205
O 6.46918 7.92216 10.2615
O 9.16686 3.63335 10.0053
Si 9.88341 4.24327 5.25843
Si 12.6549 17.3558 5.54647
Si 11.071 6.60114 8.94562
Si 13.7974 1.82127 9.00607
Si 11.1601 1.87403 7.17232
Si 13.8022 6.76559 7.72584
O 10.6642 5.40736 9.93363
O 13.3463 0.501872 9.61362
O 12.6807 2.11521 7.89722
O 14.9639 6.49571 8.93537
O 11.3904 0.623495 6.13961
O 14.3974 5.60882 6.74576
O 10.5805 3.05207 6.17209
O 13.6211 8.04478 6.91118
O 12.4777 6.33223 8.31876
O 0.223874 1.96884 8.47731
O 11.1169 7.73794 9.97468
O 13.9437 2.98973 10.1802
Si 14.862 13.1778 5.62486
Si 2.56929 8.91359 5.50927
Si 1.72999 15.1848 9.18049
Si 3.5578 10.7918 9.1772
Si 0.880073 10.9579 7.38043
Si 3.97587 15.4381 7.12288
O 1.09212 13.8842 10.0549
O 3.10559 9.59054 10.0631
O 2.25525 11.5272 8.24001
O 5.44421 15.4277 8.03791
O 1.67757 9.97985 6.36209
O 4.25162 13.9395 6.34802
O 0.16377 12.1699 6.60659
O 3.28264 16.3861 6.14076
O 3.08935 15.3646 8.46137
O 4.73975 10.3149 8.3809
O 1.68461 16.4555 10.3497
O 3.96138 12.1476 10.1603
Si 5.10783 12.9812 5.42383
Si 7.33106 8.90496 5.44702
Si 6.57094 15.0423 8.96578
Si 8.74782 10.8058 9.11006
Si 6.07306 10.87 7.43473
Si 9.0866 15.5016 7.35451
O 5.8673 13.9141 10.1373
O 8.5212 9.749 10.1909
O 7.4168 11.0273 8.255
O 10.365 15.8233 8.27982
O 6.4062 9.44635 6.56753
O 9.50063 14.3931 6.2551
O 5.95136 11.9638 6.36576
O 8.28199 16.8815 6.81877
O 7.89877 14.8346 8.09801
O 9.98265 10.4256 8.16037
O 6.93802 16.1791 10.1161
O 9.22753 12.2449 9.71672
Si 10.2449 13.2459 5.44335
Si 12.7679 8.78925 5.65008
Si 11.5561 15.3079 9.25963
Si 13.6297 10.8892 9.43882
Si 11.2603 11.0265 7.39685
Si 14.0215 15.4711 7.35547
O 11.3174 13.8623 10.0088
O 13.1379 9.35311 9.86343
O 12.4245 11.2771 8.29453
O 0.446236 15.1894 8.05163
O 11.718 10.0311 6.26076
O 13.9437 14.3112 6.30897
O 10.8226 12.3599 6.63838
O 13.7595 16.763 6.45371
O 12.8236 15.6362 8.50459
O 14.844 10.6517 8.54464
O 11.523 16.4388 10.5269
O 14.0813 12.0758 10.4725
Si 14.908 4.10021 10.9333
Si 2.26846 0.280525 11.0494
Si 1.04704 6.62991 14.3759
Si 3.5514 1.83183 14.6044
Si 0.90169 2.27296 12.9622
Si 3.8805 6.52475 13.0868
O 0.91081 5.54901 15.6618
O 3.61444 0.57635 15.4409
O 2.05776 2.15128 13.974
O 5.00554 6.86952 14.0763
O 1.43117 1.36154 11.7387
O 4.39526 5.2176 12.1139
O 0.327755 3.57844 12.3281
O 3.62759 7.68343 12.0729
O 2.47137 6.10212 13.7459
O 4.7831 1.67049 13.4349
O 1.31591 7.86097 15.365
O 3.78821 3.22728 15.3795
Si 5.44764 4.56723 11.0735
Si 7.66763 17.2228 11.0061
Si 6.32351 6.49323 14.8799
Si 8.61836 2.02693 15.0097
Si 6.25559 2.11432 13.0905
Si 8.67597 6.52206 12.8201
O 5.8742 5.0592 15.695
O 8.24531 0.785473 15.886
O 7.17635 2.30691 14.4308
O 10.0093 6.68589 13.7474
O 6.98084 0.960934 12.1327
O 9.03747 5.67772 11.6521
O 6.13753 3.48615 12.2211
O 8.35072 7.93909 12.0082
O 7.5561 6.3002 13.8888
O 9.78119 1.93469 13.795
O 6.78867 7.59395 16.1468
O 9.21328 3.18109 16.0544
Si 9.83852 4.60722 10.926
Si 12.4971 0.173891 11.1058
Si 11.3629 6.39269 14.7554
Si 13.6428 2.12424 14.4876
Si 11.1205 2.23805 12.8235
Si 13.6239 6.4337 12.6606
O 10.9499 5.00294 15.5498
O 13.4501 1.15809 15.7049
O 12.3435 2.73029 13.6853
O 14.9521 6.78936 13.4761
O 11.7232 1.1985 11.8957
O 14.0063 5.22661 11.6156
O 10.6774 3.65848 11.9242
O 13.1178 7.60677 11.6828
O 12.5798 6.28844 13.8213
O 14.6879 1.49881 13.5844
O 11.3651 7.56544 15.8826
O 14.2455 3.65233 15.2224
Si 0.110704 13.0998 11.1711
Si 2.54514 8.42347 11.2045
Si 1.45297 15.2095 14.8177
Si 3.53465 10.9034 15.0319
Si 0.994003 10.6286 12.9821
Si 3.83002 15.5369 12.929
O 0.580897 13.8839 15.1724
O 3.55298 9.49883 15.7641
O 2.33246 10.8991 14.0144
O 5.27784 15.804 13.2732
O 1.53805 9.36831 12.0822
O 3.94793 14.275 11.8903
O 0.856602 12.1206 12.2662
O 3.20923 16.9539 12.4539
O 2.85257 15.1057 14.0875
O 4.8638 10.9713 13.9821
O 1.59041 16.1779 16.1852
O 3.74112 12.0339 16.1043
Si 4.66919 13.1298 11.0333
Si 7.53604 8.90346 11.1331
Si 6.39556 15.1122 14.4183
Si 8.77583 11.2579 14.8408
Si 6.17086 11.0705 13.1059
Si 9.23637 15.3564 12.7186
O 5.67079 13.8261 15.3321
O 8.2537 9.79005 15.3951
O 7.49829 11.5691 13.9766
O 10.4181 15.762 13.6373
O 6.52738 9.81915 12.0844
O 9.59969 14.0875 11.7544
O 5.65523 12.1723 11.9235
O 8.66701 16.4796 12.002
O 7.83485 14.8417 13.7519
O 9.88313 10.9853 13.7245
O 6.71115 16.2972 15.4736
O 9.37608 12.2715 16.0161
Si 10.182 12.9754 10.8395
Si 12.1741 8.46618 10.8973
Si 11.6021 15.5069 14.6887
Si 13.4379 10.4458 14.7214
Si 11.1211 10.7869 12.6934
Si 14.2589 15.6319 12.8662
O 11.164 14.3014 15.6973
O 13.2497 9.14173 15.6717
O 12.4292 11.036 13.6784
O 0.548286 15.9184 13.6297
O 11.3766 9.44824 11.8501
O 14.427 14.4393 11.7295
O 11.0291 11.841 11.5475
O 13.5986 16.8283 12.1448
O 13.0182 15.1943 13.8508
O 14.826 10.1998 13.7981
O 11.9186 16.7112 15.5034
O 13.9638 11.6526 15.8422
324
 Atoms. Timestep: 20500
Si -0.02891 4.45134 16.4343
Si 2.33211 17.2806 0.351878
Si 1.48494 6.14863 3.57674
Si 3.84691 2.22151 3.72693
Si 1.25841 2.4687 1.78913
Si 4.07303 6.47347 1.70805
O 1.10219 4.99747 4.56906
O 3.42296 0.834253 4.37053
O 2.79385 2.549 2.69212
O 5.42204 7.07334 2.26932
O 1.24712 0.845452 1.19818
O 4.2975 4.8844 1.22668
O 1.01962 3.4227 0.593047
O 3.22719 7.3497 0.514812
O 3.11155 6.07421 3.03548
O 5.23268 2.12322 2.6758
O 1.59589 7.59213 4.3632
O 3.98468 3.37578 4.73712
Si 5.27762 4.0704 0.20746
Si 7.64484 17.32 16.5799
Si 6.44831 6.71924 3.56396
Si 8.97521 2.06604 4.02116
Si 6.53747 1.99897 1.87666
Si 9.19203 6.65418 1.96454
O 5.9528 5.33354 4.26702
O 8.80036 1.01091 5.00299
O 7.69468 1.85714 3.02794
O 10.4612 7.26568 2.90831
O 6.54013 0.687084 0.962724
O 9.56449 5.32375 1.16032
O 6.44592 3.38282 0.956416
O 8.90349 7.92009 1.00552
O 8.03271 6.43206 2.98622
O 10.2786 2.0417 2.95546
O 6.40912 7.65143 4.86389
O 9.02806 3.5249 4.73846
Si 10.0341 4.24717 0.145119
Si 12.4848 17.2802 -0.0203542
Si 11.854 6.76946 3.82796
Si 13.7405 2.67403 3.5984
Si 11.3959 1.96445 1.92316
Si 14.233 6.84927 1.71474
O 11.222 5.19606 4.26486
O 13.5765 1.1865 4.26661
O 12.8407 2.41345 2.37371
O 0.541722 6.6027 2.46338
O 11.4561 0.605953 1.04996
O 14.291 5.38007 0.915533
O 10.8995 2.98998 0.764002
O 13.9533 7.80561 0.619506
O 13.123 6.82139 3.02474
O -0.0161518 2.709 2.74624
O 11.7384 7.44576 5.22561
O 13.8027 3.87343 4.76703
Si 0.258097 12.9143 16.6029
Si 2.34636 8.7117 16.3846
Si 1.16315 15.3825 3.4917
Si 3.74664 10.6884 3.41357
Si 1.13905 10.6202 1.91285
Si 3.82268 14.9798 2.02325
O 0.7064 14.0113 4.38823
O 3.39507 9.29185 4.20677
O 2.47088 10.9337 2.57672
O 4.9986 15.3989 2.92949
O 1.54062 9.22125 1.14875
O 4.20656 13.6588 1.18908
O 0.812676 11.6511 0.74213
O 3.45315 16.1802 1.03038
O 2.36707 14.7531 2.64044
O 4.94017 10.4836 2.39103
O 1.46424 16.5206 4.50275
O 4.11059 11.9944 4.36908
Si 5.12212 12.9926 16.4819
Si 8.10437 8.66631 16.5636
Si 6.34125 15.0112 3.87477
Si 8.6348 10.7746 3.73584
Si 6.32305 10.8092 1.66934
Si 8.77962 15.3484 2.1188
O 5.967 13.8399 4.82015
O 7.92658 9.85385 4.69678
O 7.45278 11.3412 2.61125
O 10.1883 15.8562 2.92357
O 6.98595 9.51964 0.918532
O 9.14793 13.9046 1.23119
O 5.98689 11.7727 0.488709
O 8.35437 16.3953 1.11259
O 7.53572 14.7506 2.94239
O 9.77745 10.0965 2.78181
O 6.50888 16.4262 4.72089
O 9.22341 11.9752 4.42022
Si 9.84547 12.8253 0.205013
Si 12.6643 8.66008 16.2692
Si 11.5815 15.403 3.62409
Si 13.6123 10.6586 3.75417
Si 10.9865 10.4854 1.93596
Si 13.955 15.1949 1.5571
O 10.7395 14.2868 4.68313
O 13.3877 9.49776 4.94814
O 12.3276 10.3959 2.98036
O -0.00598104 15.6487 2.4302
O 11.7134 9.29628 0.792126
O 14.4753 13.7015 1.00027
O 10.723 11.7088 1.04783
O 13.5509 16.142 0.36072
O 12.6413 14.9332 2.3992
O 14.9651 10.5866 3.03
O 12.2783 16.3827 4.45826
O 13.8245 12.096 4.69027
Si 15.0328 4.50686 5.70459
Si 2.43213 0.0236041 5.40784
Si 1.47692 6.46064 9.40778
Si 3.85797 2.44155 9.28057
Si 1.10773 2.21429 7.4098
Si 3.78983 6.83287 7.2102
O 1.08181 5.22396 10.2514
O 3.43952 1.38821 10.4772
O 2.56156 2.4165 8.18778
O 5.10229 6.99638 8.1372
O 1.61565 1.12336 6.18948
O 4.0874 5.45902 6.28254
O 0.537272 3.37259 6.63079
O 3.18316 7.98769 6.39251
O 2.55593 6.23761 8.2366
O 5.16101 2.50151 8.40301
O 2.12818 7.31235 10.6044
O 3.69576 3.89547 9.94417
Si 4.98753 4.57902 5.26155
Si 7.61931 0.0286008 5.52391
Si 6.28685 6.82065 9.25021
Si 9.04464 2.201 8.89583
Si 6.37896 2.74007 7.27016
Si 8.93931 6.65472 7.59389
O 5.7267 5.56519 10.2631
O 8.26491 0.91414 9.78571
O 7.74197 2.65684 8.04345
O 10.1673 6.78093 8.40037
O 6.47851 1.256 6.30161
O 9.4117 5.47292 6.41892
O 6.07773 3.74294 6.2639
O 8.51887 7.78915 6.50159
O 7.73262 6.31181 8.646
O 10.4175 1.70525 8.20076
O 6.62511 8.06189 10.1622
O 9.55027 3.2818 9.87022
Si 10.064 4.6916 5.31335
Si 13.1681 0.0516422 5.209
Si 11.5208 6.78791 9.46475
Si 13.7561 2.09663 9.1338
Si 11.4846 2.18581 7.18491
Si 14.0077 6.69949 7.87881
O 11.0195 5.80243 10.5632
O 13.1587 0.784548 10.0709
O 12.6895 2.79653 8.03475
O 0.384667 7.01431 8.51012
O 12.1903 0.958888 6.22355
O 14.6272 5.76491 6.56104
O 11.1083 3.39359 6.16125
O 13.254 7.95733 7.10032
O 12.7534 6.28132 8.70604
O 15.0232 1.63208 8.28215
O 11.6033 8.21135 10.0775
O 14.3413 3.34706 10.0342
Si 15.0384 12.8937 5.50441
Si 2.37352 8.61481 5.29822
Si 1.39743 15.4086 9.26812
Si 3.64585 10.6548 9.26983
Si 1.04871 10.534 7.28491
Si 3.7101 15.111 7.15347
O 0.856617 14.5131 10.5013
O 3.28269 9.52196 10.2857
O 2.24122 10.898 8.22684
O 5.20849 15.3323 7.84106
O 1.24798 9.51259 6.20887
O 3.94669 13.6953 6.47282
O 1.03411 11.8596 6.19918
O 2.9956 16.2387 6.3316
O 2.70365 14.8684 8.41986
O 4.87232 10.4668 8.32045
O 1.80422 16.8629 9.96714
O 4.11612 11.7163 10.3063
Si 4.84709 12.7094 5.6971
Si 7.48039 8.73088 5.68393
Si 6.06915 15.1147 9.22911
Si 8.97605 10.8805 9.06344
Si 6.17366 10.6698 7.51996
Si 8.568 15.128 7.43243
O 5.55245 13.8841 9.94165
O 8.87127 9.53667 10.0078
O 7.37021 11.0723 8.44988
O 9.95799 15.1692 8.3302
O 6.5557 9.33084 6.753
O 8.70938 13.7976 6.38879
O 5.82904 11.7501 6.41679
O 8.306 16.4208 6.68898
O 7.39874 14.7403 8.53735
O 9.8109 10.2964 8.04343
O 6.31323 16.3808 10.176
O 9.64185 12.1375 9.67401
Si 9.91848 13.0998 5.54817
Si 12.5532 8.71756 5.92316
Si 11.4993 15.3436 9.0635
Si 13.6012 11.1671 9.17472
Si 11.066 10.8438 7.40443
Si 14.0632 15.355 7.21075
O 11.4878 14.2557 10.1357
O 13.4373 9.91259 10.078
O 12.1177 11.3474 8.48393
O 0.365908 15.5865 8.06567
O 11.4201 9.62503 6.43651
O 14.3071 13.9234 6.50614
O 10.7124 12.1801 6.30639
O 13.855 16.5586 6.2581
O 12.7218 15.4288 8.16099
O 14.7129 10.6447 8.06849
O 11.1246 16.6526 10.1632
O 14.3193 12.42 9.84423
Si 15.1054 4.28832 11.1244
Si 2.55895 0.35217 11.2849
Si 1.46721 6.59109 14.4559
Si 3.66544 2.04686 14.8751
Si 1.19211 2.17521 13.1437
Si 4.20235 6.75969 13.2892
O 0.845796 5.3703 15.3679
O 3.23468 0.98415 16.0322
O 2.501 2.60927 13.8957
O 5.23619 7.20151 14.2882
O 1.38876 1.10568 12.105
O 4.5848 5.31715 12.4466
O 0.541645 3.37057 12.2538
O 3.88162 7.95746 12.2848
O 2.84165 6.16795 13.9525
O 4.89623 1.65267 13.8966
O 1.58519 8.04015 15.2026
O 4.53283 3.01613 15.825
Si 4.80664 4.52831 11.0614
Si 7.35996 17.3233 11.0385
Si 6.46234 6.63373 14.9985
Si 8.43639 2.58279 14.8118
Si 5.92958 2.15741 12.8432
Si 8.56668 6.41855 12.8311
O 5.89523 5.32674 15.9887
O 8.2467 1.27463 15.9268
O 7.21997 2.72074 13.8447
O 10.0304 6.36791 13.4876
O 6.56035 1.02223 11.8624
O 8.59517 5.47372 11.554
O 5.27243 3.09304 11.7228
O 8.31209 8.01308 12.3445
O 7.35842 6.06353 13.7612
O 9.68441 2.09379 13.764
O 7.37855 7.61799 15.5751
O 8.90729 3.71955 15.8026
Si 10.0654 4.66437 11.036
Si 12.1839 0.00675346 11.073
Si 11.2645 6.3586 14.5226
Si 13.5908 2.34283 14.952
Si 10.9654 2.25839 12.9833
Si 13.9173 6.4124 12.7011
O 10.8919 5.32142 15.5429
O 13.0456 1.11693 15.6923
O 12.4157 2.64683 13.7532
O 0.243245 6.52196 13.3975
O 11.3778 0.950577 11.9419
O 14.0748 5.5828 11.4289
O 10.7075 3.5237 12.0121
O 13.7497 7.96618 11.7612
O 12.5958 6.41438 13.6144
O 15.0965 1.99172 14.2791
O 11.7423 7.67074 15.3915
O 13.7875 3.69473 15.7088
Si 0.0138094 13.1002 11.0753
Si 2.7786 8.56821 11.3428
Si 1.11586 15.1871 14.7296
Si 3.62273 10.8776 14.6181
Si 1.14816 10.7845 12.6957
Si 3.64518 15.4192 12.9701
O 1.05219 13.9017 15.7012
O 3.3867 9.72471 15.755
O 2.22204 11.0357 13.8994
O 5.21794 15.321 13.6583
O 1.54664 9.37127 12.2298
O 3.76198 14.1511 11.9178
O 1.00509 11.9156 11.5683
O 3.23802 16.7726 12.1447
O 2.57197 15.0643 14.0856
O 4.7774 10.4478 13.4494
O 1.66162 16.314 15.8693
O 4.12252 12.1787 15.4789
Si 4.63814 13.0719 11.0048
Si 7.76421 9.05597 11.2132
Si 6.49772 15.1082 14.559
Si 8.53364 11.0177 14.4639
Si 6.10297 11.2047 12.8622
Si 8.85624 14.9073 12.6173
O 5.91357 14.0659 15.8674
O 8.61085 9.73713 15.4527
O 7.28315 11.3692 13.9537
O 9.90689 15.0326 13.7505
O 6.90618 10.3922 11.59
O 9.323 13.6723 11.828
O 5.34854 12.4013 12.2637
O 8.07045 16.1535 11.9739
O 7.41056 14.4798 13.5583
O 9.63115 10.8828 13.2432
O 7.14363 16.3538 15.2115
O 8.96143 12.1512 15.7411
Si 10.4445 13.0411 10.7517
Si 12.5513 8.8472 11.1167
Si 11.1254 14.9843 14.7801
Si 13.6229 11.0661 14.4583
Si 11.0681 11.0749 12.8272
Si 13.5375 14.9993 12.8123
O 10.8433 13.8232 15.8406
O 13.5085 9.74983 15.4562
O 12.1479 11.2627 13.9135
O 15.0347 15.1635 13.7356
O 11.7555 9.71157 12.1398
O 13.9826 13.9195 11.8265
O 11.1967 12.0842 11.6552
O 13.1529 16.2346 11.7093
O 12.4483 14.518 13.8826
O 14.6967 10.8398 13.2976
O 11.3641 16.4233 15.5017
O 14.2856 12.2741 15.3682
324
 Atoms. Timestep: 21000
Si 0.126405 3.86166 0.135271
Si 2.59141 -0.018802 16.4793
Si 1.52484 6.7775 3.69653
Si 3.75663 2.01489 3.71147
Si 1.56099 1.87033 2.00414
Si 4.05291 6.96979 1.89833
O 1.31205 5.11987 4.35026
O 2.9781 1.02852 4.64405
O 2.71123 2.80784 3.07416
O 5.159 6.77692 3.06029
O 2.25846 0.732029 1.33142
O 4.27021 5.71687 0.924288
O 1.10548 2.90826 0.879017
O 3.83853 8.19446 0.864487
O 2.75166 6.7795 2.63032
O 4.86101 1.48968 2.67449
O 1.89549 7.92079 4.70289
O 4.50651 3.3608 4.52297
Si 4.95135 4.39913 0.214351
Si 7.46875 0.082766 16.3009
Si 6.5631 6.64218 3.83138
Si 8.85079 1.90977 3.70394
Si 6.13801 2.14031 1.99275
Si 9.20062 6.54251 1.93979
O 6.26854 5.26899 4.6105
O 8.11407 0.962663 4.61025
O 7.39666 2.44527 2.9927
O 10.4606 6.52066 2.88057
O 6.54432 1.01567 0.803294
O 9.28622 5.36267 0.81921
O 5.82447 3.57836 1.42636
O 8.82963 7.65801 0.995515
O 7.93654 6.50178 2.98902
O 9.82837 1.69856 2.34545
O 6.8688 7.7392 4.94415
O 9.63677 3.0372 4.50889
Si 10.1236 4.31157 16.5303
Si 12.4268 17.2938 16.408
Si 11.6136 6.08729 3.95175
Si 13.8033 2.00889 3.4238
Si 11.1479 2.08201 1.8041
Si 13.9903 6.26748 1.99106
O 11.4568 4.72781 4.65311
O 13.1415 0.990099 4.36344
O 12.5725 2.42653 2.52568
O 0.0986785 6.72221 2.8286
O 11.8572 0.843759 0.975733
O 14.3532 4.79976 1.20335
O 10.9238 3.30378 0.764471
O 13.7175 7.17925 0.910052
O 12.7471 6.07555 2.8448
O 0.332702 1.37146 2.93607
O 11.9012 7.4485 4.71623
O 14.3184 3.45867 4.074
Si 14.8497 13.1852 0.11939
Si 2.50062 8.82386 0.1591
Si 0.999338 15.3251 3.34689
Si 3.76767 10.9543 3.57954
Si 1.12671 11.0486 2.00131
Si 3.58042 14.9662 1.65278
O 0.635499 14.1169 4.35465
O 3.68293 9.79039 4.72999
O 2.14482 11.4465 3.18279
O 4.37069 15.7804 2.67504
O 1.81238 9.76256 1.21898
O 4.41232 13.7037 1.2044
O 0.933109 12.1912 0.922471
O 3.43277 16.1589 0.34769
O 2.23366 14.7428 2.4765
O 4.80408 10.4559 2.56101
O 1.30206 16.4324 4.57319
O 4.26475 12.3187 4.34522
Si 5.17601 12.875 0.115822
Si 7.85661 8.51507 -0.0365532
Si 5.84437 15.7099 3.4166
Si 8.61042 10.8312 3.64772
Si 6.25597 10.4946 1.86259
Si 8.6773 15.4764 1.77142
O 5.66636 14.4796 4.3737
O 8.4843 9.79558 4.88758
O 7.22325 10.9642 3.00708
O 10.0271 16.0631 2.43306
O 6.69651 9.1307 1.04932
O 9.1179 13.9545 1.22434
O 6.15547 11.7056 0.724958
O 8.33333 16.4091 0.480007
O 7.31837 15.742 2.58713
O 9.82605 10.4437 2.61532
O 5.88053 17.0992 4.46205
O 9.16728 12.2298 4.32524
Si 9.63788 12.878 0.113372
Si 12.8844 8.50704 0.213731
Si 11.1452 15.6957 3.74271
Si 13.8028 10.9536 3.47601
Si 11.1467 10.81 1.76375
Si 13.5202 15.2875 1.81194
O 10.5099 14.4193 4.46589
O 13.5557 9.67654 4.47582
O 12.471 11.3953 2.84658
O 14.9657 15.7671 2.26449
O 11.8598 9.29875 1.11504
O 13.9164 13.7497 1.15348
O 10.6166 11.7265 0.664394
O 13.1792 16.1692 0.596393
O 12.5673 15.3678 3.06545
O 14.6591 10.8174 2.25166
O 11.2685 16.8619 4.74148
O 14.4354 12.0622 4.48382
Si 0.181842 4.06876 5.02918
Si 2.44707 17.2157 5.60054
Si 1.53917 6.70937 9.10882
Si 3.50035 2.52368 9.07412
Si 1.00518 2.01911 7.44871
Si 4.19139 6.58645 7.36177
O 0.946075 5.41362 9.77501
O 3.465 1.02389 9.89632
O 1.97932 2.64916 8.49474
O 5.73935 6.39105 7.87288
O 1.57773 0.55051 6.76478
O 4.40255 5.45658 6.17076
O 0.869917 2.91178 6.03648
O 3.48076 7.91304 6.88005
O 3.18959 6.28274 8.6672
O 4.67123 2.59663 8.1266
O 1.76799 7.77676 10.306
O 3.98292 3.48688 10.3835
Si 5.33746 4.50083 5.5068
Si 7.05691 0.0381437 5.42881
Si 6.89118 6.20686 8.99339
Si 8.88109 2.08408 9.4565
Si 6.21685 2.35238 7.62151
Si 9.38017 6.63901 7.38452
O 6.3619 5.12435 10.0643
O 8.6898 0.965581 10.4954
O 7.49285 2.16783 8.50356
O 10.7715 7.16725 7.96494
O 6.29735 1.06036 6.51954
O 9.63249 5.386 6.32607
O 6.3871 3.58887 6.52636
O 8.4716 7.84161 6.71155
O 8.40454 5.99425 8.53479
O 9.95727 1.44444 8.32168
O 6.92966 7.59526 9.78269
O 9.3653 3.40545 10.1644
Si 10.4472 4.04035 5.71889
Si 12.579 0.128072 5.51577
Si 11.8323 6.58317 9.03204
Si 13.8722 1.97116 9.68265
Si 11.4025 1.96225 7.87061
Si 14.4311 6.46886 7.12105
O 11.2451 5.22309 9.86313
O 13.639 0.645719 10.3624
O 12.3535 2.06681 9.16781
O 0.481705 7.09629 8.02214
O 11.9829 0.803086 6.78087
O 14.4747 5.24713 6.01226
O 11.219 3.21254 6.86715
O 13.9038 7.79504 6.39436
O 13.1173 6.40307 8.29462
O 14.7502 1.80601 8.42365
O 12.0276 7.67729 10.2317
O 14.3767 3.39552 10.4263
Si 0.0509326 13.1556 5.4582
Si 2.70606 8.86739 5.82626
Si 1.2747 15.5782 9.02161
Si 3.25275 11.2311 9.43217
Si 1.06347 11.2224 7.48227
Si 3.88581 15.2154 7.27013
O 0.717228 14.175 9.94332
O 3.1504 9.82927 10.2896
O 1.86169 11.4539 8.79044
O 5.084 15.3475 8.17997
O 1.90484 9.85631 6.60081
O 4.28287 13.8139 6.48069
O 1.14244 12.3605 6.29833
O 3.36744 16.1378 6.18226
O 2.53984 15.1309 8.23081
O 4.42418 10.9127 8.02679
O 1.57456 16.7567 10.1444
O 4.01441 12.3716 10.1373
Si 5.12146 13.1774 5.34089
Si 7.60545 8.79986 5.83176
Si 6.41965 15.268 9.0241
Si 8.23264 10.9893 9.14664
Si 5.9338 11.1422 7.24404
Si 8.65476 15.3809 7.26386
O 6.0368 14.3332 10.4391
O 7.99978 9.75014 10.0933
O 7.00248 11.3913 8.38603
O 9.91663 15.8337 8.16747
O 6.58775 9.63328 6.7374
O 9.19803 14.0611 6.38465
O 6.28489 12.2039 5.8702
O 7.82974 16.4273 6.21068
O 7.42531 14.5676 8.09839
O 9.61827 10.5464 8.29717
O 7.0029 16.6744 9.65747
O 8.95032 12.0643 10.2484
Si 10.0336 13.1939 5.32386
Si 12.7637 8.62268 5.42537
Si 11.2271 15.2126 9.01111
Si 13.5439 11.0579 9.19657
Si 11.0233 10.647 7.35452
Si 13.7904 15.4105 7.27085
O 10.5919 13.968 9.77232
O 13.7321 9.96173 10.3161
O 12.0936 10.7759 8.42735
O 14.9475 15.7297 8.2673
O 11.7569 9.75853 6.17054
O 14.1118 14.0733 6.24689
O 10.7588 12.1321 6.51734
O 13.5966 16.5143 6.18194
O 12.3801 14.9682 7.88605
O 14.5731 10.8516 7.96775
O 11.5614 16.3484 9.94982
O 13.8963 12.456 9.9086
Si 0.372924 4.49218 10.8741
Si 2.8251 0.19918 11.0109
Si 1.29282 6.39778 15.0167
Si 3.91378 2.26749 14.8056
Si 1.51773 2.32601 12.8933
Si 3.82425 6.43603 13.0786
O 0.91071 4.85498 15.6666
O 3.52681 0.743297 15.3231
O 2.55066 2.55635 14.0267
O 5.14368 6.39384 13.9635
O 2.04953 1.16681 12.0756
O 4.39678 5.66619 11.8468
O 1.26221 3.82981 12.0474
O 3.37592 7.73668 12.2088
O 2.66733 6.07245 14.1233
O 5.09276 2.15821 13.5769
O 1.66342 7.60696 16.0089
O 4.12229 3.08573 16.0765
Si 5.17869 4.61468 11.0308
Si 7.61336 17.2779 10.9483
Si 6.53718 6.263 14.8018
Si 8.95959 2.05875 14.6314
Si 6.38764 2.15499 12.6217
Si 9.03816 6.52241 12.8109
O 6.15417 4.92393 15.6673
O 8.31429 1.23932 15.7442
O 7.79527 1.8525 13.4868
O 10.1511 7.02008 13.9398
O 6.47072 0.921774 11.5581
O 9.62454 5.28075 11.9246
O 6.36376 3.70308 11.9086
O 8.41213 7.74864 11.9845
O 7.72773 6.02989 13.6924
O 10.233 1.59602 13.8893
O 7.03615 7.4175 15.6234
O 9.37726 3.50099 15.2877
Si 10.3222 4.27478 10.987
Si 12.5206 17.1493 11.0597
Si 11.6491 6.58304 14.6907
Si 13.9633 1.82268 14.6409
Si 11.3407 1.7948 12.8349
Si 14.1661 6.60732 12.9045
O 11.4028 5.24319 15.6921
O 13.5294 0.496502 15.3604
O 12.7188 2.07706 13.7141
O -0.0260806 6.75805 14.1879
O 11.4747 0.525537 11.9552
O 14.447 5.56589 11.7434
O 11.0074 3.06728 11.7002
O 13.5994 8.12785 12.3435
O 12.7155 6.18353 13.5679
O 0.133375 1.86686 13.5861
O 12.0375 7.83551 15.6259
O 14.4051 2.7321 15.8338
Si 14.8884 13.2867 10.834
Si 2.47227 8.64252 11.3486
Si 0.783292 15.6631 14.8003
Si 3.42574 11.1021 14.694
Si 1.00553 11.1238 12.7865
Si 3.25192 15.2704 12.9877
O 0.646369 14.5058 15.9848
O 3.07412 9.96806 15.7069
O 2.19158 11.5824 13.7639
O 4.388 15.5942 14.0387
O 1.59751 9.81124 12.1302
O 3.91365 13.925 12.1549
O 0.695968 12.2753 11.723
O 3.49218 16.4064 11.7746
O 1.89094 15.3934 13.4754
O 4.60732 10.3393 13.6569
O 1.20944 17.0928 15.773
O 3.79557 12.3272 15.6801
Si 5.02673 13.2337 11.1812
Si 7.42375 8.41119 10.9985
Si 5.9244 15.3388 14.6667
Si 8.41019 10.8693 14.5457
Si 5.77267 10.5842 12.6646
Si 8.55436 15.2564 12.9453
O 5.93445 13.9258 15.888
O 8.33973 9.71837 15.6474
O 7.18284 10.8653 13.6631
O 9.55985 15.3165 14.2117
O 6.25834 9.21208 11.8833
O 8.82524 14.156 11.7607
O 5.62274 11.977 11.876
O 8.48209 16.6609 12.205
O 7.0036 14.9076 13.6414
O 9.85554 10.8719 13.5633
O 6.73748 16.5817 15.2235
O 8.64107 12.1247 15.5386
Si 9.73089 13.1537 10.892
Si 12.7427 8.90276 11.2517
Si 10.8992 15.1212 14.876
Si 13.8026 10.9287 14.8172
Si 11.3387 11.068 12.9538
Si 13.5451 14.8613 12.98
O 10.7605 13.808 15.7191
O 13.6467 9.74047 16.0261
O 12.3698 11.1099 14.0908
O 14.5158 15.5051 14.1551
O 11.7204 9.81489 11.9595
O 14.0058 13.8336 12.0891
O 11.0098 12.4735 11.8455
O 13.3502 16.2176 12.1018
O 12.0591 14.7254 13.7301
O 14.811 10.5862 13.6778
O 11.4094 16.5267 15.5479
O 14.1966 12.4009 15.3596
324
 Atoms. Timestep: 21500
Si 0.263059 4.15412 16.5166
Si 2.29972 17.3502 16.2803
Si 1.62003 6.46662 3.73572
Si 4.0997 1.95498 3.91105
Si 1.43006 1.74895 1.85862
Si 3.97605 6.87634 1.80715
O 1.57653 5.21831 4.70933
O 3.37934 0.948379 5.06874
O 2.62247 2.15033 2.66881
O 5.30495 7.22789 2.87002
O 1.44034 0.550638 0.97791
O 4.39898 5.86179 0.619803
O 1.0294 3.07837 0.984768
O 3.31807 8.27335 1.25556
O 2.76604 6.54538 2.74041
O 5.41546 1.99037 2.98694
O 1.79827 7.86514 4.48133
O 4.29828 3.24376 4.65215
Si 5.08115 4.58687 16.4919
Si 7.74475 0.0216342 16.3598
Si 6.39052 6.5192 3.57721
Si 8.85876 1.98599 3.62195
Si 6.51413 2.39477 1.88791
Si 8.66337 6.32933 1.7064
O 6.23597 5.29139 4.5022
O 8.67628 0.790955 4.44401
O 7.77177 2.78903 2.70636
O 10.1444 6.52211 2.45099
O 7.12753 1.11062 0.846662
O 8.81252 5.10454 0.620973
O 6.1524 3.6706 0.736286
O 8.38154 7.59419 1.02048
O 7.34237 5.97016 2.50394
O 10.415 1.6504 2.6248
O 7.00544 7.73873 4.73029
O 9.42325 3.06613 4.53834
Si 10.0177 4.22639 16.4582
Si 12.7511 -0.0736502 16.3132
Si 11.4024 6.2071 3.46312
Si 14.1242 2.15467 3.72381
Si 11.6104 2.27979 1.75415
Si 14.2741 6.53886 1.72038
O 10.9781 5.0244 4.48174
O 13.2168 1.16645 4.63549
O 12.9675 2.7052 2.67504
O 0.253488 6.46906 3.02916
O 11.9865 1.03723 0.844886
O 14.8534 5.42191 0.690551
O 11.0875 3.51312 1.02328
O 13.604 7.75259 1.03012
O 12.8084 6.31455 2.74863
O 0.13936 1.4977 2.90152
O 11.7018 7.30383 4.73891
O 14.611 3.34954 4.55208
Si 14.9115 13.2345 0.257508
Si 2.46624 8.78538 -0.0294236
Si 1.20394 15.3226 3.75686
Si 3.55061 11.1494 3.69812
Si 0.902922 10.6965 1.91825
Si 3.40738 15.1397 1.7151
O 0.72468 14.0311 4.40933
O 3.38075 9.97078 4.88334
O 2.19706 11.1361 2.82726
O 4.70017 15.4567 2.75504
O 1.35274 9.60142 0.850543
O 3.65843 13.6887 1.07425
O 0.473671 11.9208 0.967189
O 3.38379 16.4838 0.676418
O 2.1267 14.9762 2.42947
O 4.8622 10.6926 2.9016
O 2.05145 16.0661 4.88083
O 4.02759 12.3448 4.67201
Si 4.57543 12.7763 0.0173449
Si 7.71084 8.74151 0.161931
Si 6.03904 15.4513 3.6835
Si 8.92798 10.6981 3.78544
Si 6.2172 10.6127 2.0666
Si 8.62577 15.2041 1.70471
O 5.58805 14.4062 4.87468
O 8.73479 9.75145 4.98003
O 7.62899 10.6698 2.78267
O 9.80539 15.2279 2.79933
O 6.60331 9.37801 1.11998
O 8.7543 13.9769 0.545959
O 5.65559 11.7574 1.02915
O 8.5784 16.5142 0.779915
O 7.23028 15.0206 2.77869
O 10.3097 10.2486 3.09598
O 6.68351 16.7782 4.51714
O 9.145 12.2727 4.3594
Si 9.70831 13.0376 16.4956
Si 12.5626 8.87587 0.175624
Si 11.1571 15.2192 3.64784
Si 13.542 11.0039 3.56312
Si 11.0763 10.9252 1.95479
Si 13.84 15.5347 2.00962
O 10.8754 14.1906 4.84822
O 12.8657 9.48431 4.33201
O 12.1555 11.6239 2.86307
O 14.911 15.9485 3.13093
O 11.7021 9.78714 1.11304
O 14.2893 14.1373 1.33959
O 10.3171 11.9508 1.0672
O 13.363 16.3454 0.766789
O 12.4185 15.0634 2.81753
O 14.7583 10.3826 2.77698
O 11.2973 16.5965 4.38168
O 14.0602 12.2862 4.3719
Si 0.513642 4.30788 5.31173
Si 2.36773 17.3221 5.91351
Si 1.55004 6.58205 9.00656
Si 3.86018 1.63428 9.01712
Si 1.06906 2.27253 7.29212
Si 4.0959 6.73145 7.45457
O 1.16118 5.63824 10.1446
O 3.56109 0.307882 10.1271
O 2.32334 1.65032 8.22183
O 5.29149 7.09248 8.37991
O 1.18395 0.850365 6.38381
O 4.65683 5.50936 6.29001
O 1.28254 3.57125 6.52216
O 3.70604 7.80115 6.26361
O 2.96971 6.28219 8.32133
O 5.07029 1.93618 8.08363
O 1.98688 7.85803 9.87953
O 4.2494 2.75725 10.219
Si 5.42433 4.32096 5.48786
Si 7.83331 17.4979 5.49397
Si 6.41973 6.35713 9.15202
Si 8.63327 2.40051 9.79716
Si 6.60214 2.25425 7.59963
Si 9.00904 6.35569 7.40381
O 5.67056 4.96104 9.82001
O 8.2537 1.31946 10.8278
O 7.41202 2.49982 8.89246
O 10.4124 6.21534 8.02917
O 7.01986 0.864731 6.75306
O 9.05589 5.34921 6.19574
O 6.37813 3.27782 6.42757
O 8.69454 7.76035 6.8084
O 7.81555 6.00007 8.47512
O 9.68385 1.94388 8.5396
O 6.74964 7.4813 10.3379
O 9.2267 3.81689 10.0612
Si 10.0015 4.19497 5.47426
Si 12.1419 0.0220852 5.53601
Si 11.6712 6.43515 9.0115
Si 13.8753 2.49074 9.26608
Si 10.9727 2.19183 7.53355
Si 14.2225 6.65295 6.91159
O 11.4567 5.0188 9.87936
O 13.7798 1.21204 10.3069
O 12.3094 2.38112 8.34311
O 0.342969 6.78049 7.95993
O 11.0598 0.9244 6.43921
O 14.738 5.36598 6.1824
O 10.9282 3.5305 6.54272
O 13.907 7.94105 6.13854
O 12.8634 6.46959 7.9114
O 14.7652 2.52554 8.02346
O 11.8786 7.5961 10.1608
O 14.492 3.59453 10.407
Si 0.00624347 12.8668 5.3678
Si 2.59947 8.88729 5.67592
Si 0.731169 14.9431 9.14442
Si 3.57044 11.2953 9.12785
Si 1.14615 10.7892 7.20356
Si 3.32373 15.1097 7.9803
O 0.509282 14.0912 10.4758
O 3.60499 10.0731 10.2409
O 2.08829 11.4353 8.33377
O 4.62636 15.3019 8.88077
O 1.72411 9.37868 6.79411
O 3.85176 14.0607 6.74837
O 0.940096 11.6584 6.08399
O 2.86687 16.4356 7.28445
O 1.91496 14.4715 8.28879
O 4.8225 10.7281 8.25442
O 1.16085 16.3802 9.72708
O 3.989 12.6134 9.87131
Si 4.73756 13.2577 5.83466
Si 7.8459 8.61492 5.81483
Si 6.00142 15.4738 9.52294
Si 8.72424 10.9655 9.04855
Si 6.17845 10.833 7.44708
Si 8.63044 14.8628 7.53013
O 5.89654 14.394 10.7025
O 8.41614 9.59671 9.92683
O 7.33205 11.2481 8.3368
O 9.6503 15.3964 8.63376
O 6.67886 9.55585 6.76965
O 9.02956 13.512 6.87446
O 5.79393 12.0627 6.49081
O 8.26967 15.8238 6.24969
O 7.27431 15.0586 8.64627
O 9.965 10.5201 8.20549
O 6.48908 16.9522 10.0161
O 9.29836 12.1854 9.94275
Si 10.1066 12.9596 5.44519
Si 12.3531 8.53468 5.41551
Si 11.1107 15.2848 9.25097
Si 13.6927 11.2259 9.1762
Si 11.2288 10.7494 7.26145
Si 13.4705 15.0216 7.34246
O 11.0805 14.147 10.4243
O 13.513 9.85867 9.94539
O 12.3371 11.4192 8.06128
O 14.472 15.1196 8.48207
O 11.8395 9.56289 6.57139
O 14.1707 13.7101 6.65754
O 10.9024 11.7379 6.03458
O 13.0926 16.413 6.39159
O 12.1602 14.8187 8.12668
O 14.9605 10.8555 8.18647
O 11.8996 16.7741 9.5533
O 13.8872 12.2952 10.3714
Si 0.352978 4.55358 11.2724
Si 2.28441 17.0612 10.7928
Si 1.55209 6.48339 14.6683
Si 3.82079 2.48837 14.8085
Si 1.52853 2.11327 12.5389
Si 4.0744 6.66646 12.574
O 1.34877 5.10314 15.5828
O 3.13707 1.14089 15.4984
O 2.99189 2.14589 13.2871
O 5.35005 7.10395 13.5213
O 1.58375 0.771303 11.6652
O 3.89845 5.25691 11.7529
O 1.45484 3.6347 11.9674
O 3.74907 8.01228 11.7792
O 2.75345 6.55002 13.7068
O 5.5466 2.47007 14.5907
O 1.7688 7.56319 15.8032
O 3.87883 3.66287 15.9689
Si 4.73647 4.1753 10.9049
Si 7.42253 0.155662 11.3083
Si 6.69874 6.54638 14.5514
Si 8.79553 2.23349 14.39
Si 6.18797 2.433 13.1038
Si 9.26586 6.79 12.6688
O 6.02029 5.42355 15.4272
O 8.36617 0.88103 15.1701
O 7.70408 2.86307 13.3247
O 10.3079 6.77191 13.8729
O 6.36281 0.845767 12.4038
O 9.75081 5.92002 11.4867
O 5.35957 3.38586 12.1998
O 8.7368 8.00884 11.8206
O 7.9588 6.29931 13.5823
O 10.3457 1.9824 13.5893
O 7.1213 7.76179 15.6491
O 9.23135 3.30322 15.4716
Si 10.4071 4.6497 10.9452
Si 12.8243 17.4629 10.7477
Si 11.4372 6.64773 14.9569
Si 14.0439 2.34778 14.5418
Si 11.6243 2.3415 12.5635
Si 14.1609 6.76078 12.9438
O 10.9774 5.29718 15.7134
O 13.4852 1.1836 15.5829
O 12.8838 2.55138 13.4538
O 0.338929 7.06397 13.8362
O 11.9261 0.892494 11.7746
O 14.7098 5.54316 12.1865
O 11.2835 3.68755 11.9912
O 13.8006 7.94652 11.881
O 12.8564 6.47337 14.0604
O 0.439173 2.13952 13.8339
O 11.5736 8.02178 15.7628
O 14.2865 3.62473 15.4509
Si 14.8501 13.055 11.2911
Si 2.79019 8.83779 10.9303
Si 0.815837 15.1679 14.6853
Si 3.88192 10.767 14.6212
Si 1.2018 10.849 12.753
Si 3.27167 14.9279 12.9042
O 0.788814 14.1545 15.9098
O 3.30986 9.64197 15.5705
O 2.41128 11.0263 13.655
O 4.40948 15.5783 14.0187
O 1.53857 9.43752 11.8412
O 3.97847 13.7101 12.1623
O 0.687772 12.041 12.0048
O 2.93786 15.8934 11.6425
O 1.97689 14.4897 13.6039
O 4.78948 10.5021 13.3758
O 1.51027 16.3626 15.4277
O 4.45546 11.9718 15.1897
Si 5.0006 13.1513 11.1854
Si 7.58177 8.75133 10.9912
Si 5.82799 15.3594 14.7735
Si 8.70142 10.6567 14.5948
Si 6.20681 10.8313 12.7098
Si 8.38245 14.9699 12.8165
O 5.4288 14.1878 15.9578
O 8.5104 9.88516 16.0706
O 7.40605 10.7904 13.7579
O 9.61528 15.3466 13.9457
O 6.61536 9.62697 11.7441
O 8.94025 13.8908 11.9457
O 6.00639 12.1315 11.8518
O 8.14935 16.182 11.9235
O 6.90955 14.9643 13.669
O 9.99698 10.3154 13.7428
O 6.46557 16.4493 15.6934
O 9.06235 12.1033 15.2786
Si 10.0485 13.1231 11.1104
Si 12.834 8.78287 11.0856
Si 11.0486 15.1399 14.7012
Si 13.7684 11.1002 14.7194
Si 11.3096 10.8247 12.9358
Si 13.4424 15.2447 12.7843
O 10.8552 13.97 15.8198
O 13.4747 10.0363 15.7855
O 12.4954 11.3938 13.753
O 14.4759 15.5194 14.1579
O 12.0787 9.50073 12.2891
O 14.0439 14.0022 12.3485
O 10.7969 12.0587 12.0533
O 13.3097 16.1567 11.373
O 12.0388 14.774 13.5688
O 14.9733 10.7143 13.7732
O 11.6117 16.6683 15.3262
O 14.1213 12.4165 15.7529
324
 Atoms. Timestep: 22000
Si 14.9924 4.47848 16.4032
Si 2.46191 0.319153 0.182802
Si 1.23521 6.34417 3.64264
Si 3.95218 2.16893 3.37763
Si 1.30356 2.60701 1.94855
Si 4.00788 6.50993 1.98041
O 0.63472 5.21413 4.66979
O 3.53308 0.947179 4.08643
O 2.65432 2.87631 2.52294
O 4.91028 6.44089 3.35719
O 1.2828 1.27977 1.21775
O 4.47515 5.49942 0.816985
O 0.826484 3.90245 1.05197
O 3.73715 7.91317 1.17352
O 2.70088 6.01751 2.82626
O 5.14062 2.12433 2.3068
O 1.5696 7.53844 4.7127
O 4.22115 3.41068 4.38804
Si 5.56282 4.49103 0.0752868
Si 7.24571 17.3815 16.269
Si 6.46701 6.0603 3.81296
Si 8.89064 1.99847 3.52113
Si 6.53343 2.21552 1.57113
Si 8.73839 6.71297 1.69209
O 6.15634 4.85705 4.64061
O 8.45051 0.870922 4.57759
O 7.79332 2.1471 2.44656
O 9.99471 6.93513 2.6401
O 6.29573 1.12804 0.432499
O 9.49433 5.65739 0.551843
O 6.4759 3.79917 1.08346
O 8.12707 7.85223 0.830763
O 7.55789 6.02359 2.57741
O 10.1406 2.30261 2.65749
O 7.24242 7.23635 4.62987
O 8.93838 3.19954 4.4976
Si 10.2026 4.35097 16.5396
Si 12.6226 0.265468 0.339414
Si 11.1999 6.45891 3.5992
Si 13.8682 2.27663 3.95199
Si 11.4471 2.74144 2.08365
Si 13.8272 6.69296 1.64758
O 10.5365 5.11856 4.1412
O 13.7695 0.806589 4.79654
O 12.4709 2.71476 3.27043
O 0.260682 6.85863 2.2821
O 12.2413 1.44021 1.18145
O 14.1548 5.48859 0.683039
O 11.3883 3.91822 0.929682
O 13.1514 7.99366 1.01532
O 12.6381 6.21697 2.80109
O 0.188591 2.39551 3.03632
O 11.8026 7.5603 4.71871
O 14.2262 3.16434 5.22386
Si 14.8163 12.8811 0.077063
Si 2.78901 8.75018 0.0899122
Si 1.08658 14.9571 3.68687
Si 3.55173 10.648 3.77956
Si 1.18196 10.8495 1.75554
Si 3.61179 15.4652 2.00568
O 0.606779 14.1574 5.09509
O 3.52976 9.236 4.48136
O 2.24236 11.0675 2.82522
O 4.89991 15.8175 2.89166
O 1.78854 9.71535 0.801096
O 4.19247 14.4631 0.764393
O 0.814965 12.1444 0.890214
O 2.73166 16.788 1.4533
O 2.44896 14.6319 2.80371
O 4.7151 10.5335 2.62839
O 1.87028 16.3572 4.23072
O 3.77113 11.8572 4.73503
Si 4.95919 13.1945 0.212352
Si 7.15632 8.68599 16.3796
Si 6.05712 14.9667 3.57539
Si 8.57004 11.1158 3.81839
Si 6.07864 10.9282 1.88387
Si 8.476 15.3896 1.86007
O 5.23545 13.727 4.07624
O 8.47333 9.63651 4.47582
O 7.17187 11.0975 3.13404
O 9.48313 16.1247 2.8663
O 6.33445 9.71609 0.78531
O 9.18777 14.2595 0.887629
O 5.67021 12.2476 1.11569
O 7.68934 16.477 1.01837
O 7.3753 14.7075 2.85191
O 9.98252 11.3018 2.6834
O 6.53941 16.1389 4.90955
O 8.87954 12.2892 4.85747
Si 10.0256 13.2512 16.4814
Si 12.1956 8.75704 16.5311
Si 11.0199 15.736 3.72594
Si 13.6562 10.7705 3.5054
Si 11.1616 11.0695 1.7031
Si 13.4788 15.1143 1.93096
O 10.6917 14.3621 4.7304
O 13.4915 9.56373 4.35243
O 12.5405 11.0685 2.44849
O 14.8386 15.1049 2.98103
O 11.2179 9.55857 0.865904
O 13.9093 13.8326 0.996694
O 10.9621 12.3097 0.707012
O 13.4986 16.5476 1.3201
O 11.9676 15.2664 2.66579
O 14.8871 10.6018 2.62052
O 11.6451 16.6945 4.65427
O 14.0322 12.1667 4.54011
Si 15.0469 4.41157 5.71479
Si 2.79822 17.3793 5.02278
Si 0.969527 6.56049 9.21063
Si 4.13768 1.91602 9.30509
Si 1.76803 2.18421 7.04288
Si 3.48203 6.1835 7.49284
O 0.751453 5.36006 10.2619
O 3.45894 0.960796 10.2286
O 2.84114 2.28908 8.3332
O 4.7493 6.1991 8.53942
O 2.05225 0.985277 6.16194
O 3.72074 5.14562 6.26246
O 1.26142 3.4123 6.25318
O 3.3855 7.60259 6.70083
O 2.07744 6.05191 8.17809
O 5.33536 1.38633 8.48017
O 1.68038 7.86649 10.0368
O 4.72468 3.32331 10.0729
Si 4.81099 4.27815 5.54276
Si 7.66266 17.1341 5.5389
Si 6.37372 6.42096 9.14084
Si 8.98269 2.27617 9.15352
Si 6.3596 2.03003 7.35974
Si 8.58651 6.49699 7.2179
O 6.36504 5.39787 10.5569
O 8.63319 0.926579 9.92352
O 7.79438 2.67182 8.15149
O 9.78639 6.58994 8.30914
O 6.92302 0.816539 6.46392
O 8.85891 5.38681 6.02285
O 5.39633 3.08237 6.53012
O 8.47804 8.06128 6.57594
O 7.18902 6.07198 7.89998
O 10.4115 2.06909 8.4778
O 7.12993 7.8327 9.63903
O 9.05635 3.36493 10.2608
Si 9.78971 4.3385 5.20226
Si 12.7346 17.3867 5.53565
Si 11.1528 6.40851 8.99575
Si 14.1235 2.10017 8.62297
Si 11.299 2.33012 7.22884
Si 13.7962 6.8363 7.42171
O 10.9428 5.07208 10.0632
O 13.4042 0.951492 9.6188
O 12.8253 2.50058 7.80159
O 14.682 7.26077 8.55062
O 11.6343 1.1276 6.21214
O 14.3183 5.40716 6.65317
O 10.6866 3.7636 6.47651
O 13.8105 7.75673 6.25106
O 12.4403 6.33394 8.06515
O 0.340353 1.88856 7.76575
O 11.8112 7.64815 9.87343
O 14.4667 3.16676 9.79182
Si 14.8871 13.0625 5.70183
Si 2.62265 8.45846 5.62545
Si 0.976337 15.5095 9.31946
Si 3.831 10.8791 9.23051
Si 1.50381 10.7733 7.42136
Si 3.70146 15.4878 7.26519
O 0.798969 14.1133 10.2985
O 3.27859 9.94947 10.2808
O 2.8038 11.2396 8.02688
O 4.55004 15.3426 8.60603
O 2.14281 9.63849 6.4167
O 4.08093 14.1015 6.52416
O 0.612308 11.8792 6.54014
O 3.44133 16.5752 6.17474
O 2.09526 15.4831 8.1168
O 5.18811 10.3749 8.57148
O 1.57905 16.5628 10.2444
O 4.25257 12.3484 9.80348
Si 4.77702 13.0143 5.34377
Si 7.39209 8.69149 5.43839
Si 6.11336 15.3797 9.2883
Si 8.7908 11.0764 8.98527
Si 6.13427 10.8935 7.26611
Si 8.56258 15.1335 7.61167
O 6.03865 14.0498 10.1208
O 8.48851 9.87703 10.1348
O 7.67067 11.0621 7.96474
O 9.50947 15.4919 8.90565
O 6.43049 9.71958 6.08716
O 9.33986 13.9516 6.91986
O 5.63226 12.0633 6.37464
O 8.57668 16.3034 6.46566
O 6.93515 14.9775 8.09291
O 10.2883 11.051 8.27387
O 6.56654 16.6799 10.2377
O 8.67579 12.309 10.2409
Si 9.97301 13.1861 5.57268
Si 12.5874 8.53374 5.47469
Si 11.0241 15.0085 9.43348
Si 13.9039 10.6445 9.26428
Si 11.3317 10.94 7.07708
Si 13.4331 15.0398 7.56592
O 10.7925 13.5469 10.0373
O 13.2978 9.58007 10.385
O 12.8582 10.8323 8.16326
O 14.4971 15.6204 8.71135
O 11.6077 9.36595 6.3154
O 13.8229 13.7584 6.6063
O 10.8712 11.9365 6.08417
O 13.3127 16.3711 6.7257
O 12.0593 14.8014 8.26838
O 0.345534 10.4601 8.90915
O 11.5211 16.3899 10.1921
O 14.0568 12.067 9.98783
Si 0.0911971 4.09021 10.9944
Si 2.79293 17.3249 11.1806
Si 1.56229 6.51434 14.631
Si 3.73336 2.46807 14.9675
Si 1.47048 2.1405 13.0395
Si 3.95759 6.42968 12.6116
O 0.925974 5.2645 15.2781
O 3.15552 1.34328 15.8655
O 2.48644 2.82485 14.0547
O 5.58735 6.50943 13.2383
O 1.93858 0.747394 12.3858
O 4.04492 5.1849 11.7479
O 1.11578 3.25957 11.8368
O 3.41483 7.72653 11.9094
O 3.07791 6.23284 13.9618
O 4.97524 1.8748 14.1531
O 2.22527 7.63043 15.7321
O 4.54488 3.47843 15.9599
Si 5.39238 4.38753 11.2533
Si 7.6192 0.226876 10.9581
Si 6.57744 6.48239 14.4762
Si 9.02975 2.08444 14.9739
Si 6.29856 2.05607 13.1988
Si 9.23921 6.81944 13.019
O 6.36463 5.22959 15.4427
O 8.50628 0.78474 15.7412
O 7.71192 2.16038 13.9625
O 10.6749 6.87484 13.7834
O 6.70931 1.03178 11.995
O 9.59622 5.69935 11.8823
O 6.16202 3.30214 12.1721
O 8.71452 7.94328 12.0502
O 8.09545 6.41554 14.0468
O 10.1341 1.97886 13.9363
O 6.42359 7.87683 15.2645
O 9.36811 3.16595 15.9922
Si 10.0519 4.44915 11.0812
Si 12.5593 0.0574735 10.7775
Si 11.6553 6.26916 14.7682
Si 13.832 2.02167 14.8618
Si 11.4444 2.30262 12.855
Si 14.1506 6.38827 12.6198
O 11.0851 4.86128 15.2526
O 13.6528 0.67324 15.8312
O 12.6274 2.4001 14.0567
O 0.404405 6.80633 13.4118
O 12.0199 1.12155 11.8937
O 14.1537 4.87675 11.9279
O 10.8958 3.63736 12.097
O 13.644 7.45308 11.7505
O 13.0601 6.21355 13.8808
O 15.0719 1.98385 13.7335
O 11.9669 7.31718 15.9341
O 14.1779 3.23354 15.8339
Si 14.8904 13.097 11.0857
Si 2.50246 8.91908 11.0853
Si 1.40208 15.1855 14.9835
Si 3.98215 10.768 14.7775
Si 1.17671 10.9879 12.9734
Si 3.68022 15.0946 12.7461
O 0.801779 13.9895 15.8159
O 3.67397 9.51337 15.5738
O 2.63718 10.9424 13.8479
O 5.16727 15.0794 13.5818
O 1.32822 9.84831 11.7902
O 4.01276 13.814 11.9471
O 0.599441 12.2895 12.206
O 3.52686 16.215 11.7695
O 2.47223 14.857 13.886
O 5.10516 10.8455 13.8326
O 1.91749 16.5628 15.8314
O 3.9684 12.055 16.0247
Si 5.04022 13.0199 10.9334
Si 7.67981 8.87844 10.8458
Si 6.32961 15.1066 14.4614
Si 8.96704 10.9014 14.7619
Si 6.45951 11.0213 12.7996
Si 8.73176 15.3384 12.8445
O 6.0175 13.7547 15.7553
O 8.26538 9.58108 15.3883
O 7.808 11.2741 13.5372
O 9.77996 16.0601 14.143
O 6.55752 9.61705 11.7554
O 9.54148 13.9988 12.3068
O 5.94474 12.0143 11.8235
O 8.55978 16.3924 11.7659
O 7.58797 14.7271 13.6326
O 10.3391 10.4434 14.1384
O 6.72134 16.5227 15.1452
O 9.22885 12.3011 15.4526
Si 9.85006 12.7695 11.2176
Si 12.6101 8.35349 10.9653
Si 11.1978 15.7062 14.862
Si 13.6687 10.7044 14.6584
Si 11.3064 10.5566 12.8747
Si 13.8072 15.4095 12.9375
O 10.9088 14.3618 15.7712
O 12.7379 9.70105 15.5187
O 12.7627 11.0167 13.357
O 15.0244 15.4512 13.931
O 11.4881 9.19905 12.0947
O 13.8534 14.1059 12.0207
O 10.478 11.5505 11.8686
O 13.7487 16.6274 11.7584
O 12.5515 15.588 13.9753
O 0.0986644 10.4916 14.1721
O 11.4398 16.8318 16.024
O 13.8203 12.0516 15.7682
324
 Atoms. Timestep: 22500
Si 14.642 4.51203 16.4782
Si 2.50387 0.143595 0.249247
Si 1.27104 6.24737 3.59083
Si 3.61656 2.27087 3.54687
Si 1.14093 2.48079 1.98902
Si 3.69172 6.50443 1.42977
O 0.689067 5.01944 4.50973
O 3.1123 1.06267 4.41488
O 2.35834 3.0222 2.80248
O 5.07144 6.91324 2.27018
O 1.77046 1.65352 0.954836
O 4.08321 5.02904 0.746661
O 0.321058 3.54642 0.888768
O 3.26279 7.65275 0.528386
O 2.3392 6.23321 2.31396
O 4.73062 1.80729 2.55929
O 1.79621 7.3268 4.70494
O 4.17295 3.57398 4.39499
Si 5.10658 4.24374 16.4711
Si 7.35243 17.1362 0.183649
Si 6.04427 6.62605 3.64662
Si 8.77178 1.98744 3.72318
Si 6.18384 2.11881 1.70511
Si 8.71487 6.73795 1.53712
O 5.64934 5.55752 4.66799
O 8.26558 0.567488 4.27764
O 7.50883 2.21077 2.61825
O 10.1196 7.02818 2.39314
O 6.37184 0.832658 0.940097
O 9.10436 5.4044 0.813812
O 6.21506 3.45387 0.86611
O 8.24781 8.10139 0.954801
O 7.35687 6.42172 2.5687
O 10.1326 1.90309 2.86067
O 6.59121 7.86596 4.4466
O 8.93299 3.18171 4.73351
Si 10.0619 4.34834 16.5069
Si 12.6689 0.141776 0.280529
Si 11.0352 6.5617 3.52228
Si 13.7162 2.32977 3.94493
Si 11.3249 2.446 2.12967
Si 13.6949 6.69974 1.76227
O 10.2994 5.5095 4.54132
O 12.9733 0.829338 4.29747
O 12.5942 2.84306 2.95324
O 15.1003 6.70458 2.75903
O 11.6657 1.00692 1.32471
O 13.9485 5.72164 0.692952
O 10.8068 3.60892 1.10358
O 13.256 8.02788 1.2362
O 12.3796 6.27261 2.96337
O 15.0286 2.06581 3.16405
O 11.4188 7.98095 4.77009
O 14.0596 3.28562 5.09329
Si 0.171187 13.049 0.125065
Si 2.30236 8.78636 16.3741
Si 1.16508 15.4415 3.60801
Si 3.4326 10.9691 3.69844
Si 1.2087 10.7377 1.92072
Si 3.66237 15.2084 1.78155
O 1.07551 14.1976 4.55739
O 2.9568 9.69757 4.56416
O 2.52822 11.14 2.57501
O 5.02995 15.2685 2.86709
O 1.40536 9.57158 0.798023
O 4.569 14.5244 0.743917
O 0.898621 12.1276 1.08543
O 3.24035 16.6996 1.33692
O 2.40934 14.9086 2.56745
O 4.93697 10.8994 2.98721
O 1.43126 16.8413 4.414
O 3.90252 12.2043 4.55018
Si 5.24139 13.4113 16.3225
Si 7.34935 9.1385 0.177001
Si 6.26328 15.1112 3.90558
Si 8.81253 11.0811 3.65165
Si 6.13726 11.2726 1.94351
Si 8.60803 14.7965 2.02156
O 5.84948 13.8663 4.89832
O 8.51246 9.47196 4.13666
O 7.4079 11.525 2.86886
O 10.0392 15.0774 2.493
O 6.4349 10.0017 0.995499
O 8.62646 13.7814 0.810298
O 5.97538 12.5098 1.03675
O 7.9903 16.0334 1.14523
O 7.65003 14.69 3.42124
O 10.0098 11.2343 2.64369
O 6.54884 16.2526 4.95245
O 8.84638 12.0677 4.75798
Si 9.99602 13.4219 16.2895
Si 12.4926 8.91453 16.4693
Si 11.2934 15.021 3.509
Si 13.7602 10.9396 3.89952
Si 11.4195 11.3492 1.64291
Si 13.7701 15.143 1.83867
O 10.6391 13.7884 4.48166
O 13.2172 9.55681 4.62803
O 12.6155 11.3217 2.76254
O 15.0096 15.7204 2.9122
O 11.6527 10.1216 0.691012
O 14.3433 14.0909 0.860337
O 11.0129 12.6052 0.828939
O 13.3352 16.4453 1.18904
O 12.6312 14.5509 2.85258
O 0.141171 10.6797 3.14269
O 11.5724 16.2386 4.5886
O 14.2246 12.2582 4.79451
Si 14.9614 4.39132 5.85851
Si 2.35935 0.178582 5.46842
Si 1.02985 6.45416 9.46689
Si 4.11181 2.15285 9.33777
Si 1.41455 2.32658 7.55677
Si 3.47424 6.36582 7.47184
O 0.733412 5.14587 10.2318
O 3.72463 0.998563 10.4055
O 2.91512 2.42452 8.35187
O 4.673 6.34128 8.59254
O 1.81281 1.01927 6.62105
O 4.01099 5.12285 6.71875
O 0.934973 3.73835 6.97277
O 3.33115 7.64814 6.51851
O 2.08862 6.33446 8.33876
O 5.42236 1.69896 8.32885
O 1.45391 7.72308 10.4048
O 4.45485 3.58242 9.99662
Si 4.90818 4.48323 5.63298
Si 7.62854 17.172 5.3226
Si 6.11445 6.31879 9.20471
Si 9.27533 2.00492 8.90528
Si 6.46856 2.05935 7.17355
Si 8.7399 6.65659 7.41588
O 6.38716 5.03021 10.0231
O 8.78508 0.64288 9.75259
O 7.85383 2.2027 7.97829
O 9.6981 6.51477 8.56973
O 6.5613 0.969168 6.10714
O 8.99591 5.24758 6.7734
O 5.88773 3.58167 6.4762
O 8.6762 7.88215 6.36024
O 7.2134 6.57816 7.97348
O 10.7335 1.98438 8.32539
O 6.33215 7.55811 10.2273
O 9.31941 3.35064 9.97205
Si 9.74004 4.37398 5.61024
Si 12.4456 17.2899 5.34662
Si 11.0991 6.24423 9.21177
Si 14.009 2.10168 9.22962
Si 11.8499 2.22175 7.10152
Si 13.4807 6.54733 7.63415
O 10.6663 5.63358 10.6135
O 13.092 0.941727 9.88353
O 13.1182 2.57349 7.94393
O 14.762 6.97408 8.63767
O 11.7543 0.966142 6.26321
O 13.9954 5.34613 6.6918
O 10.7611 3.2629 6.19403
O 13.0922 7.80198 6.81824
O 12.2397 5.72677 8.53306
O 0.231551 1.93259 8.44554
O 11.7303 7.72353 9.71921
O 14.3532 2.96864 10.5471
Si 0.272761 13.1543 5.65997
Si 2.24632 8.56207 5.65417
Si 1.26102 15.615 9.15337
Si 3.93278 10.3354 8.94305
Si 1.06019 10.6543 7.46109
Si 3.62325 15.1199 7.00099
O 1.12234 14.1569 10.1648
O 3.70627 9.11483 10.0141
O 2.50672 10.3814 8.22478
O 5.12263 15.5637 7.67756
O 1.16349 9.40891 6.20409
O 3.70733 13.7525 6.44072
O 0.701067 11.9412 6.81536
O 3.12893 16.1762 5.69591
O 2.46109 15.1019 8.22743
O 5.33917 9.84119 8.04911
O 1.56784 16.8905 10.0831
O 4.18646 11.7627 9.75414
Si 4.87462 12.9855 5.70058
Si 7.71436 8.6103 5.24193
Si 6.04555 15.3272 9.08974
Si 8.80059 10.7175 9.24806
Si 6.25096 10.6999 7.18111
Si 8.80342 15.2997 7.83575
O 5.26408 14.1669 9.81957
O 8.22587 9.57668 10.125
O 7.4989 11.2403 8.23512
O 10.2317 15.6219 8.5705
O 7.05454 9.76756 6.12525
O 8.81596 14.3547 6.44731
O 5.35287 11.9619 6.99279
O 8.34689 16.5999 6.87983
O 7.63527 15.1531 8.96374
O 10.0387 10.3425 8.12908
O 6.1946 16.8923 9.89399
O 9.22889 11.8578 10.1751
Si 9.85625 12.9548 5.65671
Si 12.3138 8.74213 5.7774
Si 11.6763 15.1261 9.09408
Si 13.9183 11.0779 9.51835
Si 11.3234 11.0681 7.60889
Si 14.0206 15.4731 6.95075
O 11.2202 13.6717 9.76177
O 13.3048 9.74964 10.5718
O 12.373 11.4198 8.69183
O 0.0636412 15.7479 8.10317
O 11.9825 9.93329 6.72498
O 14.3781 14.1837 6.18149
O 10.7333 12.3234 6.8106
O 13.6628 16.7567 6.10756
O 12.6828 15.2093 7.93209
O 14.816 10.5685 8.30031
O 11.7913 16.0747 10.4654
O 14.5748 12.2327 10.2693
Si 0.0251558 4.0328 11.3384
Si 2.68454 0.0728916 11.1365
Si 1.42436 6.33499 14.4786
Si 4.07934 1.9087 14.6811
Si 1.2483 2.25965 13.2515
Si 4.02567 6.33531 12.8806
O 0.900656 5.26384 15.6368
O 3.54543 0.706068 15.7564
O 2.65964 2.43351 14.0443
O 5.0375 7.22182 14.0419
O 1.75549 0.936493 12.2695
O 4.97213 5.3909 12.1412
O 1.23106 3.36438 12.2448
O 3.30925 7.4561 11.9162
O 2.68029 5.85221 13.6397
O 5.0287 1.14207 13.5423
O 1.67705 7.83308 15.1956
O 4.6594 3.11459 15.4101
Si 5.40217 4.2107 11.066
Si 7.55448 17.2687 10.61
Si 6.41271 6.85908 14.8224
Si 8.90923 1.81159 14.9165
Si 6.54677 1.81965 12.7016
Si 8.7107 6.25006 12.7224
O 6.10939 5.49014 15.7178
O 8.3952 0.749881 16.002
O 7.48357 2.11195 13.9289
O 9.86593 6.82804 13.8064
O 7.08546 0.94884 11.6875
O 8.90208 4.784 12.2389
O 5.9262 3.14668 12.0662
O 8.32563 7.40594 11.5724
O 7.33645 6.38212 13.6713
O 10.0893 1.41905 13.8667
O 6.94215 8.07348 15.6074
O 9.20538 3.26156 15.5033
Si 9.94505 4.35005 11.0896
Si 12.448 17.3437 10.9277
Si 11.1287 6.77113 14.678
Si 13.6258 2.35314 14.9455
Si 11.2674 1.97231 12.8238
Si 13.8072 6.34779 12.7207
O 10.9848 5.49531 15.6911
O 13.4179 1.35892 16.1062
O 12.3673 2.21149 13.9359
O 0.130754 6.31493 13.4447
O 11.3971 1.08916 11.5625
O 14.0455 4.86282 11.971
O 10.9751 3.31165 12.0264
O 13.6924 7.4967 11.6125
O 12.5729 6.43825 13.7577
O 14.9059 1.98525 13.9403
O 11.4082 8.10813 15.5271
O 13.7528 3.73397 15.5928
Si 0.37999 13.1908 11.1723
Si 2.64809 8.52235 11.1737
Si 1.49249 15.3474 14.8071
Si 3.81727 11.1339 14.8645
Si 1.31368 10.8996 12.924
Si 4.0381 15.2044 12.8938
O 1.08844 14.108 15.5969
O 3.43696 9.97932 16.025
O 2.38435 11.3566 14.0185
O 5.63295 15.2555 13.4348
O 1.89008 9.72303 12.031
O 3.91119 13.6639 11.809
O 0.990669 12.2476 12.1449
O 3.62241 16.2657 11.8676
O 3.05877 15.3044 14.1792
O 4.83556 10.6753 13.6135
O 1.57333 16.6033 15.8969
O 4.33337 12.4451 15.6796
Si 4.81876 12.8354 10.621
Si 7.32273 8.57729 11.0185
Si 6.65459 15.4517 14.5283
Si 8.88784 11.0076 14.7312
Si 6.33388 10.9367 13.0119
Si 9.18432 15.3604 12.5958
O 6.22192 14.2739 15.3984
O 8.34363 10.1685 15.9837
O 7.29856 11.3358 14.0867
O 10.6895 15.4453 13.4577
O 6.81621 9.65982 12.1805
O 9.63942 14.0534 11.7533
O 5.92393 12.0964 11.7979
O 8.52332 16.413 11.6534
O 8.05257 15.0376 13.7464
O 9.93734 10.3636 13.5588
O 6.59913 16.6613 15.4579
O 9.37598 12.4457 15.1066
Si 10.4221 12.7726 10.857
Si 12.503 8.43815 10.926
Si 11.8793 15.3819 14.6453
Si 13.9847 10.7494 14.5567
Si 11.4143 10.5749 12.7387
Si 14.1476 15.6759 12.7648
O 11.1097 14.4356 15.8008
O 13.6955 9.37904 15.4174
O 12.7496 11.1093 13.6599
O 0.573947 15.7701 13.4806
O 11.4686 9.16478 12.0451
O 14.4125 14.242 11.8313
O 11.3704 11.9127 11.7834
O 13.361 16.8965 12.0139
O 13.1314 15.1627 13.7127
O 0.106981 10.3267 13.606
O 12.0161 16.6606 15.6693
O 14.2501 11.9239 15.6545
324
 Atoms. Timestep: 23000
Si 14.9793 4.59603 0.057299
Si 3.23047 0.188658 -0.0674401
Si 1.06989 6.41736 3.84784
Si 3.5641 2.34231 3.87377
Si 1.25044 1.99759 1.51874
Si 3.31009 6.21202 1.64659
O 0.633363 5.17308 4.59927
O 2.98216 1.16434 4.80694
O 2.30342 2.38929 2.60888
O 4.55882 6.93718 2.34392
O 1.66978 1.20564 0.33607
O 3.73307 4.77365 1.00253
O 0.659384 3.56849 0.898892
O 3.01873 7.46969 0.490941
O 2.0059 5.8483 2.64991
O 4.90894 1.86327 2.99072
O 1.81515 7.41556 4.77013
O 4.14508 3.6722 4.61815
Si 5.09644 4.40272 0.205827
Si 7.72935 17.4239 0.239835
Si 5.96581 6.89162 3.43233
Si 8.73167 2.32034 3.84934
Si 6.25369 2.25396 2.05254
Si 8.67672 6.91788 1.79017
O 5.46188 5.86744 4.55257
O 8.18614 1.0349 4.62263
O 7.63781 2.75425 2.79312
O 9.67815 6.50466 3.06601
O 6.67662 0.940344 1.2985
O 8.87752 5.57755 0.850964
O 5.98049 3.4562 1.09584
O 8.82076 8.10201 0.870461
O 7.20884 6.69801 2.45736
O 9.83044 1.76004 2.78957
O 6.26086 8.11507 4.22965
O 9.52863 3.39325 4.72689
Si 9.77317 4.6262 16.5044
Si 12.4321 0.217175 16.4829
Si 11.0919 6.19521 3.84203
Si 13.8382 1.98448 3.18409
Si 10.8725 2.01148 1.70779
Si 13.6219 6.42218 1.94978
O 11.195 5.07091 5.0238
O 13.5683 0.811812 4.25128
O 12.3798 2.28315 2.44244
O 14.7537 6.77003 2.94699
O 11.1776 0.874738 0.628115
O 13.9111 5.22118 1.07614
O 10.2786 3.34427 0.886424
O 13.3702 7.79042 0.831325
O 12.1082 6.0403 2.72933
O 14.9268 1.54794 2.13579
O 11.4394 7.84363 4.57778
O 14.2403 3.23787 4.11178
Si -0.0955679 13.1 16.5471
Si 2.56933 8.64916 16.176
Si 1.52306 14.9756 3.28206
Si 3.78482 10.7812 3.558
Si 1.28761 10.7552 1.67587
Si 4.06224 15.3731 1.78628
O 1.06489 13.5584 4.03619
O 3.5154 9.30647 4.26969
O 2.5502 10.9547 2.5238
O 5.40323 15.8454 2.71156
O 1.66416 9.65595 0.438424
O 4.24319 14.0617 0.824633
O 0.556487 12.1129 0.972
O 3.56719 16.9035 1.30422
O 2.81213 14.9696 2.614
O 5.14514 10.8417 2.75646
O 1.67249 16.356 4.5294
O 4.0728 12.0208 4.81751
Si 5.20671 13.1029 16.3851
Si 7.6354 8.74926 16.6362
Si 6.43264 15.3847 3.79724
Si 8.98769 10.8977 3.8014
Si 6.67069 11.1917 1.91528
Si 8.89703 15.0573 1.98463
O 5.72846 14.0295 4.59713
O 8.6373 9.4819 4.48955
O 7.65125 11.3172 3.05821
O 10.2234 15.1447 2.99823
O 7.09827 9.78016 1.03381
O 9.4624 14.1534 0.763275
O 6.13818 12.2515 0.84284
O 8.52161 16.4942 1.42946
O 7.62002 14.544 3.09877
O 10.1883 10.902 2.68167
O 6.71296 16.4974 4.94901
O 9.63084 11.9433 4.92185
Si 10.42 13.1926 16.3525
Si 12.7028 8.99209 16.5344
Si 11.6121 15.0671 3.83927
Si 13.8411 10.6874 3.65486
Si 11.4938 11.2456 1.75152
Si 13.5726 15.2152 1.63985
O 11.622 13.7752 4.82086
O 13.3062 9.57118 4.50514
O 12.827 11.1706 2.58651
O 0.189756 15.3847 2.35794
O 11.8371 9.93709 0.683097
O 13.9848 14.0471 0.629499
O 11.4381 12.3568 0.698938
O 12.9948 16.4969 0.865943
O 12.6031 14.7723 2.70279
O 0.214202 10.0955 2.8727
O 11.8622 16.4434 4.34128
O 14.3921 12.0034 4.60831
Si 14.8134 4.04173 5.37239
Si 2.53332 17.2842 5.60367
Si 1.0203 6.29483 9.30577
Si 3.4908 2.36676 9.27247
Si 1.22342 2.07424 7.35032
Si 3.55929 6.83498 7.67014
O 0.459838 5.31435 10.3257
O 3.4589 0.801617 9.83397
O 2.45242 2.64117 8.09618
O 4.77756 7.13912 8.53814
O 1.4188 0.572668 6.83086
O 3.86071 5.64479 6.51546
O 0.533031 3.13324 6.28991
O 3.15258 8.17025 6.84764
O 2.47626 6.09283 8.64122
O 4.84328 2.41392 8.32425
O 1.19285 7.71975 10.1747
O 3.60481 3.31425 10.5291
Si 4.97111 4.73671 5.52679
Si 7.54874 0.0919405 5.7088
Si 5.92517 6.54486 9.32976
Si 8.66041 2.14802 9.27665
Si 6.14738 2.60958 7.41235
Si 8.51466 6.61845 7.42745
O 5.50007 5.18754 10.0867
O 7.89257 1.08739 10.1086
O 7.66522 2.71208 8.18313
O 9.77095 7.2832 8.35209
O 6.8006 1.4106 6.43658
O 9.3715 5.24926 6.94045
O 5.90914 3.90508 6.31726
O 7.98119 7.55824 6.27113
O 7.14836 6.12971 8.22373
O 9.88745 1.72558 8.43728
O 6.58791 7.75597 10.2255
O 9.04647 3.52968 10.2446
Si 10.1486 4.26724 6.08775
Si 12.7101 0.0353769 5.20571
Si 10.9835 6.60276 9.15287
Si 13.9089 1.93587 9.38842
Si 11.2883 1.73348 7.6478
Si 13.5547 6.23245 7.20186
O 10.6067 5.31381 10.1608
O 13.972 0.788577 10.4462
O 12.5863 1.45509 8.52778
O 14.923 6.25292 8.05021
O 11.6011 1.04135 6.28349
O 13.9115 5.10434 6.09039
O 11.1843 3.32776 7.10322
O 13.307 7.41367 6.32108
O 12.2355 6.19941 8.2465
O 0.156745 2.19112 8.50285
O 11.6536 7.69572 10.1367
O 13.7849 3.24475 10.3345
Si 0.258044 13.1497 5.36876
Si 2.42083 8.70864 5.46377
Si 1.31685 15.4318 8.97514
Si 3.70505 10.5667 9.01193
Si 1.24898 10.802 7.1614
Si 4.14284 15.5554 7.47199
O 0.756762 14.1856 9.75362
O 3.15107 9.33319 9.77514
O 2.74494 10.94 7.76461
O 5.49643 15.6543 8.33105
O 1.34787 9.66546 5.93232
O 4.1525 14.1861 6.51648
O 1.04542 12.1527 6.37105
O 3.77909 16.6471 6.46183
O 2.85802 15.2684 8.49129
O 5.12157 10.3722 8.35952
O 1.61611 16.6148 10.1009
O 3.90888 11.9477 10.0232
Si 4.90772 13.1893 5.56932
Si 7.30629 8.78575 5.24344
Si 6.75091 14.9065 9.24386
Si 8.68938 10.5851 9.38186
Si 6.2721 10.863 7.25088
Si 8.90651 15.1284 7.10883
O 5.86241 13.6762 9.60971
O 8.09245 9.59212 10.2026
O 7.64085 11.2446 8.25234
O 10.385 15.3084 8.06849
O 6.55419 9.66505 6.38651
O 9.36185 14.2266 5.99193
O 5.78034 12.2715 6.50006
O 8.23411 16.5732 6.86561
O 7.81791 14.7709 8.26381
O 10.0058 10.4214 8.43731
O 6.81242 15.9302 10.4145
O 9.55851 11.6343 10.4105
Si 10.4739 12.9905 5.64445
Si 12.4051 8.57673 5.51692
Si 11.4066 15.2206 9.21645
Si 13.8241 10.8372 9.12285
Si 11.083 10.7521 7.34926
Si 13.7316 15.1692 7.23555
O 10.7782 13.8241 9.9185
O 13.5814 9.86617 10.2848
O 12.5734 11.0005 8.28919
O 0.151609 15.697 7.85228
O 11.459 9.52223 6.40922
O 14.2193 14.0319 6.12364
O 11.0659 12.2837 6.83799
O 13.492 16.4341 6.21564
O 12.748 15.0382 8.37293
O 0.206048 10.5139 8.40126
O 12.0469 16.3074 10.2914
O 13.9679 12.3502 9.64506
Si 14.4811 4.32522 11.2031
Si 2.71579 17.5043 11.0021
Si 0.888281 6.74449 14.7477
Si 4.05671 2.43223 14.6127
Si 1.26497 2.24516 12.7746
Si 3.45295 6.50264 13.2079
O 0.633839 5.95127 16.0938
O 3.87334 1.09962 15.6968
O 2.50181 2.82925 13.7153
O 4.41576 6.91371 14.4007
O 2.01064 1.1996 11.8437
O 4.08067 5.2292 12.4721
O 0.465086 3.29415 12.1034
O 3.22661 7.46165 11.8524
O 1.9268 5.94016 13.7689
O 4.87029 1.74657 13.4433
O 1.87929 7.94009 14.803
O 4.81404 3.46733 15.4705
Si 4.76508 4.20591 11.3072
Si 7.64176 17.1829 11.0539
Si 5.89716 6.66745 15.0054
Si 8.81153 2.35483 14.949
Si 6.35269 1.91316 12.7295
Si 8.6072 6.44686 13.2541
O 5.78319 5.5039 16.0692
O 8.63303 1.06176 15.9657
O 7.50768 2.47075 13.7858
O 9.52234 7.1383 14.3202
O 7.07158 0.684074 12.1602
O 9.35247 5.16753 12.5206
O 5.87474 3.32497 11.9181
O 8.41072 7.53325 11.9151
O 7.17144 6.40287 13.8399
O 10.0379 2.14363 13.8515
O 6.51878 7.79235 15.9683
O 9.31492 3.87188 15.1729
Si 9.88091 4.4271 11.2225
Si 12.8221 17.2642 11.3598
Si 11.1786 6.77902 15.0562
Si 14.1394 2.19668 14.7899
Si 11.2947 2.24444 12.9088
Si 13.3919 6.63138 12.9451
O 10.961 5.59394 16.0937
O 13.6076 1.01274 15.9595
O 12.7284 2.28143 13.878
O 14.4651 6.83959 14.0767
O 11.7009 0.895709 11.9974
O 13.6476 5.26697 12.2148
O 10.9447 3.47492 11.9551
O 13.5337 7.59157 11.7162
O 11.8457 6.41304 13.6064
O 0.26554 1.60446 13.9697
O 11.7946 8.03588 15.6456
O 14.4507 3.6085 15.3806
Si 0.0481376 13.1495 10.7319
Si 2.2602 8.48112 10.9251
Si 1.94327 15.1221 14.9903
Si 3.58295 10.9233 14.7045
Si 1.23498 10.9788 12.5042
Si 4.06412 15.3372 12.755
O 1.26501 14.0593 15.8974
O 3.61798 9.60348 15.5937
O 2.45062 11.046 13.656
O 5.39892 15.7511 13.6071
O 1.54002 9.36463 12.0234
O 4.3272 14.0639 11.7424
O 0.928636 11.8419 11.2542
O 3.41346 16.4595 12.0782
O 3.14124 14.6656 13.9531
O 4.97119 10.9298 13.9679
O 2.60178 16.2462 15.8922
O 4.01025 12.2109 15.7525
Si 4.98683 12.862 10.6444
Si 7.36585 8.62752 11.2342
Si 6.69077 15.1597 14.7524
Si 8.7424 11.1106 14.5995
Si 6.21688 10.8845 13.0742
Si 9.16335 15.1446 12.8267
O 5.93589 14.0078 15.4417
O 8.57138 9.69715 15.4247
O 7.32981 11.3552 14.0466
O 10.3641 15.6469 13.6931
O 6.77083 9.49758 12.3993
O 9.58219 13.7016 11.9759
O 5.78791 12.0295 11.9241
O 8.86579 16.3806 11.6733
O 7.9893 15.0397 13.7433
O 9.798 11.0599 13.3303
O 7.15907 16.3164 15.7386
O 9.50552 12.1038 15.6339
Si 10.4607 12.6651 11.0376
Si 12.6087 8.53975 10.9761
Si 11.6094 15.5627 14.4018
Si 13.8405 11.129 14.5609
Si 11.3582 10.7301 12.7187
Si 14.5111 15.1703 13.1349
O 11.001 14.2263 15.4501
O 13.7576 9.71191 15.543
O 12.2289 11.3532 14.1086
O 0.596226 15.5923 14.1966
O 11.7839 9.33732 12.1545
O 14.6924 13.8699 12.1979
O 11.6283 11.972 11.7137
O 13.932 16.2925 12.1664
O 13.0821 15.1271 13.9096
O 14.9628 11.0434 13.3923
O 11.8978 16.9118 15.0973
O 14.4054 12.4273 15.3538
324
 Atoms. Timestep: 23500
Si 0.266293 4.30653 16.5026
Si 2.67701 17.4069 16.3364
Si 0.89885 6.67726 3.6031
Si 3.91951 2.11306 3.64019
Si 1.22676 1.87437 1.79065
Si 3.53329 6.68714 2.02121
O 0.737733 5.39985 4.58734
O 3.64013 0.685597 4.57309
O 2.84503 2.2263 2.54686
O 4.4779 7.32809 3.17681
O 1.41154 0.876608 0.832634
O 4.40906 5.48542 1.3548
O 1.07199 3.18408 0.887481
O 3.18312 7.73872 0.717257
O 2.12245 6.43071 2.54764
O 5.43518 1.94808 2.82792
O 1.32487 7.89177 4.4552
O 4.07155 3.00032 4.9423
Si 4.9426 4.52701 0.075158
Si 7.64127 0.199775 16.4456
Si 5.8532 6.69707 3.64081
Si 8.91621 2.22955 3.7024
Si 6.62713 2.41533 1.8702
Si 8.33603 6.29475 1.86047
O 5.37145 5.27429 4.21829
O 8.12634 1.11896 4.68998
O 7.88823 2.80982 2.62262
O 9.2913 6.44783 3.08897
O 6.9244 1.24897 0.705683
O 9.05579 4.96072 1.33488
O 5.88124 3.57756 0.934932
O 8.12664 7.17961 0.650061
O 6.82618 6.31529 2.42515
O 10.107 1.607 2.79522
O 6.45145 7.82771 4.46016
O 9.37083 3.49125 4.64843
Si 9.96374 4.12373 0.322967
Si 12.6694 0.0693836 16.4729
Si 10.8629 6.50121 3.50337
Si 13.9164 2.11373 3.86999
Si 11.3769 1.69559 1.96362
Si 13.4567 6.23 1.8871
O 10.9085 5.4732 4.65995
O 13.506 0.936613 4.81724
O 12.7516 2.1072 2.76888
O 14.4711 6.78212 2.81291
O 11.498 0.794522 0.773889
O 14.3384 5.03611 1.06855
O 10.9003 3.08493 1.14976
O 13.1655 7.52353 0.754354
O 11.9951 5.99297 2.5148
O 0.158825 1.71669 2.92033
O 11.1725 7.90704 4.23984
O 14.1555 3.61906 4.22473
Si 0.561179 13.2678 16.429
Si 2.37643 8.89413 16.4892
Si 1.40563 15.4608 3.52855
Si 3.99021 10.7204 3.74122
Si 1.70293 10.9902 2.0122
Si 3.86925 15.3206 1.8251
O 0.77533 13.8402 4.04271
O 3.28218 9.63252 4.45356
O 2.67014 11.3867 3.08421
O 5.37883 15.4703 2.60412
O 2.0325 9.86331 1.03171
O 4.11729 13.9044 1.10732
O 1.23994 12.1601 0.939999
O 3.52232 16.5565 0.815744
O 2.61862 15.3372 2.79567
O 5.24575 10.4976 2.73528
O 1.93777 15.9147 5.05396
O 4.72902 11.7237 4.76762
Si 4.94214 13.2394 0.0530329
Si 7.40971 8.45163 16.4123
Si 6.59469 15.3958 3.81522
Si 8.59572 11.1153 3.80559
Si 6.41479 10.7838 1.6905
Si 8.96405 15.6163 1.8943
O 6.44906 14.0036 4.53295
O 7.91689 9.98942 4.61632
O 7.76091 11.374 2.50933
O 10.2527 15.6926 2.78421
O 6.64328 9.42698 0.890669
O 8.94612 13.9856 1.17256
O 5.98506 12.0713 0.934673
O 8.73295 16.5679 0.531194
O 7.74255 15.821 2.79903
O 10.1412 10.6068 3.53908
O 6.84358 16.5372 4.80366
O 8.87778 12.3725 4.70338
Si 9.96081 12.8919 0.249498
Si 12.4337 8.71788 0.0199526
Si 11.6202 15.2653 3.80525
Si 13.7808 10.9896 3.63269
Si 11.0088 10.6775 2.17656
Si 14.3013 15.6167 1.6808
O 11.0011 13.7559 4.38126
O 13.4698 9.60443 4.56473
O 12.3882 10.9646 2.91645
O 0.131223 16.0134 2.90242
O 11.4544 9.34501 0.97211
O 0.00330524 14.5575 0.777087
O 10.292 11.6383 1.21735
O 13.579 16.9041 1.16677
O 12.8701 15.1754 2.75295
O 0.102306 10.8137 2.73078
O 11.8934 16.3813 4.90109
O 14.1295 11.9892 4.76599
Si 14.863 4.37613 5.45304
Si 2.61 17.3657 5.72138
Si 1.14406 6.48415 9.03751
Si 3.29445 2.04066 9.10449
Si 0.859882 1.93991 7.09168
Si 3.6918 6.45871 7.20307
O 1.00144 5.16516 9.94287
O 3.18661 0.693061 9.86296
O 1.98895 2.34265 8.15478
O 4.72502 7.21198 8.19245
O 1.46863 0.865743 6.15487
O 4.49717 5.11026 6.81674
O 0.662201 3.27027 6.09737
O 3.0967 7.61366 6.20748
O 2.16317 6.19018 7.94869
O 4.50504 2.2254 8.05357
O 1.74582 7.87198 9.63923
O 3.85689 3.26116 9.99352
Si 5.05945 4.3625 5.55714
Si 7.74467 17.3984 5.82207
Si 5.92813 6.83478 9.11793
Si 8.45659 2.26049 9.21546
Si 5.96557 2.212 7.43481
Si 8.51396 6.50624 7.20902
O 5.31956 5.59383 10.1165
O 8.04751 0.880823 9.90848
O 7.05566 2.66911 8.54442
O 9.59986 6.88304 8.34331
O 6.63941 0.931807 6.83193
O 9.01194 5.49236 6.22187
O 6.18049 3.47476 6.2061
O 8.39014 8.12753 6.43392
O 7.17707 6.32675 8.01163
O 9.52041 1.93912 7.97984
O 6.57142 8.11643 9.87638
O 9.13555 3.35887 10.0216
Si 9.92557 4.53288 5.59681
Si 12.5501 0.0496123 5.85516
Si 11.1134 6.63498 9.18482
Si 13.7341 1.89302 9.30949
Si 11.0201 2.41817 7.56678
Si 13.5612 6.48216 7.10206
O 10.7226 5.40732 9.96201
O 13.9552 0.857605 10.5333
O 12.3897 2.25973 8.59233
O 14.9048 6.79262 8.22934
O 11.5201 1.244 6.2256
O 14.0144 5.23947 6.36493
O 10.6389 3.77457 6.86319
O 13.1596 7.55538 6.15244
O 12.2616 6.02726 8.17737
O 14.6619 1.35582 7.90316
O 11.7371 8.03396 9.77859
O 14.2062 3.38435 9.78882
Si 0.134852 13.2105 5.40323
Si 2.18244 8.79428 5.36256
Si 1.77067 14.7995 9.13568
Si 3.71417 11.085 9.39966
Si 1.4159 11.123 7.33346
Si 4.10983 15.3281 7.23533
O 1.33171 13.5474 10.2103
O 3.20678 9.82734 10.1568
O 2.67899 11.5649 8.35513
O 5.63007 15.4099 7.67183
O 1.82584 9.87166 6.47955
O 4.24393 14.0441 6.14423
O 1.1086 12.4646 6.56136
O 3.28681 16.6052 6.86265
O 3.19447 14.9917 8.61848
O 5.20527 10.7451 8.8483
O 1.67663 15.8985 10.2419
O 4.27107 12.2438 10.6315
Si 5.27844 12.9788 5.58915
Si 7.11949 8.80578 5.67033
Si 6.51428 15.354 9.07523
Si 8.94876 10.6582 9.193
Si 6.22845 10.885 7.52088
Si 9.14671 15.3369 7.63237
O 6.05581 13.8614 9.52736
O 8.57489 10.0664 10.6932
O 7.61462 11.1134 8.35578
O 10.6042 15.7982 8.49303
O 6.12633 9.53045 6.58505
O 9.6208 14.1034 6.68095
O 5.97362 12.2479 6.81006
O 8.72021 16.522 6.65336
O 8.11454 15.3286 8.70903
O 10.174 10.2245 8.31011
O 6.25085 16.624 10.1521
O 9.18177 12.1978 10.045
Si 10.1606 12.9641 5.54393
Si 12.3505 8.77275 5.25169
Si 11.6899 15.2448 9.50827
Si 14.0241 10.5467 9.14445
Si 11.4369 10.585 7.35642
Si 14.2132 15.3362 7.42197
O 11.0124 14.2275 10.3598
O 13.5803 9.37166 9.89445
O 12.5663 11.0641 8.34966
O 0.540696 15.0665 8.1373
O 11.9465 9.41051 6.61792
O 14.4637 14.3524 6.14997
O 10.8733 11.778 6.37495
O 13.3184 16.5965 6.90936
O 13.0103 14.8789 8.40666
O 0.115209 10.5793 8.02972
O 12.0386 16.3531 10.5739
O 14.4405 11.9428 10.0539
Si 0.00926545 4.28128 10.78
Si 2.50428 16.984 10.9869
Si 0.941765 6.65118 14.7699
Si 3.62606 2.48811 14.7679
Si 1.19721 1.89666 12.7234
Si 3.51616 6.50675 12.8848
O 0.907239 5.5351 15.8095
O 3.47722 1.17623 15.5375
O 2.41571 2.42934 13.6679
O 4.8375 7.01226 13.664
O 1.73693 0.494068 12.1506
O 3.96352 5.01104 12.2395
O 0.673159 3.31759 11.7945
O 3.36764 7.38116 11.6073
O 2.04948 6.51651 13.6157
O 4.91601 2.27746 13.6822
O 1.27188 8.05355 15.4809
O 4.03967 3.71813 15.5917
Si 4.71364 4.35917 10.9711
Si 7.32088 0.0639027 11.0411
Si 6.09841 6.57824 14.7081
Si 8.92347 2.16323 14.4961
Si 6.14935 2.16069 12.673
Si 8.58246 6.47019 12.9732
O 5.68997 5.51517 15.6658
O 8.27915 0.868793 15.1331
O 7.54656 2.5864 13.3988
O 9.65162 6.74949 14.165
O 6.54524 1.01453 11.9091
O 9.1963 5.12759 12.2365
O 5.68724 3.28534 11.4225
O 8.45288 7.80073 11.8587
O 7.23394 6.03112 13.7425
O 10.0802 1.75811 13.6598
O 6.49354 7.98456 15.1367
O 9.26526 3.20243 15.7086
Si 9.89846 4.33382 11.04
Si 12.944 17.2238 11.5756
Si 11.1347 6.22819 14.8121
Si 13.912 2.3974 14.6147
Si 11.4414 2.29171 12.7763
Si 13.5718 6.21955 12.7523
O 10.8959 5.0978 15.9984
O 13.5189 1.14713 15.5961
O 12.4115 2.60529 14.0138
O 14.6069 6.64016 13.9441
O 12.1022 1.09828 11.8477
O 14.0763 5.14316 11.7703
O 10.9736 3.43448 11.863
O 13.0533 7.63301 11.9436
O 12.1829 5.92755 13.6921
O 14.9046 1.81911 13.6701
O 11.7647 7.52925 15.5303
O 14.5666 3.63704 15.2295
Si 0.173401 12.8936 10.9867
Si 2.52564 8.60185 10.8632
Si 1.43392 15.1709 14.3851
Si 3.85067 11.1035 14.7854
Si 1.38762 10.641 13.0067
Si 4.31606 15.2215 12.7387
O 1.46371 14.046 15.5168
O 3.63936 9.71866 15.6928
O 2.62503 11.0577 13.9282
O 5.52133 15.9382 13.7082
O 2.04144 9.44537 12.2229
O 5.04524 14.0416 12.1167
O 0.721726 11.8034 12.0942
O 3.66765 16.2084 11.5942
O 2.71989 14.8573 13.3746
O 5.12034 10.9864 13.7607
O 1.89295 16.6162 15.2189
O 4.1269 12.3101 15.6979
Si 5.52502 13.0138 10.8245
Si 7.49337 8.83937 11.1216
Si 6.47598 15.3747 14.8381
Si 8.98662 10.8433 14.6283
Si 6.47938 10.7743 12.8786
Si 8.99022 15.5685 12.8665
O 5.80386 14.2613 15.6833
O 8.58787 9.61856 15.7787
O 7.74218 11.1496 13.7826
O 10.4518 15.3411 13.9104
O 6.58817 9.44597 12.116
O 8.94806 14.4516 11.765
O 6.59157 12.0876 11.6744
O 8.29747 16.7511 12.0461
O 7.86375 15.3914 13.9791
O 10.2047 10.7317 13.7524
O 6.41291 16.5359 15.9958
O 9.25493 12.402 15.4255
Si 9.81762 13.2742 11.0422
Si 12.5541 8.77528 10.9693
Si 11.4326 14.7971 15.0107
Si 13.7672 10.9143 14.8184
Si 11.3426 11.0699 12.7489
Si 13.7189 14.666 12.9924
O 11.0838 13.8783 16.3096
O 13.3211 9.85677 15.784
O 12.5472 11.1538 13.7809
O 0.0451996 14.885 13.7027
O 11.9232 10.0168 11.6889
O 14.2579 13.8987 11.6192
O 10.5767 12.4484 12.1591
O 13.4211 16.2332 12.6024
O 12.6118 14.2148 13.9952
O 15.0579 10.5638 13.8248
O 12.0871 16.2119 15.7239
O 14.3369 12.2701 15.6884
324
 Atoms. Timestep: 24000
Si 0.0369215 4.33369 0.0228597
Si 2.50508 17.4443 16.4918
Si 0.928204 6.80946 3.67692
Si 3.80681 1.86912 3.43026
Si 1.15383 2.00191 1.75122
Si 3.48952 6.549 2.07431
O 0.395146 5.80524 4.66998
O 3.26694 0.619071 4.47718
O 2.85712 2.06788 2.31988
O 4.82722 6.47465 2.99975
O 1.4097 0.787487 0.901205
O 3.54763 5.48038 0.816287
O 0.946386 3.31309 0.898267
O 3.34213 7.96823 1.47436
O 2.15584 6.23295 2.95073
O 5.25168 1.57164 2.72037
O 1.43279 8.19468 4.4547
O 4.00891 3.11459 4.42595
Si 4.62161 4.62263 0.0196258
Si 7.62595 17.4076 16.5165
Si 6.07785 6.25482 3.83798
Si 8.79195 2.31657 3.66796
Si 6.26805 2.35635 1.84767
Si 8.72309 6.12634 1.71578
O 5.98379 5.22506 4.98017
O 8.34297 1.16668 4.69724
O 7.55307 2.65165 2.81303
O 9.88498 6.75213 2.36216
O 6.9325 1.20903 0.870175
O 9.31792 4.84436 1.08093
O 5.42254 3.71378 1.21722
O 8.22971 7.03164 0.214776
O 7.43685 5.94677 2.77213
O 10.0515 1.96405 2.77008
O 6.34805 7.71384 4.74942
O 8.97656 3.51183 4.65538
Si 10.2666 4.09405 16.5338
Si 12.5762 17.3061 16.5781
Si 11.1503 6.71439 3.33971
Si 13.883 2.28882 3.84941
Si 11.5772 2.11846 1.78586
Si 13.6517 6.59689 1.85598
O 10.8481 5.36278 4.4424
O 13.6092 0.994158 4.77506
O 12.7282 2.29337 2.79171
O 14.7707 7.41815 2.67297
O 11.7659 1.00579 0.732435
O 14.494 5.41382 0.988951
O 11.5224 3.43894 0.82443
O 13.181 7.65764 0.794272
O 12.4437 6.24922 2.55395
O 0.154375 2.01961 3.05354
O 11.8777 8.0394 4.1025
O 13.9712 3.62911 4.85047
Si 0.0372817 13.1827 0.0536985
Si 2.60742 8.80903 0.164453
Si 1.52084 15.0695 3.72979
Si 4.0138 10.8603 3.74238
Si 1.37984 11.0118 1.79462
Si 3.99467 15.1412 2.05789
O 0.856526 13.8963 4.84129
O 3.46671 9.61875 4.61217
O 2.70352 11.1462 2.83993
O 5.2128 15.7357 2.58119
O 1.72566 9.85214 0.823858
O 4.30401 13.6775 1.07738
O 0.9618 12.3897 1.03563
O 3.29846 16.3836 1.07546
O 3.03265 14.6365 3.11579
O 5.29864 10.7626 2.81319
O 1.75164 16.2861 4.77836
O 4.15652 12.2398 4.54644
Si 4.94401 12.7835 16.4628
Si 7.41214 8.32339 16.239
Si 6.38635 15.3418 3.66761
Si 8.81979 10.7816 3.5938
Si 6.46571 10.7511 1.56288
Si 8.92124 15.3912 1.77923
O 5.92709 14.0583 4.29661
O 8.15169 9.8079 4.76231
O 7.59246 11.1276 2.63879
O 10.2451 15.6164 2.66255
O 7.11062 9.34816 1.06777
O 9.3256 14.2286 0.724061
O 5.91735 11.6927 0.430013
O 8.77894 16.6779 0.804518
O 7.76218 15.2452 2.74006
O 10.0553 10.3881 2.82947
O 6.82822 16.3374 4.89662
O 9.20483 12.2406 4.27739
Si 9.94509 13.0174 16.4886
Si 12.2217 8.66106 -0.00298379
Si 11.3342 15.5312 3.77107
Si 13.8661 10.9246 3.58334
Si 11.0833 10.9227 1.84952
Si 13.9861 15.1427 1.84411
O 11.021 14.2383 4.71281
O 13.6315 9.74295 4.97903
O 12.3436 11.0893 2.89308
O 0.345498 15.2069 2.4847
O 11.2529 9.43267 0.784769
O 14.0545 14.1111 0.738689
O 10.7785 12.25 1.0385
O 13.5515 16.514 1.15847
O 12.7012 15.1407 2.92677
O 0.14503 10.587 2.74677
O 11.7625 16.7422 4.69285
O 14.1455 12.2288 4.53275
Si 14.8434 4.56056 5.56971
Si 2.6558 17.2511 5.73385
Si 1.01735 6.69027 9.04851
Si 3.67099 2.23857 9.08479
Si 1.26732 2.47313 7.33753
Si 3.45489 6.28765 7.04777
O 0.653773 5.70113 10.1166
O 3.69161 1.01004 10.3004
O 2.19265 2.64334 8.58386
O 4.72178 6.47005 8.114
O 1.92324 1.07616 6.61641
O 3.85316 4.95099 6.13186
O 0.756677 3.56446 6.28075
O 3.50248 7.4287 5.91537
O 2.12316 6.28458 7.84757
O 4.45573 1.71957 7.79848
O 1.73277 7.98003 9.99112
O 4.27968 3.58016 9.73258
Si 4.93578 4.01154 5.30171
Si 7.71032 0.0843595 5.76748
Si 6.05827 6.55794 9.08143
Si 8.81309 2.00681 9.07112
Si 5.9725 1.81296 7.36683
Si 8.66439 6.48237 7.39434
O 6.20421 5.38742 10.081
O 8.95701 1.10778 10.5141
O 7.23974 1.91466 8.57474
O 9.59774 7.06871 8.51718
O 6.57562 0.46185 6.72121
O 9.53566 5.20109 6.80847
O 5.7031 2.90518 6.28899
O 8.37884 7.73445 6.16521
O 7.37059 5.92551 8.14343
O 9.71652 1.52094 7.7456
O 6.71588 7.8077 9.5817
O 9.43734 3.34606 9.62572
Si 10.0137 4.37014 5.5857
Si 12.7609 0.0138709 5.77597
Si 10.9684 6.86222 9.25607
Si 13.6317 2.6348 9.04722
Si 11.0874 2.0892 7.2346
Si 13.4597 6.73735 7.37096
O 11.0482 5.47121 10.2677
O 13.4342 1.23128 9.87826
O 12.2199 2.78039 8.32384
O 14.6772 7.23333 8.35256
O 12.0278 0.979499 6.71454
O 14.0863 5.37668 6.80285
O 11.0565 3.31402 6.33549
O 13.1534 7.90737 6.31046
O 12.0565 6.56885 8.04016
O 14.9389 2.21597 8.16746
O 11.4639 7.77564 10.44
O 13.8831 3.83043 10.1563
Si 14.9937 12.8153 5.66964
Si 2.51049 8.69566 5.55262
Si 1.50714 15.1117 9.33011
Si 3.54862 11.7094 9.21735
Si 1.21666 10.7355 7.43813
Si 3.9952 14.861 7.7025
O 0.702652 14.0292 10.2139
O 3.01658 10.3633 10.2239
O 2.31821 11.7946 8.23934
O 5.15214 15.3462 8.78536
O 1.93615 9.39158 6.79479
O 4.80932 13.9261 6.74638
O 0.499537 11.4194 6.38324
O 3.54279 16.1968 6.59902
O 2.72109 14.5335 8.5817
O 4.91039 11.2952 8.3603
O 2.16257 16.3794 10.2588
O 4.16396 12.8522 10.3686
Si 5.18534 13.0472 5.38444
Si 7.28832 8.62772 5.5523
Si 6.6874 15.3785 9.56988
Si 8.85422 10.8951 9.18661
Si 6.3486 11.2207 7.51134
Si 9.00663 15.2949 7.40493
O 6.72821 13.9584 10.3147
O 8.42617 9.39374 9.62119
O 7.60399 11.5248 8.41112
O 10.5188 15.4076 7.9906
O 6.51143 9.414 6.80524
O 9.00129 14.0576 6.3419
O 6.21759 12.1426 6.24619
O 8.84111 16.5586 6.4286
O 7.91369 15.4226 8.55505
O 10.2142 10.9709 8.29757
O 6.86409 16.7601 10.3695
O 9.28985 12.0132 10.3647
Si 9.99172 13.0836 5.35359
Si 12.3299 8.84179 5.44328
Si 11.3992 15.057 9.26908
Si 13.8454 10.6389 9.13698
Si 11.4478 11.0571 7.10398
Si 14.0898 15.1509 7.48728
O 10.7161 14.02 10.1062
O 13.1114 9.52797 9.88387
O 12.9035 11.2301 7.96501
O 0.4736 15.5755 8.20192
O 11.4612 9.77718 6.08845
O 14.7521 13.6283 6.92084
O 10.9511 12.0821 6.1134
O 13.5557 16.2252 6.37762
O 12.9309 14.8627 8.50595
O 0.228714 10.1988 8.56944
O 11.6432 16.5709 10.0453
O 14.1567 11.918 9.96827
Si 15.0367 4.65916 11.0521
Si 2.83239 0.179848 11.3007
Si 1.4908 6.50868 14.8625
Si 3.70088 2.17459 14.7439
Si 1.06754 2.31798 12.7801
Si 3.62264 6.76055 12.6748
O 1.02404 5.00543 15.3767
O 3.32199 1.20719 15.9331
O 2.24981 2.49045 13.8667
O 4.99606 6.53304 13.4704
O 1.63489 1.12223 11.8879
O 3.91979 5.77246 11.2271
O 1.10634 3.53056 11.6552
O 2.94448 8.20176 12.0967
O 2.57529 6.26806 13.7428
O 4.90644 2.05892 13.7215
O 1.86078 7.58571 15.8115
O 4.11992 3.35058 15.8131
Si 5.07407 4.59048 10.8423
Si 7.89532 0.466559 11.3543
Si 6.2018 6.42247 14.5336
Si 8.79202 1.91781 14.6297
Si 6.21657 2.46245 13.0162
Si 8.86195 5.9385 12.76
O 5.59852 5.46913 15.7731
O 8.3553 0.621344 15.1828
O 7.47931 2.7844 13.9843
O 9.98005 6.53015 13.5472
O 6.74858 1.35897 11.8798
O 9.1051 4.81074 11.7837
O 5.66296 3.78096 12.1028
O 8.19862 7.19785 11.6308
O 7.59536 5.88776 13.7616
O 9.88637 1.78223 13.3775
O 6.54025 7.85691 15.1584
O 9.46099 2.95867 15.7418
Si 10.2375 4.26787 10.6183
Si 12.7425 0.199577 10.7327
Si 11.2216 6.46282 14.6812
Si 13.7137 2.12669 14.7543
Si 11.3964 2.01587 12.7218
Si 13.9107 6.61323 13.0212
O 10.8781 5.21202 15.6036
O 13.4705 0.730485 15.5699
O 12.346 2.53395 13.8108
O 0.106579 7.11631 13.8224
O 12.0843 0.851197 12.1489
O 14.4761 5.32686 12.403
O 11.0537 3.13714 11.5609
O 13.6278 7.5061 11.6147
O 12.5581 6.33613 13.8552
O 14.7959 1.95257 13.5388
O 11.4473 7.72476 15.4985
O 14.083 3.41168 15.7847
Si 14.9797 12.9138 11.0267
Si 2.08593 9.04217 11.0177
Si 1.0553 15.3016 14.5767
Si 3.78672 10.8263 14.5576
Si 0.997286 10.7232 13.0859
Si 3.85027 15.3067 13.1148
O 0.686263 13.9002 15.3856
O 3.62944 9.65768 15.5387
O 2.32501 11.0324 13.9054
O 4.78138 15.4533 14.361
O 0.843143 9.59452 11.9278
O 4.75118 14.5057 12.1258
O 0.54697 11.8786 12.1015
O 3.47691 16.5551 12.2713
O 2.39262 14.7045 13.5803
O 5.28771 10.3159 13.847
O 1.75205 16.436 15.4884
O 3.99199 12.176 15.525
Si 5.51734 13.3072 11.3035
Si 7.54458 8.35601 10.7073
Si 6.18513 15.1869 15.001
Si 8.9511 10.7756 14.8723
Si 6.55575 10.5812 12.9172
Si 8.71799 15.4405 13.182
O 5.79361 13.8278 15.6434
O 8.55636 9.35631 15.5402
O 7.81266 10.8893 13.7956
O 10.0318 15.5278 14.1107
O 6.9739 9.39889 11.9423
O 9.07221 14.1925 12.1983
O 6.08137 11.9592 12.1732
O 8.43346 16.9245 12.4427
O 7.35024 15.0642 13.9216
O 10.4599 10.8377 14.2953
O 6.72585 16.4563 15.8084
O 8.80064 12.0625 15.8137
Si 9.97408 13.092 11.1843
Si 12.6812 8.61042 11.1049
Si 11.3288 15.1254 14.7851
Si 13.7983 10.6121 14.8776
Si 11.6445 10.9759 13.0399
Si 13.6672 15.4218 12.479
O 10.912 13.4768 15.3717
O 13.1762 9.68891 15.7612
O 13.0241 11.4572 13.8191
O 15.1072 15.7383 13.49
O 11.942 9.56025 12.4395
O 14.0155 13.9667 11.8228
O 11.0411 12.2685 12.1086
O 13.7259 16.5689 11.343
O 12.5165 15.4916 13.5635
O 0.00889493 10.0944 14.1581
O 11.9537 16.0703 15.8825
O 14.3833 11.8769 15.9249
324
 Atoms. Timestep: 24500
Si 0.0352531 4.25322 16.3006
Si 2.14884 17.1125 0.0871423
Si 1.29498 6.43655 3.75849
Si 3.65685 2.33101 3.47403
Si 1.15728 2.2261 1.74566
Si 3.90597 6.63465 2.03908
O 0.596162 5.3295 4.64571
O 3.17602 1.13239 4.81329
O 2.44104 2.86685 2.78321
O 5.23282 6.5275 2.8218
O 1.5959 0.842842 1.22976
O 3.96914 5.51689 0.800495
O 0.904129 3.35149 0.732682
O 3.4211 7.80135 0.903479
O 2.67616 6.17763 2.99678
O 4.62563 1.68754 2.42013
O 1.82913 7.65257 4.71557
O 4.55592 3.42239 4.27016
Si 4.86531 4.46411 16.4989
Si 7.49286 -0.136724 16.5136
Si 6.53392 6.30035 3.85763
Si 8.64312 2.08131 3.66932
Si 6.055 2.25664 1.80412
Si 8.95151 6.55439 1.8017
O 6.04963 5.24616 4.89892
O 8.34595 0.862072 4.5548
O 7.24687 2.33233 2.74676
O 10.2883 6.44833 2.82099
O 6.73302 1.00158 0.883675
O 8.88335 5.45632 0.644108
O 5.77 3.62095 0.966499
O 8.59087 8.07184 1.24433
O 7.71832 6.27214 2.69953
O 9.74213 2.04159 2.51509
O 6.89171 7.60294 4.61718
O 9.04656 3.67309 4.42216
Si 9.8501 4.4732 16.574
Si 12.7781 0.140988 0.366525
Si 11.7152 6.40208 3.52605
Si 13.9041 2.12354 3.86285
Si 11.1647 2.35895 1.96608
Si 14.1572 6.71512 1.54805
O 11.4695 5.14576 4.65659
O 13.8086 0.804258 4.55054
O 12.4613 2.48894 3.02364
O 0.384661 7.00065 2.37775
O 11.8688 0.874268 1.30253
O 14.5847 5.35476 0.752443
O 10.8661 3.76678 1.09265
O 13.2194 7.79904 0.700679
O 12.9599 6.39592 2.541
O 14.9435 2.05628 2.68389
O 11.7262 7.44349 4.60768
O 14.4379 3.33862 4.95705
Si 14.9238 12.9237 0.147038
Si 2.36732 8.57622 16.5749
Si 1.3557 15.1269 3.98731
Si 3.9023 10.776 3.89006
Si 1.38757 10.9357 1.85009
Si 3.90721 14.922 1.7646
O 0.898847 13.8354 4.84548
O 3.44802 9.66236 4.99835
O 2.66043 11.0224 2.79289
O 5.38174 15.03 2.11238
O 1.61779 9.63213 0.759426
O 3.80796 13.7925 0.494318
O 0.992201 12.1821 0.98858
O 3.09801 16.1493 0.746992
O 2.662 15.0362 3.04155
O 5.27251 10.4133 3.22796
O 1.81443 16.2198 4.89134
O 4.00424 12.1408 4.77808
Si 4.86399 12.7861 16.5451
Si 7.52289 8.73286 0.104416
Si 6.473 14.932 3.31316
Si 9.02054 10.7249 3.51857
Si 6.20064 10.6597 1.86232
Si 9.06614 15.3517 1.78044
O 6.13079 13.9526 4.49541
O 8.99485 9.45101 4.40629
O 7.73464 10.945 2.70709
O 9.93662 15.8172 3.04844
O 6.53887 9.40246 1.20601
O 9.41726 14.6439 0.447631
O 5.62764 11.7692 1.12109
O 8.45131 16.6513 1.05944
O 7.79036 14.5165 2.47688
O 10.2455 10.6345 2.43858
O 6.7594 16.3381 4.01624
O 9.36565 12.1201 4.29187
Si 10.1564 13.4126 16.2416
Si 12.579 8.70217 16.2229
Si 11.2006 15.5417 3.84358
Si 13.844 11.0118 3.5443
Si 11.3832 11.1598 1.50019
Si 13.8834 14.9979 2.32524
O 10.5632 14.2394 4.64996
O 13.3931 9.80308 4.3591
O 12.545 11.4089 2.65738
O 0.298587 15.4787 3.1186
O 12.1614 10.1845 0.451444
O 14.2605 13.9158 1.29791
O 10.9233 12.3944 0.626191
O 13.5759 16.3275 1.16919
O 12.4005 14.9701 3.05043
O 0.233981 10.8996 2.9278
O 11.7579 16.5627 4.88891
O 14.0142 12.2723 4.52256
Si 15.0342 4.41209 5.88823
Si 2.32313 0.0977082 5.81821
Si 1.25968 6.77316 9.34891
Si 4.22214 2.01765 9.1473
Si 1.44089 2.41466 7.5943
Si 3.74114 6.1624 7.5617
O 0.884148 5.78834 10.4943
O 3.37101 1.07531 10.4227
O 2.88715 2.13586 8.22147
O 4.82634 6.42239 8.66855
O 1.27465 1.17398 6.48283
O 4.0727 4.86531 6.66875
O 0.99418 3.81962 6.84319
O 3.49837 7.39044 6.55475
O 2.4674 5.99206 8.51869
O 5.43482 1.70743 8.39296
O 2.12286 8.18008 9.56766
O 4.33906 3.44982 9.9719
Si 5.01565 4.25621 5.55879
Si 7.43578 17.2078 5.22752
Si 6.34965 6.40819 9.19391
Si 9.15235 1.94864 9.09458
Si 6.33213 1.98808 7.14619
Si 8.84197 6.28987 7.43753
O 6.24349 5.30621 10.4185
O 8.4989 0.863417 10.0275
O 7.89316 2.04577 7.98984
O 9.94872 6.89916 8.43925
O 6.52641 0.789354 6.0668
O 9.68623 5.18017 6.45396
O 6.15456 3.36362 6.35309
O 8.57425 7.3915 6.35709
O 7.39184 6.19982 8.06073
O 10.5201 2.06359 8.28521
O 6.54098 7.90512 9.7214
O 9.2195 3.40918 9.85444
Si 10.2272 4.1343 5.29703
Si 13.1082 17.106 5.60996
Si 11.1612 6.6356 9.38278
Si 13.8351 2.48788 9.35067
Si 11.7382 2.25777 7.15428
Si 13.7455 6.82862 7.41827
O 10.7673 5.44362 10.2431
O 12.9611 1.23865 10.0109
O 12.8885 2.95047 8.14885
O 15.0253 7.0535 8.39772
O 12.4086 0.783146 6.56795
O 14.0254 5.49305 6.55165
O 11.0299 2.95085 5.9585
O 13.6337 7.97688 6.4134
O 12.4855 6.50909 8.43701
O 0.204844 2.09776 8.62624
O 11.4515 7.8799 10.2725
O 14.3605 3.75047 10.1907
Si 15.1391 12.6828 5.66204
Si 2.61177 8.55801 5.81884
Si 1.38373 15.4175 9.3979
Si 4.04544 10.8552 8.96402
Si 1.40113 10.4952 7.25711
Si 3.79586 15.5425 7.1825
O 1.03229 14.1 10.2965
O 4.14409 9.63688 10.2113
O 2.82848 11.1335 8.09199
O 4.9567 15.8762 8.12277
O 1.72764 9.06469 6.9959
O 4.14663 14.4901 6.00163
O 1.09313 11.4854 6.16336
O 3.21871 17.1044 6.96184
O 2.48964 14.8936 8.27252
O 5.05916 10.0786 7.95066
O 1.61588 16.6028 10.179
O 4.85942 12.2464 9.71098
Si 5.05925 13.1414 5.53702
Si 7.94246 8.5969 5.60215
Si 6.05634 15.5936 9.19851
Si 8.63573 11.1847 9.40841
Si 6.21252 10.7475 7.16905
Si 8.5523 15.1747 7.12603
O 5.49333 14.4815 10.2133
O 8.29658 10.0052 10.3146
O 7.3571 11.2215 8.36945
O 9.97675 15.6966 8.02354
O 7.27958 9.78166 6.38846
O 8.99431 13.7248 6.60055
O 5.58924 12.1374 6.43214
O 8.45857 16.2935 6.14206
O 7.26365 15.0557 8.08972
O 9.84438 10.6115 8.40085
O 6.4538 16.7136 10.1715
O 9.1441 12.4902 10.2284
Si 9.84884 13.025 5.38397
Si 12.4085 8.63242 5.48997
Si 11.2004 15.2183 8.81541
Si 13.8474 11.0291 9.12927
Si 11.1244 11.0246 7.31519
Si 13.9106 14.8914 7.42453
O 10.8559 14.243 10.0337
O 13.5653 9.61776 9.95248
O 12.496 11.2488 8.31273
O 14.7825 15.3979 8.67127
O 11.5641 9.69214 6.42036
O 14.3679 13.3856 6.93748
O 10.7852 12.1143 6.37205
O 14.0123 15.9337 6.24976
O 12.39 14.7528 7.78525
O 0.222217 10.7349 8.42976
O 11.7558 16.4881 9.5977
O 13.9949 12.2352 10.1342
Si 0.0713989 4.62574 11.2787
Si 2.32205 -0.00631328 11.2172
Si 1.21606 6.5096 14.8044
Si 3.74597 1.9974 14.8435
Si 1.21081 2.13637 12.9954
Si 3.61808 6.66929 12.7996
O 1.0893 5.00249 15.2942
O 2.93831 0.681602 15.6143
O 2.83587 2.43577 13.6352
O 4.9446 7.22294 13.8694
O 1.31404 0.812257 12.1894
O 4.02496 5.25324 12.0097
O 0.725494 3.3856 12.1077
O 3.65077 7.83695 11.7105
O 2.37637 6.5504 13.7647
O 5.1444 1.44423 14.1335
O 1.3547 7.66639 15.7986
O 3.98355 3.26024 15.6627
Si 5.04133 4.37531 11.1109
Si 7.53106 0.147301 11.0354
Si 6.214 6.63041 14.6708
Si 8.74171 2.04112 14.8374
Si 6.2205 2.14426 13.1006
Si 8.49587 6.36412 12.6645
O 5.66546 5.35807 15.4697
O 8.52445 0.752493 15.6217
O 7.37972 2.63439 14.2992
O 10.0121 6.79319 13.5901
O 6.83778 0.973993 12.0979
O 8.87089 4.98502 11.9454
O 5.683 3.18649 12.1567
O 8.33362 7.47374 11.4466
O 7.31001 6.48365 13.6208
O 9.79869 1.82263 13.6901
O 7.01414 7.49957 15.7621
O 9.16666 3.22953 15.8117
Si 9.97392 4.30191 10.9151
Si 12.3477 0.057574 10.7979
Si 11.1417 6.74819 14.6321
Si 13.5699 2.40771 14.6689
Si 11.0629 1.96911 12.7436
Si 13.7042 6.7004 12.9212
O 10.8319 5.4677 15.5498
O 13.6159 1.18846 15.9008
O 12.3191 1.9793 13.9118
O 14.9932 6.76553 13.9766
O 11.2039 0.777262 11.6756
O 13.9267 5.37675 11.9957
O 10.9914 3.46746 11.8539
O 13.4872 8.08945 12.1293
O 12.4524 6.53746 13.7512
O 15.0997 2.0347 14.0828
O 11.3185 8.17145 15.4431
O 13.7605 3.65434 15.6517
Si 15.1014 13.1279 11.0056
Si 2.88761 8.85784 10.7507
Si 0.911373 15.268 14.8379
Si 3.71359 10.6583 14.4785
Si 1.39543 10.8903 12.6318
Si 3.5936 15.1587 13.1497
O 0.301398 13.7959 15.4493
O 3.16543 9.33788 15.3757
O 2.69348 11.2225 13.5537
O 4.85522 15.2644 14.0051
O 2.06875 9.67229 11.756
O 3.89176 14.0245 11.9985
O 0.905522 12.0816 11.7168
O 3.12973 16.4033 12.3269
O 2.35939 15.0038 14.265
O 5.14694 10.1534 13.9007
O 0.974521 16.2975 16.0088
O 4.31505 11.7871 15.4601
Si 4.79062 13.2366 11.0382
Si 7.49497 8.75019 10.6605
Si 6.17794 14.9316 14.7445
Si 8.65839 11.0977 14.713
Si 6.31874 10.7135 12.7482
Si 8.70339 15.2963 13.0267
O 5.84575 13.8263 15.8489
O 8.23429 10.2732 16.0731
O 7.63253 11.2031 13.4686
O 9.90655 15.6264 14.0139
O 6.52583 9.51878 11.7078
O 9.14626 14.2601 12.0747
O 5.56688 11.9116 11.8299
O 8.18613 16.5361 12.0882
O 7.33817 14.7556 13.7343
O 9.9784 10.3829 14.0888
O 6.79893 16.1706 15.6563
O 8.93622 12.6984 15.2856
Si 10.2231 13.2533 11.1632
Si 12.5461 8.86053 11.005
Si 11.2857 15.6971 14.6678
Si 13.7737 10.732 14.7517
Si 11.0475 10.9215 13.1293
Si 13.8022 15.3799 12.6989
O 11.2658 14.2188 15.43
O 13.6037 9.17364 15.2761
O 12.391 11.2876 14.0462
O 15.0913 15.7688 13.7423
O 11.6876 9.93571 11.8654
O 14.0215 13.9565 12.0808
O 10.6331 12.1822 12.3871
O 13.4522 16.6341 11.6874
O 12.2917 15.5833 13.3899
O 15.0696 10.745 13.7056
O 11.8228 16.681 15.7965
O 14.0741 11.6991 16.1641
324
 Atoms. Timestep: 25000
Si 14.8203 4.18386 16.3107
Si 2.30803 0.142696 0.056156
Si 1.56508 5.96905 3.73081
Si 3.58663 2.50415 3.46441
Si 1.0246 2.44027 1.84494
Si 4.01212 6.46912 1.70175
O 1.38861 4.71141 4.55867
O 3.02244 1.15798 4.38468
O 2.34533 2.91978 2.67009
O 5.48282 6.62231 2.55494
O 1.48355 1.14489 1.05527
O 4.39004 4.95675 1.01794
O 0.670206 3.49234 0.734937
O 3.45492 7.69762 0.914138
O 2.97483 6.09277 2.89249
O 4.79993 1.92936 2.61069
O 1.834 7.14913 4.89872
O 4.32114 3.84632 4.21234
Si 5.3456 4.27831 16.3973
Si 7.06518 17.1036 0.0348635
Si 6.60912 6.6035 3.76547
Si 8.63909 1.65323 3.89161
Si 6.21995 2.08408 1.90607
Si 8.99019 7.01771 1.94892
O 6.14616 5.57642 4.7262
O 8.19629 0.312959 4.64911
O 7.27548 2.0042 3.15108
O 10.3648 6.96459 2.77551
O 6.52515 0.676319 1.19968
O 9.39998 5.80031 0.632627
O 6.34716 3.24277 0.793825
O 8.53328 8.05913 0.835995
O 7.96355 6.62878 2.91705
O 9.85168 1.55519 2.84423
O 6.65038 8.01834 4.43284
O 9.17921 2.82214 4.77204
Si 9.9493 4.33132 16.454
Si 12.5772 0.0631788 -0.00617006
Si 11.3842 6.31378 3.92626
Si 13.6979 2.25243 3.86108
Si 11.2064 2.20606 1.89717
Si 13.9068 6.27239 2.00315
O 10.5586 4.84988 4.45123
O 13.5951 0.961705 4.5508
O 12.2864 2.45591 3.03485
O 0.19445 5.99469 2.86798
O 11.8397 1.18633 0.914011
O 13.7401 5.14136 0.785661
O 10.9605 3.47393 0.967564
O 13.7337 7.72309 1.16749
O 12.6575 5.87041 3.0985
O 14.7822 2.36455 2.6562
O 11.8138 7.57689 4.7391
O 14.1267 3.41603 4.86778
Si 14.9216 13.0405 -0.00102613
Si 2.30572 8.55299 -0.0200869
Si 1.17822 15.4303 3.44919
Si 3.53102 10.8125 3.98876
Si 1.16715 10.7681 2.14116
Si 3.75189 15.3017 1.58526
O 0.824423 14.1069 4.71981
O 3.00154 9.4341 4.71618
O 2.43449 11.2045 2.91732
O 5.30404 15.5818 2.28771
O 1.79185 9.43652 1.16799
O 3.94465 13.9107 0.907034
O 0.589025 11.8242 1.15607
O 3.27413 16.4768 0.789165
O 2.78388 15.114 2.80104
O 4.89305 10.6697 3.17926
O 1.35183 16.7614 4.3711
O 3.83177 12.1082 5.06652
Si 5.05506 13.0755 0.135817
Si 7.46698 8.89776 -0.0142713
Si 6.12035 15.1303 3.54253
Si 8.91409 10.8325 3.57817
Si 6.26356 10.8812 2.1846
Si 8.7205 15.1325 1.88341
O 5.3574 13.8695 4.20724
O 8.89871 9.54442 4.70187
O 7.64707 10.8581 2.90892
O 10.0354 15.8353 2.37501
O 6.55625 9.87555 1.01105
O 9.23009 13.8454 1.18271
O 6.24005 12.3173 1.29252
O 8.14119 16.1641 0.824444
O 7.55593 14.8198 3.01224
O 10.1665 10.8474 2.72856
O 6.16194 16.0874 5.02156
O 8.89149 12.114 4.59113
Si 10.1041 13.3576 16.5012
Si 12.6281 8.40202 0.247167
Si 10.9708 15.4897 3.60961
Si 13.8724 10.92 3.737
Si 11.5263 10.9616 1.675
Si 13.4104 15.0098 1.66539
O 10.4834 14.1184 4.39812
O 13.1479 9.8117 4.6182
O 12.8107 11.1622 2.60202
O 15.0311 15.5013 2.50277
O 11.8467 9.74435 0.938332
O 13.7412 14.0874 0.661749
O 11.2566 12.4044 0.462207
O 13.0928 16.5279 1.14658
O 12.2553 14.7811 2.71771
O 0.102318 10.2428 3.23597
O 11.5082 16.7963 4.47203
O 14.1983 12.4159 4.46929
Si 0.211496 4.31448 5.52275
Si 2.31916 0.125922 5.37512
Si 1.69185 6.4786 9.47421
Si 4.03695 2.25644 9.09546
Si 1.46108 2.25256 7.42131
Si 4.14821 6.55931 7.56484
O 1.11804 5.27398 10.5077
O 3.45329 0.906791 9.84153
O 2.99805 2.6255 7.91478
O 5.40503 6.77043 8.54434
O 1.57374 0.836838 6.78171
O 4.62836 5.34346 6.57122
O 1.01143 3.31822 6.47728
O 3.56499 7.60192 6.64536
O 2.92113 6.14021 8.42823
O 5.54523 2.38979 8.50363
O 1.92242 7.61691 10.3636
O 4.27377 3.30514 10.3625
Si 5.22293 4.46548 5.47133
Si 7.30363 16.9796 5.59262
Si 6.63575 6.53293 9.54343
Si 9.13022 2.19953 9.27025
Si 6.65096 2.49578 7.34193
Si 8.84484 6.46568 7.32909
O 6.08223 5.12893 10.137
O 8.45502 1.16095 10.3539
O 7.96358 2.63754 8.1532
O 10.1971 6.56991 7.98618
O 6.6464 0.879114 6.60567
O 8.9689 4.96462 6.41824
O 6.28445 3.43317 6.22904
O 8.58903 7.75249 6.24823
O 7.71486 6.28601 8.41607
O 10.4857 2.06335 8.48996
O 6.95052 7.62063 10.534
O 9.28279 3.46732 10.3762
Si 9.83487 3.95777 5.50983
Si 12.4965 17.3977 5.46255
Si 11.5649 6.52502 8.95284
Si 14.0907 2.36176 9.2263
Si 11.5715 2.1925 7.4205
Si 14.2033 6.63111 7.33591
O 11.1321 5.31141 9.9652
O 13.4334 1.13726 10.1881
O 12.8839 2.45392 8.09321
O 0.478363 6.43547 8.29986
O 11.8196 0.962747 6.52407
O 14.3781 5.57194 6.0771
O 10.9524 3.25178 6.33936
O 13.5858 8.17682 6.72621
O 12.9481 6.00149 8.31218
O 0.411319 2.25676 8.57423
O 11.8179 7.84907 9.7837
O 14.2006 3.6272 10.2914
Si 0.172645 13.0536 5.58631
Si 2.49534 8.30494 5.80427
Si 1.03186 15.572 8.99329
Si 3.83479 10.7133 8.87379
Si 1.03606 10.7176 7.43104
Si 3.62499 15.5266 7.09629
O 1.03579 14.2164 9.98656
O 3.60304 9.44972 9.73758
O 2.43233 10.9053 8.18056
O 4.60903 15.5068 8.48879
O 1.48779 9.33952 6.73223
O 4.25936 14.1444 6.66354
O 0.863512 11.7181 6.34963
O 3.57851 16.8174 6.02848
O 2.22836 15.3221 7.6982
O 5.11273 10.7069 7.95587
O 1.47988 16.6623 9.95035
O 4.03847 12.4039 9.83101
Si 4.97839 13.1706 5.6757
Si 7.5943 8.8064 5.35596
Si 6.083 15.1423 9.21473
Si 8.84805 11.0154 9.3416
Si 6.43614 11.1896 7.32691
Si 8.5754 14.7865 7.47335
O 5.63165 14.2073 10.4256
O 8.64218 9.7292 10.2332
O 7.57832 11.2154 8.31628
O 9.76058 15.6621 8.2943
O 6.76357 9.84921 6.06965
O 9.19406 13.4263 6.94301
O 6.18299 12.3698 6.35897
O 8.13477 15.7887 6.42913
O 7.24089 14.7613 8.26684
O 10.1811 10.8326 8.33497
O 6.43205 16.6296 9.84998
O 9.10622 12.1905 10.1605
Si 9.95453 12.8773 5.54684
Si 12.4508 8.62752 5.61842
Si 11.199 15.4779 8.88048
Si 13.8033 11.2151 9.26479
Si 11.4112 10.8942 7.29875
Si 13.7059 15.205 7.20235
O 10.6704 14.1458 9.96794
O 13.2099 9.97854 10.0293
O 12.5767 11.2271 8.13094
O 14.938 16.0528 7.95256
O 11.6467 9.55817 6.36438
O 14.5248 14.0557 6.73729
O 11.0415 11.8054 6.08434
O 13.3721 16.1795 5.93877
O 12.2678 15.0691 7.8501
O 14.9682 10.7661 8.38868
O 12.0311 16.2753 9.91212
O 14.229 12.659 10.1564
Si 15.1013 4.43612 11.2096
Si 2.53918 17.4668 10.7307
Si 0.901446 6.7716 14.6519
Si 3.85089 2.29154 14.6062
Si 1.26549 2.04049 12.7969
Si 3.79027 6.71947 12.957
O 0.41822 5.34221 15.3693
O 3.27312 1.27778 15.8135
O 2.51905 2.28199 13.6545
O 4.83972 6.76983 14.2541
O 1.7856 1.08085 11.5786
O 4.31259 5.4324 12.114
O 0.814599 3.52254 12.1615
O 3.71883 7.92995 11.8786
O 2.37297 6.58425 13.6165
O 5.11985 1.82395 13.85
O 1.27066 7.54611 15.8448
O 4.38479 3.70067 15.2694
Si 5.09977 4.39299 11.2603
Si 7.53227 -0.101241 10.8301
Si 6.42688 6.53195 14.6992
Si 8.65904 1.95722 15.0772
Si 6.36716 1.94424 12.817
Si 8.90943 6.55447 13.1598
O 6.1083 5.24375 15.4772
O 8.07038 0.593897 15.8188
O 7.43947 2.09439 13.9994
O 9.85279 6.87005 14.3934
O 6.76164 0.644132 11.9476
O 9.64627 5.60591 12.2363
O 6.03816 3.57682 12.1589
O 8.71284 7.91597 12.2776
O 7.51542 6.14462 13.5567
O 10.0304 1.84689 13.8401
O 6.70685 7.79536 15.6272
O 8.96258 3.1824 16.0568
Si 10.2491 4.58006 11.1137
Si 12.6266 -0.0558224 10.9177
Si 11.274 6.42308 14.9591
Si 13.7285 1.86479 14.5602
Si 11.0956 1.99937 12.8887
Si 13.6186 6.85316 12.7846
O 10.9717 4.78795 15.3318
O 13.5336 0.760885 15.6322
O 12.4233 2.34982 13.6997
O 14.6665 7.39935 13.8904
O 11.4392 0.702663 11.897
O 14.3457 5.60276 12.0111
O 10.9787 3.45143 12.0193
O 13.5743 8.26719 11.8229
O 12.3694 6.55262 13.7748
O 15.0058 1.48653 13.5268
O 11.7516 7.18416 16.2953
O 14.1378 3.04399 15.4476
Si 0.267344 13.2587 10.9922
Si 2.887 8.86404 10.9938
Si 1.16835 15.2981 14.8003
Si 3.52645 10.8732 14.7707
Si 1.3082 10.9495 12.8044
Si 3.51338 15.1076 12.6843
O 0.91225 13.9607 15.8034
O 3.0081 9.63837 15.4727
O 2.32194 11.3617 13.9927
O 4.78891 15.0791 13.5956
O 2.12583 9.85551 11.9262
O 3.49765 13.6579 11.9023
O 0.887945 12.1775 11.8934
O 3.33653 16.3045 11.6587
O 2.25702 15.1018 13.6354
O 4.85111 10.7643 13.7583
O 1.47772 16.6454 15.5315
O 4.20221 11.8183 16.0791
Si 4.63861 13.0652 10.9949
Si 7.6945 8.89992 11.1824
Si 6.06734 15.156 14.5415
Si 8.77921 11.1582 14.669
Si 6.05335 10.8789 12.8812
Si 8.73985 15.0964 12.7299
O 5.99196 13.8405 15.6627
O 8.35245 9.79359 15.4462
O 7.3923 11.2131 13.802
O 9.91284 15.8262 13.4872
O 6.72511 9.6446 12.0115
O 9.38172 13.7388 12.0797
O 5.66522 12.0206 11.8151
O 8.38353 15.9982 11.4127
O 7.40364 15.1384 13.6227
O 10.0146 11.127 13.7685
O 6.0523 16.2594 15.644
O 9.05349 12.3763 15.637
Si 10.1949 13.1301 11.0329
Si 12.4925 8.81517 10.828
Si 11.2781 15.5374 14.5319
Si 13.7655 10.7897 14.6379
Si 11.2667 11.0869 12.9402
Si 13.9944 15.2715 12.9835
O 10.7163 14.5409 15.6112
O 13.1295 9.50452 15.6067
O 12.4665 10.7874 13.7418
O 14.8694 15.4433 14.1665
O 11.4503 9.46946 11.9566
O 14.718 14.2679 12.0512
O 11.1688 12.1164 11.8004
O 13.5287 16.3147 11.7876
O 12.6107 15.0893 13.6645
O 15.0808 10.5281 13.6322
O 11.5865 16.8043 15.445
O 14.1958 11.9995 15.4609
324
 Atoms. Timestep: 25500
Si 0.0764612 4.43335 16.3272
Si 2.60343 0.101418 0.156922
Si 1.38028 6.19702 3.59248
Si 3.48068 2.28064 3.82532
Si 1.21095 2.55151 1.87073
Si 3.98435 6.24642 1.77175
O 1.18453 5.06486 4.67887
O 3.1003 1.00775 4.72603
O 2.26844 2.76982 2.97599
O 5.21563 6.71723 2.68332
O 1.53455 1.16183 1.1092
O 4.60941 5.15871 0.745268
O 1.08536 3.78665 0.756279
O 3.29793 7.53549 0.620338
O 2.78043 5.89258 2.7023
O 4.80034 2.06273 2.68407
O 1.49717 7.48981 4.58962
O 4.24593 3.28532 4.62939
Si 5.48682 4.23876 16.4602
Si 7.44391 17.199 16.583
Si 6.72191 6.56005 3.65501
Si 8.75358 1.90168 3.6083
Si 6.23993 1.88957 1.85035
Si 9.01295 6.58899 1.51769
O 6.19082 5.08139 4.22907
O 8.44215 0.888613 4.84695
O 7.4789 2.06661 2.73261
O 10.1928 6.70553 2.60862
O 6.55961 0.613147 0.940553
O 9.38494 5.36448 0.516066
O 6.18077 3.03793 0.814421
O 8.40044 8.01353 0.856822
O 7.78416 6.48019 2.42764
O 9.95697 1.52739 2.63361
O 7.05543 7.83524 4.46706
O 9.34945 3.06588 4.52405
Si 10.2415 4.27212 0.00223709
Si 12.7888 17.3157 0.0501254
Si 11.3172 6.31842 3.63451
Si 13.6633 2.25276 3.51842
Si 11.2622 1.85111 1.75172
Si 13.8973 6.18394 1.84956
O 10.9638 5.19648 4.6359
O 13.4344 1.1766 4.73205
O 12.3885 2.15003 2.77033
O 0.153417 6.26029 2.66669
O 11.5654 0.639939 0.795412
O 14.0515 5.14479 0.726552
O 10.7155 3.11899 0.863499
O 13.7529 7.59141 1.08107
O 12.7239 6.16276 2.82856
O 14.874 2.34241 2.46858
O 11.584 7.69566 4.589
O 13.9779 3.66712 4.53416
Si 14.9493 12.7774 16.3878
Si 2.43534 8.83773 0.0360406
Si 1.02876 15.5655 3.46118
Si 3.75208 10.7722 3.48526
Si 1.15552 10.942 1.81939
Si 3.6965 15.491 2.04207
O 0.631084 14.1479 4.73323
O 3.5034 9.37876 4.29239
O 2.13557 11.1626 3.07891
O 4.66762 15.6497 3.2436
O 1.59934 9.62251 1.11751
O 4.07849 14.2309 1.09371
O 0.962176 11.9685 0.515264
O 3.47827 16.871 1.18783
O 2.20072 15.0531 2.57832
O 4.74444 10.6575 2.21097
O 1.19684 16.7922 4.42662
O 4.53563 11.9507 4.35643
Si 4.71501 13.2842 16.3965
Si 7.61091 8.82591 16.425
Si 6.10515 15.4292 3.96327
Si 8.26721 11.2112 3.97414
Si 6.20055 11.1048 1.53775
Si 8.48923 15.0273 1.83925
O 5.68447 14.3304 5.01007
O 8.33071 10.0039 4.97632
O 7.05174 11.4056 3.06059
O 9.60498 15.3133 2.90303
O 6.93027 10.0143 0.641566
O 8.82192 13.4897 1.3124
O 5.82376 12.1996 0.714406
O 8.31872 16.0971 0.707498
O 7.15674 15.2164 2.71102
O 9.42816 10.3403 2.73529
O 6.66589 16.5215 5.04518
O 9.04962 12.5087 4.44204
Si 9.73061 12.8343 0.329768
Si 12.9318 8.61271 0.148611
Si 11.0465 15.4171 3.64169
Si 13.7489 10.938 3.62526
Si 10.9863 10.5291 2.00804
Si 13.5253 14.9342 1.82515
O 10.7022 14.3064 4.7154
O 13.6884 9.41671 4.31055
O 12.1786 11.1227 2.85659
O 14.8125 15.2284 2.60674
O 11.5986 9.26326 1.16054
O 14.1399 13.6356 0.99385
O 10.6493 11.7787 0.983643
O 13.6163 16.3745 0.987794
O 12.201 15.0032 2.60021
O 14.6755 10.8503 2.24402
O 11.4791 16.7067 4.50823
O 14.252 12.0726 4.71404
Si 0.126823 4.15843 5.60044
Si 2.43105 17.1697 5.53879
Si 1.60845 6.4003 9.07063
Si 3.89711 2.16666 9.10281
Si 1.19527 1.90624 7.3926
Si 4.10746 6.74176 7.25577
O 0.987108 4.95531 9.65049
O 3.74218 0.94441 9.94595
O 2.55375 2.24355 8.15034
O 5.16066 7.05393 8.37133
O 1.42338 0.371699 6.87107
O 4.63144 5.78497 6.03713
O 0.926263 3.00351 6.20077
O 3.63785 7.81903 6.17664
O 2.93818 6.20946 8.19052
O 5.30257 2.49881 8.54556
O 2.05474 7.15861 10.5285
O 4.03243 3.44964 10.25
Si 5.22456 4.47904 5.31528
Si 7.63208 0.08324 5.87391
Si 6.4221 6.56155 9.38375
Si 8.94109 2.5247 9.36437
Si 6.59374 2.69159 7.54691
Si 8.79009 6.47497 7.42714
O 5.88719 5.40253 10.3444
O 8.4707 1.21658 10.0626
O 7.76941 3.05554 8.47354
O 10.3199 6.07776 8.03255
O 6.7926 1.1808 6.74117
O 8.86474 5.00083 6.11484
O 5.93997 3.62769 6.38404
O 8.56038 7.72132 6.56524
O 7.62298 6.37226 8.47368
O 10.1928 2.54404 8.43609
O 6.88438 7.75378 10.3305
O 9.52741 3.58534 10.4826
Si 10.1118 4.12184 5.49369
Si 12.3236 0.134563 5.48962
Si 11.4213 6.16725 9.11738
Si 13.9865 2.07506 9.40738
Si 11.5474 2.57404 7.4678
Si 14.0166 6.52927 7.47705
O 11.5037 5.16201 10.2946
O 13.6787 0.804552 10.4838
O 12.784 2.05563 8.29522
O 0.38205 6.79585 8.02122
O 11.213 1.14021 6.31002
O 14.538 5.29292 6.65409
O 11.4081 3.59522 6.39092
O 13.4439 7.74495 6.64174
O 12.9796 6.08312 8.46882
O 0.158104 1.93578 8.57402
O 11.379 7.68536 9.63827
O 13.9958 3.32842 10.2691
Si 14.9773 13.215 5.61108
Si 2.59608 8.55434 5.29679
Si 1.26643 15.3504 9.03004
Si 3.66786 10.8502 9.34055
Si 1.19756 10.9403 7.12524
Si 3.61114 14.6677 7.02186
O 0.875825 14.2121 10.1147
O 3.49996 9.55668 10.3894
O 2.37739 10.8868 8.27761
O 4.75915 15.1543 8.14249
O 1.70047 9.74523 6.18732
O 3.99119 13.3437 6.60854
O 0.787947 12.4097 6.48475
O 3.22926 15.7846 5.81772
O 2.32239 14.599 8.0732
O 5.06731 10.6603 8.47669
O 1.7867 16.7119 9.67731
O 3.75861 12.3181 10.1067
Si 5.03409 12.9237 5.48078
Si 7.65507 8.85943 5.72518
Si 5.94339 15.3646 9.20623
Si 8.97728 10.996 9.24868
Si 6.30054 10.8109 7.45957
Si 8.66918 15.0895 7.78778
O 5.47375 14.5299 10.4333
O 8.48823 9.63927 9.90707
O 7.55877 11.3157 8.20624
O 9.92057 15.0948 8.7417
O 6.67422 9.52742 6.79197
O 9.25883 13.8972 6.70575
O 6.13288 11.952 6.39294
O 8.50145 16.6432 6.96175
O 7.18054 14.6734 8.2874
O 9.91222 10.8093 7.96521
O 6.89834 16.7144 9.59317
O 9.57785 11.7932 10.3605
Si 10.0316 13.0571 5.49376
Si 12.7204 8.59012 5.45449
Si 11.216 14.9986 9.58027
Si 13.6768 10.9699 9.23697
Si 11.1517 10.9345 7.12191
Si 13.4727 15.1918 7.32615
O 11.2162 13.8169 10.4626
O 13.3081 9.72691 9.92384
O 12.3328 11.2939 8.38403
O 14.6829 15.395 8.30736
O 11.8539 9.51368 6.35114
O 13.7844 14.0185 6.1946
O 10.9191 11.8663 5.89213
O 12.9486 16.5037 6.49604
O 12.2861 14.7582 8.37244
O 14.7537 10.5884 8.04302
O 11.6317 16.3826 10.2269
O 14.5767 12.0601 10.2277
Si 15.0147 4.42172 10.8292
Si 2.6485 0.245388 10.7705
Si 1.11791 6.91793 14.5769
Si 3.7094 2.26483 14.6184
Si 1.42724 2.5212 12.7715
Si 3.95446 6.47589 13.2083
O 0.580062 5.64533 15.4395
O 3.14247 0.989562 15.4413
O 2.76848 2.85342 13.5091
O 5.382 6.71921 13.8306
O 1.85232 1.22365 11.7889
O 4.08545 5.42684 12.2489
O 0.918117 3.58001 11.981
O 3.52351 8.02033 12.4217
O 2.60616 6.47312 14.2004
O 4.87605 1.66019 13.46
O 1.57451 8.1312 15.4843
O 4.46329 3.37065 15.3885
Si 4.85313 4.46685 11.238
Si 7.59605 0.15969 10.7487
Si 6.59515 6.35966 14.8234
Si 8.9294 2.09163 14.7078
Si 6.3143 2.15842 12.799
Si 9.10523 6.89646 13.1016
O 6.50643 5.22193 15.9612
O 8.51109 0.889959 15.8155
O 7.39784 2.40381 14.1047
O 10.409 6.73932 14.1625
O 6.6485 1.0616 11.6456
O 9.68966 5.96527 11.8028
O 5.90767 3.53031 12.1214
O 8.43192 8.10001 12.2449
O 7.84718 6.26764 13.8229
O 9.96702 1.79357 13.6885
O 6.7529 7.67201 15.6823
O 9.3609 3.38212 15.2379
Si 10.3974 4.68048 11.3238
Si 12.2925 0.0401657 11.2829
Si 11.6576 6.31597 14.9686
Si 14.142 1.95229 14.4593
Si 11.3031 2.38765 12.8668
Si 13.7861 6.40803 12.7479
O 11.4027 4.9521 15.8124
O 13.517 0.766055 15.5492
O 12.9404 2.31813 13.4923
O 15.0734 7.13325 13.5131
O 11.3952 1.31723 11.6078
O 14.3369 5.52122 11.7251
O 11.1056 3.83636 12.5122
O 13.1647 7.43552 11.634
O 12.7598 6.28045 13.9025
O 0.477555 1.69876 13.8009
O 12.0679 7.68581 15.7767
O 14.5171 3.33053 15.4433
Si 0.0244116 13.2407 11.2554
Si 2.56231 8.61356 11.3236
Si 1.04485 15.5438 14.7116
Si 3.82503 11.1628 14.6368
Si 1.21548 10.8658 12.6284
Si 3.36184 15.2828 12.7801
O 0.462422 14.0801 15.4835
O 3.40445 10.0276 15.8585
O 2.71313 11.0844 13.3454
O 4.65983 16.003 13.612
O 1.45613 9.73131 11.5733
O 3.70648 13.6844 12.3648
O 0.756054 12.2769 12.3926
O 3.03192 16.4861 11.7791
O 2.00538 15.2799 13.6059
O 5.1314 11.2085 13.8555
O 1.78512 16.3625 16.025
O 3.61415 12.5619 15.5015
Si 4.76659 13.2296 11.0469
Si 7.65038 8.92346 11.1252
Si 6.03757 15.4409 14.2041
Si 8.74749 10.8731 14.6959
Si 6.31865 11.3051 12.7255
Si 8.84271 15.2815 12.8256
O 5.61869 14.1802 15.2389
O 8.28833 9.37292 15.0944
O 7.72415 11.5347 13.4659
O 9.81596 15.2541 14.0471
O 6.69585 10.1396 11.6119
O 9.50471 13.8122 12.1461
O 5.90331 12.3757 11.7075
O 8.5853 16.6266 11.8314
O 7.20678 15.1687 13.2186
O 10.2127 10.5274 14.0259
O 6.69089 16.3214 15.3545
O 8.9929 11.979 15.7282
Si 10.5533 12.8613 11.428
Si 12.4434 8.56362 10.6217
Si 11.1851 14.9811 15.1451
Si 14.0631 10.724 14.827
Si 11.5393 10.4317 12.9992
Si 13.5056 15.3919 13.1146
O 10.7872 14.0833 16.3015
O 13.7891 9.81609 16.1347
O 12.8489 10.5099 13.9128
O 14.7224 15.9897 13.9653
O 11.6099 9.40525 11.6876
O 13.7852 14.2118 11.8994
O 11.3694 11.8241 12.3738
O 12.5502 16.5779 12.5193
O 12.5229 14.5517 14.1176
O 0.284577 10.3794 13.9272
O 11.9039 16.3842 15.5878
O 13.9863 12.2017 15.3783
324
 Atoms. Timestep: 26000
Si 0.355475 4.48834 0.193768
Si 2.61035 0.025472 16.6526
Si 1.49467 6.62126 3.70917
Si 3.74652 1.77205 3.81984
Si 1.47232 2.28914 1.90911
Si 3.98365 6.90248 1.77026
O 1.1697 5.12269 4.35075
O 3.67301 0.586708 4.6484
O 2.49566 2.12752 3.02854
O 5.10034 7.26783 2.77597
O 1.95327 1.21914 0.89611
O 4.14237 5.53602 0.79669
O 1.36401 3.53583 0.985449
O 3.35594 8.093 0.841507
O 2.73207 6.41318 2.65125
O 5.08801 1.48547 2.85315
O 1.89044 7.77347 4.70192
O 4.28634 3.10709 4.77021
Si 5.0542 4.2418 0.0972448
Si 7.70707 0.357061 16.4366
Si 6.33986 6.52677 3.6788
Si 8.90015 2.06462 3.65812
Si 6.23411 2.2265 2.01544
Si 9.17198 6.88543 1.78227
O 5.89017 5.14914 4.13407
O 8.7816 0.846617 4.73653
O 7.49456 2.53302 2.88315
O 10.21 7.10529 2.77532
O 6.73458 1.32146 0.772535
O 9.45282 5.5695 1.0271
O 5.6554 3.35469 1.20374
O 8.6435 7.87113 0.731383
O 7.76711 6.61477 2.80327
O 10.0117 2.08947 2.38747
O 6.50621 7.17416 5.03064
O 9.77431 3.36036 4.33567
Si 10.0815 4.6131 16.4125
Si 12.7642 0.169392 16.5074
Si 11.4591 6.84968 3.86171
Si 13.8004 2.41176 3.54276
Si 11.2692 2.50376 1.58561
Si 13.9311 6.70613 2.12744
O 11.221 5.78832 5.10508
O 13.4628 1.23276 4.69769
O 12.4788 2.67479 2.58106
O 15.1072 7.00613 3.27779
O 11.629 1.10192 0.808664
O 14.6945 5.48289 1.30096
O 11.1455 3.72984 0.588281
O 13.6982 7.93317 1.23001
O 12.6159 6.08634 2.96621
O 15.1019 1.96151 2.63886
O 12.1041 8.15918 4.40913
O 14.3316 3.57446 4.39042
Si 14.6375 13.19 0.0208576
Si 2.66473 8.80736 16.2743
Si 0.971824 15.2596 3.62953
Si 3.67056 11.1136 3.48902
Si 1.23245 10.9755 1.59601
Si 3.45985 14.9221 1.75858
O 1.00136 14.1113 5.01653
O 3.3246 9.85111 4.35341
O 2.21831 11.3082 2.80814
O 4.41668 15.5186 2.97214
O 1.80531 9.86035 0.643989
O 4.11638 13.4875 1.37952
O 0.515061 12.0279 0.85153
O 3.31956 16.2692 0.781122
O 2.05429 14.6118 2.55655
O 4.71416 10.8667 2.33098
O 1.4599 16.5823 4.50754
O 4.16231 12.3604 4.48875
Si 5.11218 13.0735 0.16019
Si 7.49374 8.54883 16.6775
Si 6.00725 15.5538 3.98851
Si 8.5796 10.6508 3.67796
Si 6.17262 10.8509 1.72274
Si 8.51815 15.5061 1.96756
O 5.93012 14.3452 5.04943
O 7.86601 9.44415 4.56151
O 7.47572 10.9762 2.72019
O 9.54962 15.8634 3.0884
O 6.80104 9.60723 0.989352
O 9.07155 14.1078 1.21619
O 6.24768 11.978 0.666364
O 8.40978 16.6262 0.892565
O 6.92859 15.2339 2.66378
O 9.83222 10.2733 2.81918
O 6.58311 16.8297 4.70959
O 9.04534 11.8707 4.62242
Si 9.93851 13.3793 0.220701
Si 12.8143 8.69312 0.188637
Si 10.9065 15.3097 3.8094
Si 13.8154 10.9815 3.63098
Si 11.2166 10.7482 1.90141
Si 13.4978 15.2344 1.84909
O 10.6892 13.9565 4.71214
O 13.8615 10.1485 5.02976
O 12.3236 11.0699 2.93121
O 14.6703 15.5196 3.08041
O 11.6916 9.56119 0.856178
O 13.4909 13.817 0.961883
O 10.7303 12.0082 1.03062
O 13.6512 16.5073 0.879084
O 12.1334 14.8685 2.57343
O 14.9011 10.3062 2.5242
O 11.5431 16.5775 4.44945
O 14.4299 12.4156 3.98051
Si 0.157941 4.31899 5.46242
Si 2.73154 17.1105 5.57531
Si 1.13676 6.67674 8.88125
Si 3.54503 2.03733 9.30294
Si 1.36237 2.0099 7.28628
Si 3.87468 6.63704 6.9949
O 0.711979 5.23588 9.49621
O 2.86805 1.02238 10.1267
O 2.48327 2.67257 8.35984
O 5.03183 6.65652 8.09138
O 2.24702 0.691271 6.7071
O 4.00477 5.43125 6.01029
O 1.00239 3.21044 6.41045
O 3.87487 8.03845 6.07606
O 2.38604 6.52993 7.92321
O 4.82825 1.81737 8.08477
O 1.50462 7.42943 10.1553
O 4.01999 3.25467 10.1972
Si 5.17055 4.32385 5.30713
Si 7.87165 17.4743 5.86122
Si 6.18526 6.35855 8.98125
Si 8.86069 2.08933 9.21287
Si 6.18101 2.43538 7.45413
Si 8.82331 6.44314 7.23928
O 5.89604 5.11678 9.83928
O 8.2109 0.78901 10.0862
O 7.61725 2.48731 8.37796
O 9.82788 6.69438 8.4064
O 6.9266 1.27044 6.58153
O 9.14221 5.17775 6.35434
O 5.93298 3.60152 6.4901
O 8.68499 7.66518 6.1784
O 7.39881 6.31213 7.8505
O 10.2568 1.94936 8.328
O 6.56446 7.66489 10.2139
O 9.13918 3.32563 10.2504
Si 10.3866 4.417 5.36003
Si 12.6082 17.4356 5.41278
Si 11.3436 6.43246 9.23937
Si 13.8761 1.80461 9.00042
Si 11.5096 2.23804 7.20919
Si 13.7962 6.53367 7.22135
O 10.9158 5.05113 10.1627
O 13.0652 1.01297 10.0332
O 12.8201 2.54261 8.02178
O 14.7425 7.10926 8.36441
O 11.6896 0.771969 6.32166
O 14.3062 5.14716 6.33789
O 11.2837 3.29082 6.22757
O 13.7635 7.6366 6.04982
O 12.4212 6.21352 8.18266
O 0.0372846 1.51533 7.95455
O 11.9919 7.45484 10.2641
O 14.7974 2.96973 9.99285
Si 14.9509 13.0145 5.56696
Si 2.78344 8.83401 5.41832
Si 1.30051 14.7405 9.16192
Si 3.70649 10.8344 9.27094
Si 1.31885 10.939 7.42162
Si 4.00059 15.0667 7.35776
O 0.765116 13.7806 10.2893
O 2.987 9.43905 9.78156
O 2.55268 11.3335 8.27539
O 5.33247 15.678 7.9251
O 1.74786 9.56665 6.46257
O 4.57079 13.6873 6.94578
O 0.505976 11.9266 6.65852
O 3.24701 15.779 6.22928
O 2.81818 15.0777 8.53224
O 5.06055 10.5946 8.63936
O 1.53015 16.2106 10.301
O 3.9107 11.9767 10.3081
Si 5.20574 13.0831 5.52332
Si 7.39561 8.48561 5.66157
Si 6.18336 15.1772 9.11549
Si 9.03153 10.7353 9.09366
Si 6.28653 10.6005 7.42568
Si 8.77672 14.85 7.37872
O 5.40825 14.0883 10.0852
O 8.24499 9.66244 10.1651
O 7.63527 11.0698 7.95149
O 10.0407 14.9725 8.17194
O 6.59834 9.15069 6.79717
O 9.11063 13.7234 6.29211
O 5.79481 11.7397 6.17689
O 8.39274 16.1794 6.67475
O 7.34516 14.4375 8.30493
O 10.3545 10.1371 8.50579
O 6.48819 16.3309 10.1581
O 9.4337 12.1028 9.99781
Si 10.0521 12.6472 5.54574
Si 12.9414 8.77159 5.44346
Si 11.1873 15.2794 9.20677
Si 13.6905 10.9169 9.05597
Si 11.3275 10.5428 7.33221
Si 13.9108 15.5597 7.42513
O 10.937 14.1065 10.3559
O 13.154 9.58483 9.8944
O 12.5429 11.2063 8.03841
O 0.274094 15.1344 7.88666
O 11.9398 9.39585 6.56117
O 13.6678 14.1419 6.14761
O 10.8015 11.6662 6.42165
O 13.5957 16.605 6.35707
O 12.684 15.4698 8.5963
O 0.158396 10.5769 8.543
O 11.0372 16.6689 10.0982
O 13.6491 12.318 10.0431
Si 0.301018 4.22782 10.736
Si 2.29509 17.3474 10.9955
Si 1.68768 6.3308 14.6626
Si 4.01229 1.93081 14.8795
Si 1.37157 2.04608 12.7531
Si 4.11283 6.47007 13.0332
O 1.28279 5.25863 15.7399
O 3.68953 0.522354 15.4817
O 2.67533 2.06432 13.8385
O 5.21363 6.90499 14.0065
O 1.30044 0.825553 11.9205
O 4.65971 5.36135 12.0968
O 1.28739 3.56729 11.8791
O 3.36235 7.51011 11.9591
O 2.99785 5.75287 14.0256
O 5.2563 2.28008 13.9916
O 2.08349 7.78508 15.3977
O 4.15194 3.08564 15.901
Si 4.97616 4.31268 10.8558
Si 7.10281 17.5518 11.0327
Si 6.28499 6.25925 15.0154
Si 8.94674 2.42675 14.7956
Si 6.34679 2.24278 12.8408
Si 8.77793 6.72286 12.9743
O 5.80375 4.77152 15.439
O 8.76165 1.2906 15.8235
O 7.80087 2.57506 13.5871
O 10.1717 7.05648 13.8851
O 6.24307 0.803672 12.2172
O 9.20629 5.44515 12.062
O 6.02275 3.1028 11.4321
O 8.06048 7.86879 12.1473
O 7.80284 6.34772 14.18
O 10.1408 1.91001 13.8801
O 6.48657 7.30653 16.1684
O 8.85572 3.62101 15.613
Si 10.0548 4.24933 11.2298
Si 12.2607 17.2923 10.9685
Si 11.6083 6.7958 14.516
Si 13.9547 2.37232 14.7744
Si 11.4091 1.99764 13.0933
Si 14.1817 6.47456 12.6541
O 11.0533 5.34523 15.4132
O 13.4199 1.1417 15.6475
O 12.8395 2.86444 13.775
O 0.440498 6.54948 13.6178
O 11.9013 0.767805 12.2634
O 14.5862 5.23905 11.5727
O 10.9795 3.3542 12.1433
O 13.6128 7.91403 12.0746
O 12.8314 6.25739 13.6232
O 0.0756285 2.10395 13.7225
O 12.1575 7.5806 15.8036
O 14.4029 3.28645 16.0057
Si 14.6952 12.8887 11.1668
Si 2.34724 8.49023 11.0202
Si 0.962114 15.5801 14.714
Si 4.14964 10.9984 14.6004
Si 1.3593 10.8825 12.8212
Si 3.58161 15.5367 13.0949
O 0.357434 14.532 16.0173
O 3.53608 9.90583 15.4291
O 2.86667 11.2044 13.5855
O 4.75422 15.952 14.0822
O 1.43226 9.524 11.9054
O 3.94548 14.1982 12.2071
O 0.62221 11.9691 11.9835
O 3.28529 16.7872 12.0567
O 2.24379 15.2572 13.9254
O 5.48402 10.6134 13.9246
O 1.30232 16.9033 15.4669
O 4.28966 12.3635 15.5573
Si 4.73899 13.1387 11.139
Si 7.26464 8.75528 11.1564
Si 6.13771 15.5184 14.8203
Si 8.76524 10.9403 14.9436
Si 6.48293 11.0406 12.8011
Si 8.31424 15.0717 13.0514
O 5.67252 14.2578 15.9291
O 8.01796 9.55921 15.4155
O 7.85235 11.1839 13.515
O 9.52973 15.6437 14.1286
O 6.13916 9.90398 11.6822
O 8.82125 13.9277 11.8887
O 5.78908 12.3906 12.0499
O 8.0044 16.3253 11.8589
O 7.08173 14.7455 13.9082
O 10.2125 10.6209 14.2582
O 6.88014 16.8119 15.4063
O 9.16185 12.2324 15.6632
Si 10.062 13.1671 11.178
Si 12.4603 8.69258 11.1002
Si 11.0734 15.4473 14.8362
Si 13.9671 10.9705 14.5809
Si 11.2288 10.8443 13.0271
Si 13.4594 15.0143 12.682
O 10.9059 14.2583 15.7667
O 13.6843 9.75318 15.6973
O 12.8023 10.8373 13.5126
O 14.6404 15.4252 13.7352
O 11.5587 9.60791 12.0954
O 13.4838 13.596 12.0185
O 10.9709 12.1825 12.0498
O 13.3012 16.0991 11.4197
O 11.9497 15.1674 13.4832
O 0.180379 10.7311 13.9386
O 11.6908 16.6056 15.6029
O 14.0988 12.2303 15.3724
324
 Atoms. Timestep: 26500
Si 0.322937 4.32141 0.258862
Si 2.49575 17.1404 16.2426
Si 0.773152 7.05318 3.74579
Si 3.78596 2.09508 3.74201
Si 1.30536 1.70858 1.83337
Si 3.56852 6.71314 1.85836
O 0.206563 5.58348 4.52565
O 3.60173 0.996312 4.72599
O 2.66096 1.92476 2.74895
O 5.00679 6.72721 2.79113
O 1.26322 0.50574 0.757582
O 3.80959 5.55868 0.69638
O 0.976762 3.24879 1.16149
O 3.24915 8.10298 1.31592
O 2.16147 6.44042 2.83758
O 5.20382 2.10662 2.99204
O 1.63763 7.88877 4.77053
O 4.05909 3.26142 4.74254
Si 4.93933 4.62977 0.157746
Si 7.44666 0.0337009 0.0823994
Si 6.18486 6.33081 3.79363
Si 8.75962 2.5318 3.71703
Si 6.47831 2.53581 1.92336
Si 8.46 6.49933 1.81337
O 5.81467 5.00559 4.856
O 7.97241 1.35261 4.45706
O 7.93181 2.8433 2.49937
O 9.9274 6.61688 2.83846
O 6.73334 1.34409 0.78516
O 8.81989 5.71703 0.427658
O 5.76824 3.82918 1.23675
O 7.94731 7.85119 1.16093
O 7.39752 5.74694 2.82784
O 10.0937 2.04575 2.94511
O 6.63875 7.55654 4.51665
O 8.88968 3.75045 4.762
Si 9.99263 4.65345 16.4109
Si 12.3212 0.114028 16.6006
Si 11.3432 6.33658 3.49331
Si 13.8095 1.97159 3.52072
Si 11.3047 2.52053 1.98091
Si 13.9522 6.78385 1.70631
O 10.8837 5.13949 4.34782
O 13.4175 0.889502 4.76573
O 12.6853 2.19811 2.4988
O 14.5633 7.37246 3.0076
O 11.2917 1.23778 0.699962
O 14.9248 5.58051 1.26377
O 10.7402 4.08814 1.34199
O 13.3681 7.65995 0.592294
O 12.523 6.23867 2.53123
O 0.000685924 1.36046 2.77829
O 11.7878 7.66221 4.62864
O 14.2927 3.14894 4.53545
Si 15.1075 13.2883 16.5512
Si 2.32564 8.89984 0.0615083
Si 0.893127 15.4623 3.64905
Si 3.74621 11.0135 3.4555
Si 1.09393 11.023 1.75178
Si 3.44069 15.2168 1.79318
O 0.628634 14.3423 4.8474
O 3.32012 9.85983 4.65393
O 2.58535 11.0118 2.46471
O 4.61184 15.638 2.7701
O 1.20868 9.7247 0.859348
O 3.83635 13.845 1.12574
O 0.89107 12.3113 0.832384
O 3.07201 16.3164 0.691704
O 1.99012 14.9794 2.3878
O 5.32529 10.3783 3.04459
O 1.70829 16.6809 4.33563
O 3.76475 12.6327 4.01729
Si 4.99171 13.114 0.269814
Si 7.26054 8.73943 -0.0662213
Si 6.09562 15.0661 3.44539
Si 8.87133 10.9232 3.54866
Si 6.27424 10.5182 1.83815
Si 8.73684 15.1834 1.77732
O 5.7668 14.1514 4.54189
O 8.31782 9.46706 4.194
O 7.70159 11.0767 2.41677
O 9.86244 15.3655 2.79288
O 6.0645 9.35995 0.815039
O 9.31873 14.4695 0.493658
O 5.80658 12.0097 1.0011
O 7.95402 16.3855 1.25346
O 7.32207 14.4683 2.44866
O 10.4157 10.4471 2.98755
O 6.63936 16.4959 4.02102
O 9.31975 11.8875 4.84885
Si 10.2788 13.1533 16.4666
Si 12.5301 8.81326 16.3105
Si 11.1949 15.181 3.67963
Si 13.5962 11.1232 3.80027
Si 11.4328 10.9589 1.76698
Si 13.69 15.4877 2.00882
O 10.8814 13.9368 4.64653
O 13.1763 9.64638 4.4985
O 12.7742 11.1909 2.485
O 14.7712 15.7176 2.9301
O 11.6702 9.72223 0.661195
O 14.2304 14.2029 1.0894
O 10.8759 12.1643 0.946446
O 12.8434 16.6558 1.34322
O 12.4007 14.6913 2.78289
O 0.00574779 10.9041 3.08504
O 11.3346 16.5186 4.53025
O 13.9789 12.1643 5.10404
Si -0.0124642 4.31205 5.35328
Si 2.48329 17.3723 5.54673
Si 1.46405 6.43648 9.35262
Si 3.92416 1.96919 9.10303
Si 1.44005 2.34635 7.32209
Si 3.51994 6.30067 7.48353
O 1.38554 5.34847 10.4303
O 3.5559 1.06733 10.2949
O 2.56672 2.5297 8.49616
O 4.61107 6.42819 8.65584
O 1.73632 0.859782 6.56221
O 4.02297 5.3224 6.39503
O 1.14695 3.49265 6.26624
O 3.32067 7.66126 6.73608
O 2.19709 5.94677 8.14557
O 4.85638 0.948269 8.21603
O 1.99972 7.83831 9.85421
O 4.84354 3.12626 9.72577
Si 4.80423 4.09524 5.73543
Si 7.53852 17.4017 4.99866
Si 6.11217 6.41547 9.19805
Si 8.71095 1.87674 9.25618
Si 5.96308 1.53244 7.37543
Si 8.80634 6.74446 7.26028
O 6.32965 5.05514 10.1345
O 8.28235 0.689601 10.1964
O 7.30503 1.96181 8.34446
O 9.66106 7.06602 8.56415
O 6.44867 0.326299 6.20344
O 9.42439 5.32394 6.66309
O 5.24965 2.88825 6.87057
O 8.68874 7.85784 6.15796
O 7.32751 6.52744 8.12897
O 9.85857 1.59172 8.04852
O 6.42385 7.8188 10.0258
O 9.54936 3.03837 9.87677
Si 10.0839 4.40957 5.53863
Si 12.5341 17.1507 5.59697
Si 11.0718 6.47922 9.02688
Si 13.844 2.42164 9.16764
Si 11.2333 2.00172 7.47775
Si 13.7696 6.34882 7.36686
O 10.7692 5.14303 9.70142
O 13.5183 1.17303 10.1789
O 12.3543 2.54713 8.41661
O 14.7382 6.5627 8.65355
O 11.98 0.675221 6.82491
O 14.1663 4.99271 6.58064
O 10.8655 3.28047 6.50571
O 13.4054 7.67587 6.60851
O 12.1408 6.15656 7.84207
O 15.0299 2.17376 8.04982
O 11.8699 7.51195 10.087
O 14.3961 3.67987 9.8918
Si 0.119173 13.1836 5.8132
Si 2.48448 8.80646 5.73313
Si 1.19668 15.3636 9.38062
Si 3.91538 11.0306 9.01175
Si 1.16481 10.8944 7.46954
Si 3.75202 15.1827 7.35728
O 0.566571 14.165 10.1394
O 3.91725 9.79021 10.0705
O 2.3105 11.2188 8.42277
O 4.71687 15.3274 8.61027
O 1.69697 9.76588 6.58873
O 4.15374 13.8667 6.71048
O 1.1354 12.1297 6.40046
O 3.43674 16.2995 6.33873
O 2.24946 14.9865 8.30001
O 4.92193 10.7094 7.83622
O 1.80824 16.5588 10.1732
O 4.38559 12.2873 9.8483
Si 4.8512 13.2313 5.31381
Si 7.64016 8.52071 5.20826
Si 6.20361 15.3195 9.01659
Si 8.62724 10.8974 9.28538
Si 6.32429 10.7756 7.11289
Si 8.74412 15.3966 7.09689
O 6.45722 13.9046 9.97825
O 8.36495 9.60098 10.081
O 7.41849 11.1715 8.30233
O 10.0815 15.7844 7.90432
O 6.90564 9.6083 6.39011
O 8.78322 13.8925 6.38547
O 5.8931 12.0085 5.88493
O 8.64561 16.4266 5.74247
O 7.36186 15.4899 7.87736
O 9.93587 10.5679 8.53192
O 6.64882 16.2708 10.1895
O 8.95091 11.9982 10.4319
Si 10.0162 13.0794 5.71968
Si 12.6068 8.68986 5.71408
Si 11.085 15.5424 9.14166
Si 13.8246 10.8609 9.48896
Si 11.2528 10.9769 7.69509
Si 13.8425 15.2466 7.66533
O 10.1837 14.2999 9.92523
O 13.6454 9.41697 10.2618
O 12.595 11.1546 8.45637
O 14.9024 15.9731 8.50596
O 11.697 9.75261 6.63828
O 14.4057 13.9216 7.06294
O 10.9216 12.2624 6.74345
O 13.362 16.0224 6.43303
O 12.3661 14.753 8.48027
O 14.9704 10.6559 8.32043
O 11.6157 16.7036 10.1245
O 14.0326 11.9763 10.5206
Si 0.184548 4.55325 11.1579
Si 2.47912 0.115173 11.2013
Si 1.49532 6.41186 14.8367
Si 4.03019 2.27918 14.7086
Si 1.35813 2.06865 13.2644
Si 3.8962 6.5336 12.6842
O 0.768274 4.96187 15.4612
O 3.48702 0.987141 15.6853
O 2.871 2.55249 13.6167
O 5.2574 6.94358 13.5075
O 1.50084 0.72135 12.4368
O 4.0928 5.2343 11.5825
O 0.787129 3.24939 11.9823
O 3.59202 7.65726 11.8278
O 2.64732 6.14152 13.7092
O 5.36279 1.74865 13.9789
O 1.9338 7.78535 15.4686
O 4.27543 3.55519 15.7594
Si 5.25641 4.18648 10.9283
Si 7.44715 17.1917 11.1825
Si 6.44455 6.45302 14.5171
Si 9.33986 2.11084 14.7682
Si 6.64032 2.13394 13.0371
Si 8.85798 6.10645 12.5984
O 5.95339 5.48675 15.6971
O 8.66521 0.700761 15.7814
O 7.93582 2.26952 13.916
O 10.0694 6.75518 13.511
O 6.72465 0.869137 12.1566
O 9.39595 4.66764 11.9204
O 5.96186 3.41611 12.194
O 8.60765 7.40456 11.6422
O 7.59716 6.02168 13.5253
O 10.5831 1.85745 13.9173
O 6.89689 7.75728 15.2304
O 9.40996 3.38941 15.4895
Si 10.4771 4.01508 10.7892
Si 12.841 0.162887 11.0992
Si 11.3951 6.58863 14.4043
Si 13.8743 2.31032 15.0642
Si 11.7517 2.44961 13.0172
Si 14.0031 6.50199 13.1492
O 10.8116 5.64983 15.6429
O 13.3636 1.00588 15.6391
O 12.8041 2.93884 14.0595
O 0.0868529 6.93165 14.0784
O 11.9775 1.19952 12.0587
O 14.3255 5.35647 12.1223
O 11.4653 3.3932 11.8211
O 13.4835 7.8278 12.4632
O 12.7895 5.97262 13.9996
O 0.141744 2.00339 14.2397
O 11.8201 7.92646 15.1827
O 14.0992 3.46382 16.1801
Si 0.0184371 12.9413 11.1677
Si 2.96069 8.908 10.8381
Si 1.20571 15.2138 14.3757
Si 3.90973 11.1443 14.755
Si 1.49908 10.7733 12.7136
Si 3.8184 15.4102 12.7664
O 1.01299 14.0449 15.5714
O 3.31761 9.99339 15.9658
O 2.7273 11.3975 13.5647
O 4.76608 15.3361 14.104
O 2.22287 9.50609 12.18
O 4.48917 14.1564 11.7069
O 1.07386 11.8936 11.6398
O 3.67249 16.6239 11.8598
O 2.31234 15.016 13.1364
O 5.29851 10.4483 14.2063
O 1.78364 16.4897 14.966
O 4.08999 12.3902 15.6811
Si 5.44076 13.0675 10.8943
Si 7.70676 8.40814 10.9962
Si 6.14697 15.4229 14.823
Si 8.85816 10.7656 14.7913
Si 6.38472 10.6254 12.8548
Si 8.73661 15.3338 13.0387
O 6.09404 14.2974 16.0307
O 8.24954 9.8017 15.925
O 7.67412 10.948 13.8178
O 10.0172 15.6207 13.9811
O 7.03839 9.37139 12.1206
O 9.26861 13.9197 12.2909
O 6.0431 11.9613 11.9827
O 8.54764 16.4343 12.0436
O 7.3756 15.2636 13.9045
O 10.1322 10.5278 13.6667
O 6.70732 16.6854 15.5649
O 9.23912 12.3277 15.5883
Si 9.83761 13.2297 11.0514
Si 12.7341 8.43857 11.1029
Si 11.5309 15.2 14.6726
Si 13.8413 11.028 14.6304
Si 11.2614 10.922 12.5208
Si 13.8121 15.2069 12.7828
O 11.1716 13.9836 15.597
O 13.5694 9.74416 15.6253
O 12.5384 11.2601 13.5575
O 14.6568 15.7644 14.019
O 11.7174 9.6087 11.6119
O 14.5296 13.7756 12.4994
O 10.9529 12.1809 11.5859
O 13.7717 16.4631 11.8266
O 12.5092 14.8194 13.4258
O 0.203402 10.7534 13.7883
O 11.9542 16.4138 15.5641
O 14.1519 12.2521 15.6803
324
 Atoms. Timestep: 27000
Si 14.7015 4.44751 16.3269
Si 2.60434 0.28751 16.4447
Si 0.905846 6.65744 3.56742
Si 3.73324 2.07919 3.51701
Si 1.2501 2.26417 1.69796
Si 3.53623 6.66043 2.00951
O 0.406734 5.40479 4.48172
O 3.27329 0.644703 4.28265
O 2.71034 2.42754 2.31993
O 4.72299 6.95536 3.05316
O 1.32365 1.08433 0.679323
O 4.17394 5.70621 0.910882
O 0.558757 3.34897 0.825296
O 3.23393 8.14965 1.46252
O 2.18092 6.18833 2.75472
O 5.23356 1.85248 2.6113
O 1.36538 7.76471 4.64653
O 3.89981 3.08914 4.69005
Si 5.066 4.71467 16.4647
Si 7.64326 17.415 16.375
Si 6.01133 6.45505 3.70305
Si 8.69107 2.26166 3.84473
Si 6.50293 2.31888 1.79535
Si 8.52505 6.44726 1.93808
O 5.8144 5.02072 4.31003
O 8.17393 0.936701 4.55773
O 7.62173 2.68609 2.8467
O 9.3251 7.04884 3.06109
O 7.22784 1.20462 0.878472
O 9.20555 5.13229 1.20025
O 5.6825 3.62916 0.898668
O 8.37487 7.58606 0.742867
O 7.12493 6.39268 2.52606
O 10.1532 2.10343 3.04028
O 6.64773 7.69408 4.79624
O 9.16448 3.48564 4.85841
Si 10.148 4.18374 0.205057
Si 12.6392 0.228825 0.109363
Si 10.6303 6.75232 3.6983
Si 14.157 1.89882 3.93585
Si 11.3977 2.16133 2.17314
Si 13.4404 6.64406 1.6072
O 10.8705 5.45492 4.73472
O 13.982 0.4142 4.58007
O 12.7598 2.16809 3.01398
O 14.7529 6.79877 2.6013
O 11.7313 0.752213 1.3099
O 13.8985 5.36667 0.828819
O 11.2224 3.38771 1.03102
O 13.385 7.83283 0.583867
O 12.0518 6.6436 2.67847
O 0.445139 2.04039 3.06409
O 11.2495 8.10273 4.643
O 14.2714 3.04545 5.00258
Si 0.282036 13.1114 0.0583776
Si 2.48131 8.8565 0.251512
Si 1.31461 15.0692 3.98703
Si 3.997 10.6918 3.65835
Si 1.48975 11.079 2.17495
Si 3.61016 15.426 2.01779
O 0.724898 13.9777 4.78103
O 3.20723 9.44292 4.29327
O 2.86987 11.485 2.85725
O 5.03563 15.5653 2.67638
O 1.51082 9.86244 1.07462
O 3.65856 13.9781 0.940987
O 1.05182 12.2748 1.18173
O 3.19546 16.6057 0.97565
O 2.73927 14.6986 3.19168
O 5.31384 10.3932 2.6613
O 1.41234 16.4672 4.74724
O 4.38539 11.5335 4.82622
Si 4.6591 12.9365 0.248403
Si 7.90985 8.75374 16.3756
Si 6.2286 15.0328 3.52969
Si 8.88929 10.8715 3.7478
Si 6.50802 10.9239 1.74595
Si 8.70577 15.1181 1.68147
O 5.51456 13.7183 4.29009
O 8.31913 9.56795 4.41567
O 7.72229 11.5596 2.60077
O 9.83896 15.4082 2.91154
O 7.16233 9.72691 0.914519
O 9.02643 13.8748 0.880123
O 5.65266 11.9687 0.817446
O 8.4638 16.3019 0.58952
O 7.41566 14.7551 2.55995
O 10.3711 11.0504 2.83527
O 6.69085 16.0357 4.71349
O 9.11017 11.9874 4.77288
Si 10.2579 13.3016 16.4337
Si 12.5414 8.82347 16.3152
Si 11.28 15.095 3.36903
Si 13.7969 10.9725 3.9435
Si 11.5855 11.0564 1.85747
Si 13.9997 15.3483 1.78304
O 11.0898 13.8682 4.50258
O 13.2632 9.51265 4.42178
O 12.963 11.3507 2.75273
O 0.241049 15.2284 2.86738
O 11.9472 9.9687 0.778635
O 14.211 14.003 0.879871
O 11.1666 12.3669 0.893283
O 13.7094 16.4973 0.669271
O 12.5757 14.9341 2.42319
O 0.448736 10.6898 3.3393
O 11.9458 16.5023 4.02939
O 14.0248 11.9921 5.09875
Si 14.9254 4.29689 5.67082
Si 2.34145 0.132228 5.60319
Si 1.13748 6.56171 9.25036
Si 3.70256 2.22809 9.35951
Si 1.23434 2.43763 7.40621
Si 3.61124 6.15998 7.36178
O 0.447512 5.49655 10.2373
O 3.54202 0.825509 10.2877
O 2.40084 2.46197 8.54837
O 4.82384 6.63818 8.27187
O 1.83952 1.30673 6.48242
O 3.95875 4.88326 6.49398
O 1.01225 3.85314 6.60779
O 3.18912 7.4178 6.32809
O 2.5523 6.04838 8.62164
O 4.93535 2.00326 8.17118
O 1.51325 7.94696 10.0375
O 4.03888 3.57862 10.1533
Si 4.80826 4.19306 5.3352
Si 7.42502 17.2189 5.42145
Si 6.19107 6.6508 9.22267
Si 8.88983 2.08877 9.19074
Si 6.24524 1.96585 7.23059
Si 8.72515 6.53627 7.53346
O 6.00709 5.57765 10.5147
O 8.32969 0.91227 10.193
O 7.60285 2.28085 8.15663
O 9.76656 6.81513 8.79997
O 6.53881 0.627312 6.51154
O 9.35907 5.50017 6.63736
O 5.84333 3.09773 6.12546
O 8.08293 7.9003 6.83891
O 7.40994 5.95418 8.33011
O 10.032 1.73948 8.17426
O 6.83056 7.96121 9.80652
O 9.18398 3.47875 9.91861
Si 10.1274 4.4024 5.6619
Si 12.6332 17.2201 5.27613
Si 11.0788 6.59102 9.49423
Si 13.9212 2.31423 9.24449
Si 11.4522 2.03282 7.23974
Si 13.5869 6.59014 7.52031
O 11.1052 5.19936 10.4504
O 13.8544 0.944086 10.2608
O 12.627 2.2509 8.31016
O 15.0639 7.03432 7.99603
O 12.0984 0.869094 6.12241
O 14.2039 5.2837 6.68261
O 10.8575 3.45049 6.52174
O 13.0204 7.47455 6.33865
O 12.4327 6.3805 8.66412
O 14.9686 2.0814 8.042
O 11.7078 7.84554 10.3536
O 13.9657 3.50067 10.2557
Si 0.0212589 12.9407 5.84618
Si 2.45798 8.50132 5.41565
Si 1.01393 15.6016 9.04481
Si 3.78581 10.6829 9.2351
Si 1.38554 10.6725 7.3014
Si 3.60939 15.3683 7.26334
O 0.733918 14.2657 10.1544
O 3.56782 9.50608 10.1848
O 2.30679 11.1138 8.60931
O 4.6006 15.4875 8.49521
O 1.83599 9.37707 6.50572
O 3.87055 14.2324 6.20188
O 1.1956 12.115 6.42793
O 3.48263 16.8226 6.56878
O 2.15044 15.4269 7.9315
O 4.8217 10.3053 8.08411
O 1.45717 16.787 9.99039
O 4.39783 11.7093 10.1812
Si 4.83889 13.0206 5.38316
Si 7.40193 8.80674 5.56215
Si 6.12939 15.1783 9.10264
Si 8.74568 11 9.16547
Si 6.06736 11.1729 7.40492
Si 8.73322 15.2996 7.41092
O 6.21924 13.7581 9.99125
O 8.67882 9.77876 10.4711
O 7.34067 11.2142 8.46462
O 9.71604 15.6475 8.61579
O 6.88435 10.1381 6.4602
O 9.64112 14.0809 6.70542
O 5.55011 12.5441 6.7608
O 8.72577 16.4503 6.15267
O 7.22114 15.233 7.96598
O 9.81023 10.2784 8.21957
O 6.46914 16.4384 10.0721
O 9.32315 12.484 9.6699
Si 10.1294 13.0072 5.45217
Si 12.3251 8.70139 5.4382
Si 11.2078 15.3932 9.28662
Si 13.8605 10.8256 8.87218
Si 11.1561 10.7757 7.44202
Si 13.4624 15.073 7.3915
O 10.7682 14.5017 10.4648
O 13.4985 9.61777 9.91286
O 12.3963 11.0881 8.243
O 14.7534 15.9157 8.19086
O 11.4998 9.48215 6.61735
O 14.2465 13.6951 6.88847
O 10.9056 12.0995 6.55968
O 13.0209 16.0255 6.25116
O 12.1922 14.5951 8.38449
O 0.0542632 10.3803 8.09727
O 12.2051 16.6001 9.60677
O 14.4058 12.147 9.76234
Si 14.9682 4.46738 11.2193
Si 2.4328 17.3196 10.8664
Si 1.19235 6.84885 14.8015
Si 4.0283 2.49829 14.6296
Si 1.24414 2.08059 12.9955
Si 3.762 6.51811 12.9853
O 0.763829 5.60314 15.9316
O 3.41156 1.49543 15.9185
O 2.58428 2.81763 13.8081
O 4.93481 7.17943 13.8692
O 1.78598 0.796603 12.0994
O 4.5605 5.12511 12.3815
O 0.590377 3.23366 12.0287
O 3.21186 7.35139 11.7192
O 2.43224 6.31406 13.9923
O 5.24912 2.20617 13.8063
O 1.81801 7.9508 15.7788
O 4.32608 3.83554 15.3924
Si 5.15747 4.31679 10.9798
Si 7.51333 17.2182 11.0449
Si 6.33944 6.87689 14.5906
Si 8.93505 2.14534 14.5596
Si 6.45176 2.24839 12.7124
Si 8.86332 6.35501 12.9102
O 5.90458 5.66496 15.5322
O 8.27101 0.841611 15.2261
O 7.86854 2.50762 13.4813
O 10.0634 7.11846 13.6229
O 6.68217 0.75704 11.9607
O 9.33079 5.0079 12.133
O 6.1159 3.23801 11.6262
O 8.56836 7.50171 11.7447
O 7.57564 6.2059 13.6898
O 10.1869 1.68245 13.599
O 6.90731 7.97016 15.4481
O 9.59984 2.7991 15.7691
Si 10.1381 4.11264 10.9965
Si 12.9904 17.3504 10.8754
Si 11.0917 6.75618 14.9441
Si 13.712 2.1954 14.6663
Si 11.4586 1.8388 12.441
Si 13.6025 6.62154 13.0466
O 10.8131 5.45227 15.9764
O 13.4145 1.40142 16.0104
O 12.464 2.2529 13.6126
O 15.0342 7.15697 13.8616
O 11.8962 0.496893 11.7232
O 14.1761 5.22227 12.3715
O 10.737 2.9133 11.6756
O 13.3444 7.45454 11.8454
O 12.4035 6.261 14.0057
O 15.044 1.75195 13.8813
O 11.493 8.06868 15.5447
O 13.8177 3.62583 15.2786
Si 0.128707 13.0498 10.882
Si 2.48837 8.62456 10.9529
Si 1.61765 15.0649 14.6038
Si 3.83166 10.8489 14.8291
Si 1.41745 10.9378 12.8688
Si 3.94111 15.0034 12.708
O 1.09242 14.1029 15.8771
O 3.52808 9.43028 15.7992
O 2.50036 11.076 13.9308
O 5.11055 15.6248 13.6459
O 1.86124 9.54563 12.1338
O 4.54695 13.6751 11.894
O 1.20768 12.0478 11.6567
O 3.17133 16.1138 11.8565
O 2.86274 14.4141 13.746
O 4.94883 10.6684 13.7404
O 2.15333 16.4785 15.2057
O 3.83517 12.1085 15.6946
Si 5.44608 12.7539 10.9803
Si 7.74231 8.53649 10.9923
Si 6.23543 15.3174 14.9052
Si 8.95189 10.9602 14.5477
Si 6.3454 10.5428 12.8508
Si 8.71436 14.8053 12.9693
O 5.52873 14.1073 15.7908
O 8.89519 9.48673 15.3725
O 7.46163 10.9625 14.0463
O 10.4497 15.1629 13.3961
O 6.76561 9.26213 12.1028
O 8.73211 13.5433 12.1417
O 6.15347 11.6801 11.8585
O 8.34523 15.9879 11.7531
O 7.67317 15.0253 14.1299
O 9.75256 11.0042 13.1501
O 6.3977 16.6475 15.764
O 9.51798 12.1481 15.5023
Si 10.0034 13.2783 10.9764
Si 12.761 8.81962 11.1621
Si 11.5837 15.4519 14.6202
Si 13.8804 11.0618 14.5401
Si 11.3677 11.1062 12.7192
Si 14.1973 15.1436 12.9239
O 11.2388 14.2798 15.6055
O 13.4636 9.56549 15.2407
O 12.3959 11.5358 13.9966
O 0.617169 15.4799 13.4169
O 12.0394 9.78796 12.3554
O 14.2944 13.6674 12.1109
O 11.2616 12.3259 11.7076
O 13.8706 16.3878 11.7959
O 13.1315 15.5023 14.0902
O 14.9764 10.9155 13.3872
O 11.8386 16.724 15.635
O 14.6228 11.8474 15.6919
324
 Atoms. Timestep: 27500
Si 14.6839 4.61029 16.3467
Si 2.58004 17.5237 16.5686
Si 0.975594 6.28075 3.67484
Si 3.45732 2.56649 3.58949
Si 1.01564 2.32467 1.58996
Si 3.40689 6.40542 1.89091
O 0.804273 5.27962 4.90562
O 3.28365 1.24363 4.45875
O 2.19841 2.82455 2.81912
O 4.57751 6.86119 2.97912
O 1.84549 1.16798 0.953873
O 4.06125 5.22131 1.07739
O 0.441245 3.65305 0.71294
O 3.3056 7.58112 0.779985
O 2.18748 5.84124 2.76296
O 4.86066 2.50115 2.60271
O 1.48473 7.819 4.07334
O 4.00973 3.83153 4.4345
Si 5.08713 4.5386 0.212384
Si 7.61498 0.0664618 16.4739
Si 6.04084 6.78687 3.53905
Si 8.77264 2.04559 3.71379
Si 6.2213 2.10856 1.73742
Si 8.36155 6.14251 1.91729
O 5.8412 5.85529 4.73806
O 8.31115 1.26624 4.98469
O 7.48432 2.28502 2.79037
O 9.73173 6.25622 2.97423
O 6.50693 0.98675 0.769208
O 9.16025 5.2431 0.90918
O 6.27327 3.66259 0.814297
O 8.46873 7.65958 0.920841
O 6.9954 6.01691 2.52619
O 10.0708 1.58106 2.73517
O 6.67622 8.29161 4.09501
O 9.2796 3.37731 4.39079
Si 9.94265 4.25432 16.5815
Si 12.9862 0.167176 16.4669
Si 11.0179 6.40852 3.65212
Si 14.0241 2.10856 3.6479
Si 11.3675 1.98748 1.76173
Si 13.622 6.50157 1.85012
O 11.1999 5.27479 4.76223
O 13.353 0.748622 4.33852
O 12.6969 2.67369 2.69238
O 14.7916 6.45148 2.77907
O 11.898 0.856642 0.78826
O 13.5337 5.30484 0.627461
O 10.6852 3.19227 0.920806
O 13.415 7.82886 0.845959
O 12.2212 6.51949 2.63051
O 0.0129954 1.82538 2.70182
O 11.4905 7.66661 4.61154
O 14.5558 3.16237 4.58414
Si 0.243442 12.9544 0.140495
Si 2.56719 8.72638 16.3805
Si 1.50725 15.1986 3.5534
Si 3.71755 10.8292 3.94516
Si 1.4348 10.8393 1.94515
Si 4.03574 15.4482 1.8262
O 1.16909 13.7347 4.42158
O 3.43035 9.49743 4.69045
O 2.40597 11.0005 3.12532
O 5.46165 15.4767 2.62442
O 1.99257 9.56673 1.04619
O 4.61444 14.3864 0.769546
O 1.08195 12.1038 1.1007
O 3.30734 16.7027 1.21158
O 2.90746 15.1218 2.78084
O 5.03154 10.8411 2.82523
O 1.42728 16.6375 4.47657
O 4.1871 11.9376 4.96402
Si 5.21101 13.1608 16.3693
Si 7.44664 8.80901 0.208483
Si 6.43062 15.1265 3.86698
Si 8.88206 11.0865 3.79882
Si 6.30763 11.0028 1.82855
Si 8.69541 15.177 1.80432
O 6.10606 13.7725 4.64359
O 8.5289 10.0877 4.99246
O 7.59056 11.3245 2.80792
O 10.0624 15.4849 2.55363
O 6.43765 9.56204 1.09119
O 9.07361 14.0561 0.799324
O 5.99432 12.1415 0.865413
O 8.23721 16.5557 1.11701
O 7.80829 14.8787 3.04352
O 10.209 10.6495 2.85735
O 6.68476 16.4794 4.80023
O 9.287 12.3446 4.53876
Si 10.2097 13.1309 16.535
Si 12.4102 8.81367 0.0735573
Si 11.2028 15.3997 3.6413
Si 13.9148 10.6078 3.60144
Si 11.3499 10.9819 2.01217
Si 14.0087 15.4396 1.86501
O 11.2441 14.0562 4.56766
O 13.6106 9.20668 4.24762
O 12.6473 11.2143 2.92409
O 0.284625 15.426 2.56432
O 11.8102 9.7172 1.21035
O 14.4094 14.0384 0.907062
O 10.7997 12.3515 1.16463
O 13.8378 16.738 1.04288
O 12.6508 15.507 2.77142
O -0.0525965 10.5922 2.53681
O 11.1397 16.4434 4.78805
O 14.4971 11.5478 4.87395
Si 0.0560708 4.15029 5.69043
Si 2.40987 0.0323816 5.31005
Si 1.27066 6.55608 9.04975
Si 3.95198 2.39573 9.50976
Si 1.45292 2.28084 7.6114
Si 3.86707 6.19821 7.17622
O 0.822009 5.26292 9.89612
O 3.60522 0.912467 10.1064
O 2.56784 2.55604 8.66305
O 5.06967 7.05955 7.98355
O 1.68143 1.10268 6.47645
O 4.40695 4.88221 6.58374
O 0.901522 3.57127 6.92906
O 3.14284 7.17714 6.10205
O 2.42636 6.10535 8.11591
O 5.11982 2.44995 8.275
O 1.78714 7.47608 10.0692
O 4.03861 3.45594 10.6401
Si 5.13452 4.53141 5.26134
Si 7.4566 0.219127 5.83148
Si 6.05912 6.91813 9.31807
Si 8.59912 2.33275 9.22063
Si 6.29634 2.64083 7.23861
Si 8.48671 6.65747 7.3918
O 5.56833 5.60715 10.1726
O 8.05702 1.14021 10.0148
O 7.62666 2.90357 8.01849
O 9.64565 7.02574 8.3782
O 6.66165 1.17702 6.78557
O 9.20784 5.40311 6.53965
O 6.11281 3.71028 6.00634
O 8.22747 7.72453 6.07065
O 7.33529 6.46612 8.48265
O 10.1707 1.83363 8.50886
O 6.6073 7.91818 10.1992
O 9.04705 3.57759 10.0358
Si 10.0952 4.32799 5.554
Si 12.268 17.4647 5.41787
Si 10.991 6.79007 9.20868
Si 13.9532 2.04806 9.26095
Si 11.3022 2.09988 7.48428
Si 13.6251 6.33715 7.36206
O 10.6979 5.57462 10.2732
O 13.6125 0.972758 10.2311
O 12.5699 2.46706 8.35222
O 14.8571 6.78966 8.27427
O 11.4518 0.962944 6.45393
O 14.0264 4.86834 6.48081
O 10.8396 3.31831 6.44638
O 13.3561 7.59306 6.3593
O 12.2808 6.18974 8.25406
O 0.147281 1.83502 8.44187
O 11.5738 7.9993 10.0287
O 14.1589 3.33409 10.2117
Si 0.244453 12.9263 5.39213
Si 2.33759 8.4229 5.23477
Si 1.48341 14.9669 8.92306
Si 3.6956 10.3591 9.42356
Si 1.32654 10.4844 7.21076
Si 3.8806 15.3583 6.93113
O 1.39735 13.7172 9.87086
O 3.4549 9.09807 10.3857
O 2.51175 10.7073 8.29116
O 5.11904 15.5231 8.13916
O 1.53728 9.14389 6.37094
O 4.44677 14.1205 6.26565
O 1.10875 12.1553 6.50962
O 3.5521 16.452 5.70333
O 2.66676 15.1117 7.97146
O 5.08234 10.5157 8.39297
O 1.76807 16.2508 10.0712
O 3.76132 11.8738 10.1063
Si 5.21223 12.9616 5.69488
Si 7.48201 8.93171 5.29204
Si 6.09574 15.0407 9.2493
Si 8.86917 11.1442 9.30213
Si 6.24938 10.8341 7.56462
Si 8.78907 15.2256 7.5521
O 5.35567 13.8606 9.89623
O 8.40353 9.83882 10.3872
O 7.54967 11.1569 8.35577
O 10.0182 15.255 8.46486
O 6.44251 9.54925 6.3833
O 9.44763 14.1971 6.54786
O 6.09465 12.2142 6.79906
O 8.30222 16.6515 6.86597
O 7.58144 14.634 8.69115
O 10.2454 10.9619 8.39836
O 6.4441 16.2655 10.3229
O 9.05321 12.4951 10.3877
Si 10.2734 13.1828 5.57783
Si 12.6757 8.4936 5.31428
Si 11.5048 14.9945 9.11691
Si 14.0084 10.7772 9.11538
Si 11.6616 10.9852 7.24371
Si 13.8388 15.2189 7.03491
O 11.1285 13.751 10.1258
O 13.4265 9.52271 10.0109
O 12.8428 11.3012 8.15435
O 15.1825 15.2001 8.03204
O 12.0912 9.85933 6.10654
O 14.3297 14.0608 5.95195
O 11.0425 12.0545 6.26354
O 13.5047 16.649 6.38238
O 12.569 14.5981 7.91131
O 15.0065 10.4694 7.81122
O 12.0564 16.2856 9.81362
O 14.6311 11.8483 9.93405
Si 15.218 4.31807 10.8925
Si 2.65203 17.2152 10.9131
Si 0.943998 6.77459 14.9034
Si 3.62698 2.11471 14.657
Si 1.30865 2.07417 12.8116
Si 3.43592 6.34239 13.4112
O 0.61674 5.834 16.2283
O 3.47783 0.744377 15.575
O 2.38525 2.28898 13.9571
O 4.80283 6.9922 14.0909
O 1.83331 0.874923 11.983
O 4.27419 5.40595 12.4399
O 1.12582 3.57056 11.9298
O 2.63572 7.55007 12.5268
O 2.21607 5.95354 14.1853
O 4.92314 1.96828 13.7962
O 1.48702 8.09724 15.3579
O 4.39328 3.30184 15.6632
Si 4.91618 4.55292 11.2489
Si 7.27831 0.153033 11.08
Si 6.23324 6.6942 14.7488
Si 8.75353 2.00816 14.6738
Si 6.19392 2.26932 12.9226
Si 8.64897 6.3257 13.0223
O 5.73054 5.67217 15.9248
O 8.75732 0.825728 15.7402
O 7.29758 1.96049 13.9028
O 9.84562 6.60458 14.0762
O 6.43661 1.22261 11.8528
O 9.00187 5.28649 12.012
O 6.0786 3.57682 12.0471
O 8.1384 7.79943 12.312
O 7.37075 5.9166 13.9743
O 9.67952 1.73426 13.219
O 6.74441 7.94986 15.6127
O 9.11681 3.31698 15.6061
Si 9.93945 4.37959 10.997
Si 12.4861 17.2477 10.8749
Si 11.2604 6.33866 14.736
Si 13.9953 2.213 14.5343
Si 11.1961 2.07742 12.6973
Si 13.8367 6.27707 12.7852
O 11.0145 4.98117 15.6631
O 13.8942 1.01968 15.5745
O 12.403 2.09067 13.8264
O 14.7439 6.73175 14.0106
O 11.4531 0.724086 11.6733
O 14.2139 5.00902 11.9401
O 10.9587 3.35412 11.848
O 13.6057 7.59086 11.7716
O 12.4195 6.47409 13.7157
O 14.8998 1.88093 13.4042
O 11.3111 7.64152 15.8329
O 14.3529 3.58666 14.9345
Si 0.436673 12.9937 10.723
Si 2.27112 8.45282 11.2015
Si 1.24206 15.3491 14.7555
Si 3.85277 10.9884 14.8445
Si 1.34743 10.785 12.9695
Si 3.98967 15.2482 12.8992
O 1.02169 14.1522 15.858
O 3.53419 9.54915 15.4329
O 2.44247 11.2121 14.0642
O 5.26645 15.081 13.7043
O 1.54044 9.47883 12.0417
O 3.90715 13.8808 11.9667
O 0.846436 12.089 12.0807
O 3.76058 16.3854 11.7455
O 2.54238 15.1724 13.7038
O 5.02306 11.0708 13.8375
O 1.50786 16.6522 15.6039
O 4.13662 12.2841 15.6573
Si 4.71978 12.9623 10.9907
Si 7.45534 8.7584 11.1541
Si 6.58102 15.1781 14.6836
Si 8.91229 10.7834 14.6746
Si 6.38502 11.1114 12.7738
Si 9.0803 15.786 12.7988
O 6.19819 13.8426 15.3437
O 8.32468 10.0368 16.0443
O 7.66952 11.0649 13.6416
O 10.1955 16.0667 13.9848
O 6.51557 9.75316 11.9897
O 9.74455 14.5438 11.9723
O 5.91694 12.1863 11.7672
O 8.27025 16.926 12.1095
O 8.02605 14.9897 13.7754
O 10.1778 10.1278 13.8189
O 6.76339 16.6914 15.3554
O 9.4841 12.1539 15.4062
Si 10.228 13.0249 11.2925
Si 12.5887 8.67646 11.0824
Si 11.3488 15.5567 14.7631
Si 13.938 10.8171 14.7994
Si 11.4845 10.7207 13.0867
Si 13.6919 14.9416 12.649
O 11.0118 14.3685 15.8144
O 13.2449 9.58857 15.5232
O 12.7524 11.4583 13.9174
O 14.9713 15.1935 13.8123
O 12.0363 9.72696 12.1054
O 14.4851 13.9408 11.6671
O 10.9144 11.8452 12.1108
O 13.5519 16.2455 11.8959
O 12.2585 14.8952 13.4727
O 15.1175 10.3148 13.7554
O 12.132 16.6269 15.7016
O 14.5338 11.8979 15.8545
324
 Atoms. Timestep: 28000
Si 0.110544 4.38243 0.114588
Si 2.4463 17.2398 0.270716
Si 1.3329 6.4394 3.75314
Si 3.73716 2.62164 3.82702
Si 1.00806 2.02655 2.13661
Si 3.64323 6.37151 1.63831
O 1.09446 5.28387 4.52836
O 3.87217 1.35581 5.17176
O 2.18253 2.56287 3.0752
O 4.9145 6.53574 2.66437
O 1.5859 0.865511 1.20935
O 4.0507 4.93012 1.062
O 0.669282 3.16797 0.981894
O 3.40932 7.46082 0.568513
O 2.34907 6.15009 2.56774
O 4.68879 1.86416 2.80135
O 1.54104 7.85737 4.68079
O 4.15036 4.00192 4.30783
Si 4.92747 3.97232 0.164181
Si 7.55149 17.1409 -0.0204105
Si 6.15905 6.87517 3.71847
Si 8.69724 1.50472 3.67346
Si 6.09705 1.55013 1.84642
Si 8.75227 6.60136 1.67742
O 5.90667 5.8614 4.92746
O 8.69734 0.178674 4.52068
O 7.23587 1.75278 2.95742
O 10.0641 6.8326 2.92994
O 6.47283 0.216852 1.04363
O 8.8974 5.33438 0.839243
O 5.94957 2.84742 0.664767
O 8.57253 8.02104 0.909017
O 7.48984 6.69021 2.76608
O 9.70766 1.51385 2.49418
O 6.26089 8.3162 4.43015
O 9.06481 2.79901 4.48504
Si 9.6588 4.41499 16.3343
Si 12.4109 0.100615 16.4601
Si 11.1358 6.48166 4.08408
Si 13.4783 2.49652 3.72783
Si 11.0159 2.09188 1.69867
Si 13.5254 6.34935 2.13573
O 10.5404 5.12196 4.83884
O 13.2452 1.23 4.9691
O 12.0626 2.3367 2.91383
O 14.873 6.66366 3.09356
O 11.4838 0.980125 0.690228
O 14.0945 5.00869 1.16787
O 10.5987 3.27214 0.68503
O 13.101 7.27577 0.851859
O 12.4342 6.09987 3.04384
O 14.7494 2.01957 2.83116
O 11.4988 7.91286 4.68694
O 13.9206 3.83602 4.38094
Si 14.737 13.0804 16.4146
Si 2.63489 8.72953 16.2164
Si 1.77918 15.3824 3.61091
Si 3.54671 10.9556 3.69795
Si 1.11238 10.5673 1.93789
Si 4.3424 15.3431 1.99623
O 0.996767 14.3753 4.75539
O 3.2844 9.63562 4.51546
O 2.20022 11.1452 2.87407
O 5.33828 15.9224 3.18052
O 1.89061 9.35623 0.982281
O 4.78852 14.3724 0.581689
O 0.527251 11.841 0.83126
O 3.68889 16.4317 1.07556
O 3.07424 14.6849 2.83565
O 4.66368 11.2552 2.58289
O 2.40402 16.7212 4.23788
O 4.16211 11.9885 4.78098
Si 5.56342 13.1686 16.2725
Si 7.43606 8.80208 16.4761
Si 6.65864 15.1871 3.98213
Si 8.60593 10.9079 3.70019
Si 6.20401 10.9353 1.85097
Si 9.18393 15.4189 1.76606
O 5.95113 13.7599 4.48697
O 8.64748 9.80151 4.81492
O 7.14017 10.9579 3.18905
O 10.6645 15.5582 2.58265
O 6.54969 9.60355 1.01111
O 9.19909 13.9998 1.16536
O 6.39081 12.1247 0.636982
O 8.78246 16.6426 0.781949
O 7.98099 15.3791 3.04774
O 9.7928 10.7174 2.40839
O 6.85251 16.1305 5.2957
O 9.18328 12.3728 4.37481
Si 10.0536 13.0306 0.297165
Si 12.5351 8.46241 16.4874
Si 11.8452 15.14 3.79966
Si 13.8047 11.0182 3.74473
Si 11.226 10.7849 1.81739
Si 14.0685 15.5666 1.81213
O 11.0827 13.958 4.6389
O 13.4566 9.92989 4.86817
O 12.4416 11.0429 2.8101
O 0.330352 15.8508 2.90861
O 11.6662 9.36051 0.939996
O 14.3566 14.3001 0.882529
O 11.156 12.0278 0.807757
O 13.5119 16.823 1.1519
O 13.0782 14.953 2.96041
O 14.8377 10.2454 2.81981
O 11.9957 16.3649 4.78333
O 14.5654 12.2969 4.39395
Si 15.0109 4.49358 5.2739
Si 2.99439 0.108035 5.43825
Si 0.84503 6.77171 9.44187
Si 3.82064 2.2669 8.91773
Si 1.1524 1.90725 6.97834
Si 3.62678 6.65992 7.45157
O 0.662951 5.36276 10.1331
O 3.76865 1.14842 10.1549
O 2.49181 2.34785 7.91457
O 4.94215 7.0253 8.35955
O 1.60722 0.658328 6.1414
O 3.83636 5.48051 6.51321
O 0.476358 2.78001 5.76643
O 3.49355 7.81688 6.25771
O 2.3524 6.6231 8.45095
O 5.17152 2.10149 8.08044
O 1.16479 8.10164 10.128
O 4.08807 3.61395 9.83525
Si 4.97766 4.65214 5.59974
Si 7.87906 17.2215 5.77676
Si 6.33912 6.61702 9.17149
Si 8.73265 2.37589 9.30032
Si 6.33329 2.26473 7.15083
Si 8.60842 6.24329 7.03697
O 6.20725 5.17158 10.046
O 8.4243 0.872144 9.9702
O 7.57145 2.41814 8.14895
O 9.78728 6.81974 7.92739
O 6.9867 0.963523 6.27665
O 8.93415 4.70892 6.43668
O 5.90078 3.48358 6.14042
O 8.17845 7.48681 6.07522
O 7.34519 6.20308 8.03159
O 10.1081 1.94166 8.51818
O 6.58927 7.86391 10.2185
O 8.64787 3.67952 10.1547
Si 9.9449 3.78721 5.51182
Si 12.8124 0.0356196 5.66208
Si 10.8991 6.52621 9.06805
Si 13.9667 2.04253 9.31998
Si 11.3306 1.93943 7.51198
Si 13.3899 6.6063 7.36984
O 10.5835 5.27746 10.0234
O 13.3874 0.727286 10.1398
O 12.6647 2.16733 8.37195
O 14.7256 6.78162 8.30487
O 11.9141 0.550285 6.93371
O 14.2475 5.454 6.21814
O 10.9209 2.96675 6.35682
O 13.1299 8.02607 6.64671
O 12.0365 6.13361 7.9243
O 0.023133 1.78387 8.26895
O 11.6408 7.67466 9.86342
O 14.1556 3.31371 10.1632
Si 0.350548 13.0827 5.3723
Si 2.58271 8.75364 5.3997
Si 1.44249 15.4439 9.10552
Si 3.87203 10.8711 9.38228
Si 1.47236 10.8201 7.25748
Si 4.19176 15.3818 7.45612
O 1.11475 14.2954 10.1352
O 3.18813 9.67739 10.173
O 2.86968 11.1441 8.14774
O 5.38343 15.7318 8.45616
O 1.64834 9.50435 6.54979
O 4.59186 14.0565 6.59971
O 1.36917 12.0605 6.22954
O 3.85565 16.4563 6.37331
O 2.7588 15.4739 8.11496
O 5.18323 10.6975 8.45995
O 1.75683 16.7992 9.87806
O 3.98968 12.0578 10.4977
Si 5.25376 12.8186 5.62845
Si 7.45964 8.77682 5.39347
Si 6.51659 15.1191 9.48898
Si 9.19896 10.6286 9.26817
Si 6.49853 10.8239 7.38825
Si 8.89648 15.1726 7.59945
O 5.87982 13.9035 10.2331
O 8.77892 9.37754 10.0664
O 8.02635 10.7994 8.13866
O 10.2814 15.0188 8.37589
O 6.59957 9.37323 6.46991
O 8.94575 14.2735 6.23691
O 6.16513 11.9056 6.38388
O 8.60663 16.6052 7.04575
O 7.65196 14.751 8.51302
O 10.6163 10.5961 8.64563
O 7.01094 16.0879 10.587
O 9.24475 11.8964 10.3502
Si 9.87344 13.2864 5.46188
Si 12.5625 8.83001 5.48753
Si 11.5114 15.1266 9.28298
Si 14.0435 11.0493 9.17881
Si 11.4302 11.1467 7.35899
Si 13.9189 14.9731 7.15948
O 11.1938 13.6307 10.0728
O 13.4608 9.65909 9.94808
O 12.7824 11.2951 8.13434
O 0.119037 15.3681 8.24941
O 11.6784 9.82445 6.43467
O 14.368 13.7123 6.4688
O 10.575 12.3173 6.6736
O 13.8092 16.2762 6.2586
O 12.8302 15.0073 8.48998
O 0.264766 10.8053 8.36671
O 11.471 16.3612 10.3116
O 14.3701 12.1909 10.3873
Si 0.0030699 4.15048 11.1078
Si 2.71118 0.0697866 10.9687
Si 1.02496 6.61024 14.7605
Si 3.58731 1.9586 14.731
Si 1.19027 2.17288 12.8696
Si 3.39127 6.56963 12.8722
O 0.918656 5.54204 15.9845
O 3.18202 0.726685 15.7453
O 2.27735 2.45432 13.9352
O 4.48831 6.75376 14.0057
O 1.85086 0.716623 12.1628
O 4.24701 5.52799 11.8942
O 1.21558 3.20387 11.6439
O 2.89868 7.79017 11.9748
O 2.06141 5.97291 13.513
O 4.71415 1.76693 13.5848
O 1.57126 8.00657 15.2634
O 4.13659 3.08874 15.795
Si 5.03988 4.42616 11.0087
Si 7.75832 17.4348 11.0379
Si 5.9381 6.41434 14.8056
Si 8.50577 2.18709 14.8156
Si 6.15358 2.14505 12.7232
Si 8.46457 6.72045 13.1349
O 5.63907 5.25459 15.786
O 8.24902 1.0145 15.7665
O 7.37954 2.11904 13.7268
O 9.96132 6.96672 13.638
O 6.63404 0.89007 11.6489
O 8.74407 5.6167 11.8544
O 5.90271 3.44937 11.8787
O 8.15503 7.97637 12.2499
O 7.288 6.10302 13.9933
O 9.88673 2.29739 14.0567
O 6.38538 7.72591 15.7338
O 8.60175 3.76629 15.2971
Si 9.6325 4.54123 11.0582
Si 12.2376 17.4374 11.2014
Si 11.1596 6.60977 14.6462
Si 13.6428 2.14061 14.4659
Si 11.0641 2.40964 12.9469
Si 13.5327 6.45458 12.8036
O 10.4958 5.39515 15.4908
O 13.338 0.886306 15.6177
O 12.2396 2.59472 13.9292
O 14.718 6.73706 13.8539
O 11.4219 1.09644 11.7711
O 13.9523 5.21314 11.8484
O 10.6262 3.6643 11.8818
O 13.3958 7.77355 11.7084
O 12.2399 6.10277 13.6581
O 14.7977 1.77659 13.3791
O 11.6916 7.87679 15.1992
O 14.6316 3.16487 15.0881
Si 0.166298 13.5605 11.1469
Si 2.06694 8.84987 11.1536
Si 1.33388 15.1684 14.8248
Si 4.22276 10.933 14.5271
Si 1.49014 11.2266 12.9221
Si 3.85462 15.3128 12.8887
O 0.641762 13.8482 15.3904
O 3.75237 9.64249 15.5175
O 2.88501 11.2963 13.694
O 5.35795 15.6814 13.6626
O 1.57193 9.85629 12.206
O 3.85807 13.9568 12.0993
O 1.00782 12.5673 12.2021
O 3.51888 16.3819 11.7101
O 2.61448 15.1526 13.9989
O 5.37154 10.7253 13.4789
O 1.56959 16.1472 16.0855
O 4.58793 12.156 15.6233
Si 4.88545 13.1357 11.138
Si 7.59429 8.85803 10.9982
Si 6.69569 15.2423 14.4068
Si 8.85422 11.0089 14.5577
Si 6.66206 11.1794 12.6562
Si 9.09961 15.4115 12.4915
O 6.27657 13.8882 15.0673
O 7.89877 9.93484 15.3809
O 7.96389 11.29 13.3156
O 10.1946 15.2962 13.6264
O 6.86561 10.1359 11.3303
O 9.37631 14.1532 11.5687
O 5.97616 12.5266 12.1422
O 8.9257 16.9853 11.8313
O 7.83092 15.2206 13.4787
O 10.2209 10.4369 13.9954
O 6.92798 16.1519 15.6549
O 9.41162 12.1658 15.5173
Si 10.1865 12.8406 11.0307
Si 12.5202 8.74558 10.7683
Si 11.2873 15.1735 14.8382
Si 13.8825 10.6411 14.7948
Si 11.3912 10.7182 12.9049
Si 13.8522 15.447 13.1136
O 10.6875 14.2174 15.8403
O 13.7903 9.3238 15.9173
O 12.7794 10.6047 13.771
O 0.0348525 15.7027 13.9457
O 11.4159 9.4694 11.8462
O 14.3115 14.4793 11.8642
O 10.997 12.1745 12.2475
O 13.1172 16.752 12.4221
O 12.6195 14.9498 14.1147
O 0.220345 10.8113 13.8822
O 11.3869 16.4816 15.8254
O 13.6664 12.0161 15.762
324
 Atoms. Timestep: 28500
Si 15.0304 4.15464 16.6027
Si 2.57584 17.2484 0.34789
Si 1.37111 6.53118 3.77917
Si 3.5542 1.94612 3.69538
Si 1.1437 2.1431 1.89291
Si 3.83387 6.55232 1.91581
O 1.04529 5.18867 4.62909
O 3.23194 0.46671 4.56777
O 2.32038 2.30522 3.00375
O 5.14761 6.96539 2.71928
O 1.67577 0.791376 1.10833
O 4.26168 5.18727 1.11019
O 0.908342 3.24862 0.784732
O 2.99778 7.56082 0.804183
O 2.53313 6.28306 2.8324
O 4.75227 1.63119 2.78099
O 1.58028 7.93708 4.63747
O 3.81264 3.28278 4.65317
Si 5.06662 4.29634 0.0440321
Si 7.44525 0.0662245 16.6279
Si 6.06087 6.83116 3.99123
Si 8.67729 2.15086 3.67832
Si 6.05089 2.01418 1.90398
Si 8.44317 6.53454 1.96233
O 5.35933 5.3666 4.34915
O 8.38641 0.818526 4.43913
O 7.22475 2.2386 2.78645
O 10.0491 7.10435 2.78471
O 6.40809 0.891362 0.869809
O 8.92542 5.25493 1.10694
O 6.01689 3.37161 1.05453
O 7.86838 7.59757 1.12234
O 7.48078 6.65432 3.34571
O 9.92935 2.00332 2.83323
O 6.35263 8.11091 4.89502
O 8.90354 3.48484 4.54337
Si 9.93119 4.55758 0.220818
Si 12.3262 17.4059 16.5596
Si 11.324 6.54146 3.50506
Si 13.6583 1.98536 3.62577
Si 11.1526 2.1465 1.82892
Si 13.9891 6.68197 1.65569
O 10.843 5.16744 4.03229
O 13.6416 0.598019 4.68068
O 12.2516 2.46806 2.9906
O 0.142902 6.85456 2.76532
O 11.6715 0.723244 1.25215
O 14.4482 5.21347 0.908379
O 10.8499 3.31166 0.67849
O 13.7189 7.59499 0.443919
O 12.6925 6.42187 2.5475
O 14.8735 1.93508 2.73941
O 11.7604 7.70026 4.51318
O 13.9419 3.52345 4.4326
Si 0.0877165 13.0112 16.3398
Si 2.01191 8.40321 16.4352
Si 1.1781 14.9919 3.75673
Si 4.00516 10.9483 3.39588
Si 1.38639 10.9025 1.57362
Si 3.87538 15.0021 1.99022
O 0.470481 13.6181 4.23021
O 3.44459 9.57165 4.34848
O 2.85481 11.1896 2.20596
O 5.22243 14.7439 2.84938
O 1.30443 9.51071 0.716374
O 4.03925 14.0359 0.734812
O 0.938339 12.0435 0.615411
O 3.5927 16.4521 1.31486
O 2.45097 14.6955 2.84325
O 5.29456 10.4859 2.80144
O 1.35372 15.912 4.93516
O 4.12198 12.222 4.32526
Si 5.0137 12.8798 0.214715
Si 7.46426 8.6394 16.4994
Si 6.56868 14.9152 3.61502
Si 9.13458 10.5994 3.89201
Si 6.60198 10.8212 1.87433
Si 8.87382 15.3682 1.67524
O 6.31086 13.7819 4.94232
O 8.61624 9.51531 4.9457
O 7.81856 10.8894 2.81173
O 10.1738 15.5754 2.47044
O 6.72988 10.0246 0.457358
O 9.07326 13.9023 0.672943
O 5.96005 12.3261 1.35795
O 8.28749 16.5398 0.89512
O 7.93535 14.8055 2.92506
O 10.4071 10.3623 2.80976
O 6.71691 16.3175 4.4232
O 9.38898 12.0459 4.5383
Si 9.97014 12.7554 0.0677011
Si 12.6997 8.69825 16.4013
Si 11.509 15.3276 3.50308
Si 13.9708 10.8079 3.63651
Si 11.5109 10.6091 1.82856
Si 14.1229 15.377 1.54939
O 11.0882 13.8358 4.10337
O 13.6878 9.32729 4.38869
O 12.8077 11.0869 2.75486
O 0.318789 15.5604 2.62165
O 12.1157 9.31352 1.16055
O 14.6121 13.9912 0.807911
O 10.792 11.7736 1.04253
O 13.5689 16.5085 0.733694
O 12.9441 15.1759 2.65012
O 0.187932 10.6577 2.68738
O 11.7396 16.2914 4.63408
O 13.9653 11.72 5.07009
Si 14.9558 4.37967 5.35637
Si 2.34216 16.9802 5.51416
Si 1.20043 6.73131 9.36284
Si 3.58411 2.20684 8.95857
Si 1.18877 2.11103 7.08295
Si 3.46096 6.77281 7.22457
O 0.836473 5.45023 10.298
O 3.057 1.13808 9.92859
O 2.55846 2.69591 8.07029
O 4.97022 6.40375 8.07778
O 1.49811 0.795855 6.27212
O 3.88027 5.61282 6.19693
O 0.728508 3.27755 6.16879
O 3.41671 8.12225 6.50994
O 2.09605 6.93381 8.09794
O 4.94974 1.81401 8.01653
O 1.68198 7.86536 10.3009
O 3.95276 3.39258 9.95587
Si 4.6678 4.40078 5.32157
Si 7.52508 17.3165 5.41655
Si 6.22172 6.43622 9.00692
Si 8.60868 2.22883 9.42474
Si 6.17129 2.30892 7.25596
Si 8.68396 6.13932 7.40464
O 5.89824 5.47795 10.3534
O 8.59499 0.893653 10.2828
O 7.48201 2.57113 8.24043
O 9.91186 6.43942 8.27398
O 6.71182 1.14002 6.27962
O 9.37045 5.50365 6.12346
O 5.65745 3.54517 6.28226
O 8.37461 7.53309 6.56859
O 7.35472 5.85521 8.15397
O 9.94828 2.33203 8.34676
O 6.46698 7.76787 9.75611
O 9.05852 3.5025 10.3489
Si 10.0051 4.47708 5.16456
Si 12.5607 17.3705 5.57707
Si 11.3329 6.48695 9.10347
Si 13.7918 2.32239 9.12501
Si 11.3296 2.50109 7.28155
Si 13.8691 6.3357 7.52182
O 11.0255 5.47686 10.2266
O 13.0595 1.11253 10.1625
O 12.6057 2.49846 8.0433
O 14.9339 6.77502 8.64717
O 11.6717 1.25577 5.93219
O 14.5147 5.36666 6.50156
O 10.9923 3.68657 6.32112
O 13.2347 7.64885 6.71326
O 12.6411 5.9221 8.3182
O 0.0737208 1.94538 8.32007
O 11.8013 7.86991 9.59406
O 14.4386 3.43807 10.3702
Si 14.8139 13.0738 5.41166
Si 2.51983 8.97973 5.54995
Si 1.8215 14.9588 9.30091
Si 3.88698 11.1593 9.15003
Si 1.40374 11.3618 7.31687
Si 3.96181 15.001 7.51512
O 0.956423 13.9246 10.3036
O 3.47138 9.88353 10.0344
O 2.9146 11.6073 7.9129
O 5.37561 15.377 8.19982
O 1.48249 10.1692 6.20988
O 4.24731 13.7464 6.47711
O 0.957406 12.5587 6.47002
O 3.27847 16.3172 6.70834
O 3.06878 14.4892 8.7092
O 5.30751 10.5284 8.6006
O 1.9474 16.2095 10.3791
O 4.25542 12.3677 10.2423
Si 5.10848 12.8301 5.46372
Si 7.62614 8.47112 5.74761
Si 6.54756 14.9235 9.28731
Si 9.00273 10.9386 9.21149
Si 6.33081 10.717 7.49082
Si 8.92171 15.1945 7.26795
O 6.24699 13.5225 10.0753
O 8.33893 9.76802 9.84074
O 7.53827 11.4627 8.27387
O 10.4903 15.3043 8.14823
O 6.84264 9.27711 6.97217
O 9.5085 14.252 6.05139
O 5.57109 11.2994 6.2517
O 8.25914 16.3446 6.54774
O 7.94322 14.6411 8.40566
O 10.1406 10.7885 7.99276
O 6.75274 16.2493 9.98517
O 9.80579 11.9323 10.1106
Si 10.4458 13.1813 5.45236
Si 12.5777 8.72808 5.41966
Si 11.7023 15.4196 9.28736
Si 13.9981 11.1123 9.2952
Si 11.5284 10.9822 7.35859
Si 14.2889 15.7019 7.32586
O 11.629 13.9361 10.0671
O 13.5643 9.93115 10.2388
O 12.8832 11.0813 8.16865
O 0.664236 15.4563 8.09734
O 11.6976 9.83732 6.20108
O 14.1447 14.3855 6.12009
O 11.3593 12.5241 6.56695
O 13.2078 16.8173 6.87636
O 13.0219 15.373 8.39408
O 0.298407 11.1507 8.53053
O 11.8852 16.2168 10.7185
O 14.1668 12.2913 10.4835
Si 15.0313 4.50343 11.1799
Si 2.43687 0.354362 11.1695
Si 0.952517 6.42214 14.5222
Si 3.64501 2.15414 15.0841
Si 1.10777 2.32774 13.0748
Si 3.61186 6.48229 12.719
O 0.729322 5.06612 15.242
O 3.36121 1.00806 16.0043
O 2.40686 2.42862 14.0417
O 4.6357 6.27726 13.8234
O 1.51975 1.11862 12.0595
O 3.65668 5.2587 11.5942
O 1.01209 3.62077 12.1919
O 3.65238 7.74582 11.6954
O 2.18031 6.58015 13.4156
O 4.95182 1.80181 14.1694
O 1.05636 7.54938 15.5761
O 3.97122 3.33559 16.047
Si 4.71253 4.47429 10.9856
Si 7.54407 17.2049 11.0428
Si 6.07088 6.2877 14.556
Si 8.47989 2.30835 14.9074
Si 6.06549 1.94287 12.956
Si 8.59424 6.83728 12.7372
O 5.96427 4.95546 15.3872
O 8.53836 1.06462 16.0874
O 7.29197 2.3367 13.855
O 9.84513 7.07963 13.6346
O 6.3805 0.823725 11.917
O 9.00396 5.5674 11.9361
O 5.53217 3.40217 12.2965
O 8.0115 8.12163 11.953
O 7.11513 6.36968 13.4754
O 9.61203 2.14604 13.7055
O 6.58751 7.6222 15.6
O 8.90542 3.66094 15.777
Si 10.0123 4.67455 11.1406
Si 12.323 0.222208 11.3538
Si 11.1431 7.00685 14.602
Si 13.4245 2.12212 14.7675
Si 10.9489 2.60456 13.1227
Si 13.4889 6.5627 12.683
O 10.824 5.59449 15.759
O 13.3146 0.676534 15.4909
O 12.0844 2.77302 14.1567
O 14.745 6.6047 13.6687
O 11.528 1.20453 12.2432
O 13.9274 5.49543 11.7651
O 10.9862 3.72064 12.1112
O 13.2815 7.86062 11.6554
O 12.3942 6.74712 13.7205
O 14.6153 2.1964 13.7344
O 11.3836 8.08281 15.5957
O 13.7383 3.18984 16.1879
Si 15.0398 13.2697 11.3741
Si 2.78854 8.72905 11.072
Si 1.48914 15.3337 14.589
Si 3.71233 10.6369 14.8793
Si 1.55505 10.9664 13.0377
Si 3.81503 15.7838 12.8174
O 0.839953 13.9717 15.2352
O 2.96587 9.34786 15.3939
O 2.73168 11.387 14.0033
O 5.46781 15.6177 13.1989
O 2.13175 9.95207 11.9828
O 4.11811 14.6838 11.6562
O 0.974878 12.2908 12.2582
O 3.30428 17.057 12.1821
O 2.95384 15.1742 13.9616
O 5.05255 10.2137 14.1263
O 1.9472 16.1286 15.9756
O 4.41158 11.632 15.8395
Si 5.15038 13.0761 11.2249
Si 7.10015 8.83327 10.6164
Si 6.32284 15.2424 14.4695
Si 8.94509 10.4877 14.6135
Si 6.11141 10.8217 13.1265
Si 8.96496 15.1147 12.8864
O 5.87058 13.9974 15.5746
O 8.42632 9.1648 15.5077
O 7.68812 10.8505 13.5217
O 10.3971 15.2028 13.8268
O 6.37782 9.86043 11.629
O 9.35942 14.0207 11.8665
O 5.68466 12.2818 12.5582
O 8.52397 16.3725 12.0167
O 7.89306 14.8596 13.9611
O 10.138 10.3859 13.7126
O 6.64271 16.5935 15.4762
O 9.00453 11.6448 15.8249
Si 10.5889 13.1503 10.9918
Si 12.5157 8.88823 10.7913
Si 11.5397 14.7399 14.9214
Si 14.0278 10.6962 14.5808
Si 11.4004 10.8678 12.8163
Si 13.9814 15.829 13.1384
O 11.2054 13.272 15.6811
O 13.4061 9.61604 15.4271
O 12.8753 10.7599 13.3656
O 0.227611 16.091 13.8143
O 11.3336 9.74881 11.7221
O 14.4077 14.4601 12.2306
O 11.3103 12.4435 12.1137
O 13.3902 17.0991 12.6177
O 12.8849 15.1651 14.208
O 0.326399 10.2659 13.9786
O 11.3775 16.2023 15.9784
O 14.1549 12.226 15.1964
324
 Atoms. Timestep: 29000
Si 0.0494071 4.13099 0.0708059
Si 2.59461 17.2462 -0.0523513
Si 1.33808 6.71311 3.8543
Si 3.86043 1.98479 3.91947
Si 1.29415 2.03285 1.90917
Si 3.66754 6.80252 2.08537
O 0.870415 5.58008 4.84523
O 3.43471 0.762222 4.69501
O 2.53505 2.15693 2.88846
O 4.81835 6.69547 3.13238
O 1.84344 0.85858 1.04332
O 4.00611 5.61268 0.979509
O 1.11759 3.26841 0.93773
O 3.34578 8.07278 1.3203
O 2.58024 6.04848 2.9963
O 5.24735 1.82289 3.33714
O 1.69081 8.06816 4.4373
O 3.64111 3.29724 4.75734
Si 4.92384 4.38623 0.131026
Si 7.38216 17.228 0.378447
Si 6.18149 6.20786 3.94923
Si 8.76275 2.4999 3.62458
Si 6.21941 2.12065 2.10003
Si 8.68056 6.4426 1.7701
O 5.97067 4.79009 4.75784
O 8.39844 1.10913 4.45578
O 7.57277 2.81576 2.57023
O 9.96337 6.7586 2.82698
O 6.50141 0.740154 1.19963
O 9.19802 5.03818 1.2119
O 5.44204 3.2262 1.22757
O 8.6016 7.57941 0.914827
O 7.37665 6.20954 2.89143
O 10.0111 2.31852 2.59639
O 6.4613 7.3531 5.00442
O 9.0059 3.54002 4.7564
Si 9.81297 4.1498 0.0938752
Si 12.2537 17.2205 16.4136
Si 11.2198 6.69899 3.66983
Si 13.7406 2.49555 3.4834
Si 11.2498 2.13427 1.59085
Si 13.8917 6.52642 1.9634
O 11.0916 5.23592 4.71882
O 13.1048 1.13655 4.18793
O 12.4971 2.85268 2.48789
O 0.0756913 7.06266 2.76585
O 11.4015 0.805446 0.826185
O 14.205 5.11161 1.16474
O 11.0402 3.31741 0.487066
O 13.4448 7.7957 0.973368
O 12.5733 6.35558 2.89216
O 14.9563 1.89549 2.68231
O 11.6558 7.82439 4.73635
O 14.2016 3.4091 4.58728
Si 0.225371 13.1641 16.3409
Si 2.42719 8.95329 0.153339
Si 1.15884 15.1404 3.89913
Si 3.91819 10.6093 3.73511
Si 1.33808 10.9787 1.89498
Si 3.76705 15.1549 2.09001
O 0.294294 14.0263 4.64493
O 3.71256 9.43051 4.58789
O 2.80717 10.9084 2.58383
O 4.91377 16.0407 2.83527
O 1.48372 9.80616 0.918801
O 4.45388 13.9012 1.45044
O 1.05535 12.3522 0.924203
O 3.40812 16.1606 0.753387
O 2.60683 14.8801 3.10311
O 5.33883 10.4252 2.9808
O 1.55107 16.3146 4.88582
O 4.05924 11.8921 4.71598
Si 5.20437 12.9401 0.17124
Si 7.83256 8.70123 16.4561
Si 6.19439 15.3177 3.513
Si 8.90538 10.858 3.8978
Si 6.55622 10.7017 1.95988
Si 8.95178 15.2607 1.84602
O 5.42708 14.1968 4.13591
O 8.20052 9.87222 4.76483
O 7.94089 10.7744 2.71815
O 10.5278 15.3233 2.49673
O 6.74905 9.51385 0.760992
O 9.4492 14.1258 0.802132
O 6.11545 12.0316 1.22911
O 8.68215 16.5456 1.06748
O 7.56113 15.0934 2.66596
O 10.3582 10.7259 3.071
O 6.7467 16.5344 4.59505
O 8.96016 12.2077 4.69439
Si 10.2082 13.0413 16.4722
Si 12.6921 8.80525 16.5901
Si 11.5855 15.1639 3.57556
Si 14.1115 10.8836 3.95623
Si 11.5536 11.1014 2.09781
Si 13.9645 14.9281 1.63903
O 11.0846 13.9226 4.50153
O 13.7303 9.37461 4.28755
O 12.9467 11.4826 2.92888
O 0.00435459 15.4087 2.60029
O 11.7887 9.69478 1.10196
O 14.214 13.9379 0.488571
O 11.148 12.0947 0.94429
O 13.3392 16.2226 0.690711
O 12.9089 14.6 2.77954
O 0.225243 10.9824 2.97966
O 11.502 16.4138 4.36296
O 14.1071 11.8483 5.21413
Si 0.0332902 4.27173 5.41119
Si 2.55073 17.2883 5.61883
Si 1.39336 6.59068 9.41875
Si 3.53184 1.94173 9.22042
Si 1.29039 2.14104 7.39526
Si 3.67778 6.48473 7.42936
O 1.10221 5.30965 10.4336
O 3.1421 0.587475 9.92871
O 2.54664 2.79609 8.28544
O 5.07118 7.11584 7.926
O 1.73623 0.772957 6.84138
O 3.99812 5.27379 6.48795
O 0.954905 3.19419 6.28632
O 3.19453 7.6408 6.38497
O 2.89953 6.23614 8.87942
O 5.02562 1.72175 8.63016
O 1.55067 8.03896 9.95649
O 3.89517 3.2895 10.279
Si 4.84862 3.94546 5.65165
Si 7.72074 0.138874 5.61
Si 6.18942 6.58243 8.92836
Si 8.72505 2.24476 9.12256
Si 6.25305 1.88707 7.61684
Si 8.83213 6.70555 7.34141
O 5.61351 5.50053 9.94389
O 8.33838 1.31531 10.1793
O 7.30162 2.60476 8.51172
O 10.3173 7.07929 8.06817
O 6.78248 0.704337 6.62872
O 9.39657 5.40569 6.40122
O 5.83582 2.85254 6.31849
O 8.14412 7.87254 6.64698
O 7.63711 6.23971 8.29109
O 9.89379 1.7997 8.13334
O 6.63294 7.65419 9.98392
O 9.27619 3.84322 9.59916
Si 10.0748 4.34783 5.56813
Si 12.5224 0.0362234 5.33318
Si 11.5126 6.69528 9.00776
Si 13.6333 2.11406 9.08238
Si 11.2708 2.18832 7.37424
Si 14.1744 6.25137 7.15794
O 11.1276 5.48305 9.96219
O 13.5277 0.974784 10.1734
O 12.2545 2.55991 8.58531
O 0.50988 6.44916 8.14814
O 11.9113 1.04873 6.39786
O 14.075 4.91713 6.46214
O 10.7883 3.26981 6.49319
O 14.0268 7.44628 5.97667
O 12.9365 6.49538 8.26904
O 14.8084 1.89117 8.08898
O 11.5184 7.94205 10.2398
O 14.204 3.61952 10.001
Si 14.9916 13.0073 5.96515
Si 2.65788 8.7795 5.48478
Si 1.29577 15.1711 9.03006
Si 4.00791 10.9392 9.38257
Si 1.54163 11.1166 7.47123
Si 3.94003 15.342 7.4353
O 0.864404 14.0827 10.0815
O 3.89043 9.43179 9.98114
O 2.68196 11.2163 8.52116
O 5.38082 15.4108 8.00583
O 1.85087 9.93922 6.33629
O 3.77338 14.2371 6.25969
O 1.16068 12.3903 6.70662
O 3.72339 16.6661 6.56453
O 2.59438 14.9977 8.38613
O 5.24697 11.2226 8.40488
O 1.32269 16.3692 10.1734
O 4.22828 12.1612 10.4812
Si 4.75095 13.1817 5.28762
Si 7.2887 8.66828 5.60513
Si 6.52837 15.3624 9.16986
Si 8.82007 10.9825 9.01263
Si 6.39125 11.1803 7.09889
Si 9.00674 15.275 7.12477
O 6.20505 13.9394 10.0446
O 8.32845 9.83427 9.87179
O 7.62126 11.3112 7.99589
O 10.3808 16.1208 7.88481
O 6.35857 9.73773 6.37435
O 9.24468 14.0018 6.33584
O 5.7614 12.5255 6.14157
O 8.66857 16.6335 6.25382
O 8.04834 15.1975 8.24081
O 10.232 10.3333 8.01843
O 6.55576 16.6646 10.0504
O 9.19108 12.133 10.0513
Si 10.162 12.9631 5.48884
Si 12.8765 8.51616 5.34497
Si 11.1355 15.6999 9.24491
Si 13.8664 10.8922 9.22472
Si 11.6895 10.7065 7.25489
Si 13.7643 15.4243 7.49935
O 10.3279 14.5779 10.0596
O 13.5128 9.52963 10.0955
O 12.5513 11.286 8.45437
O 0.130249 15.733 8.00984
O 12.3247 9.52664 6.47024
O 13.9651 13.8726 6.87757
O 10.9712 11.7064 6.1189
O 13.5953 16.5522 6.2863
O 12.5939 15.2836 8.58976
O 0.0802124 10.8985 8.25447
O 11.4456 17.0725 10.0275
O 14.1761 11.9306 10.3813
Si 15.0094 4.35404 11.0012
Si 2.36422 17.2494 10.9942
Si 0.938672 6.53491 14.9047
Si 3.62977 2.43813 14.9186
Si 1.03951 2.08779 13.1019
Si 3.43673 6.49409 12.936
O 0.847329 5.19242 15.7243
O 3.72313 1.01176 15.698
O 2.07086 2.37433 14.2752
O 4.70673 6.69132 13.856
O 1.70171 0.943908 12.0384
O 4.10962 5.04005 12.2146
O 0.511658 3.20451 12.3129
O 3.32757 7.54159 11.6809
O 2.18165 6.25171 13.8334
O 4.75614 2.38776 13.6863
O 1.51089 7.72573 15.8789
O 3.95787 3.61756 15.8477
Si 4.92007 4.46322 10.942
Si 7.3934 0.335376 10.9205
Si 6.06785 6.66042 14.6313
Si 8.53846 1.9273 14.7595
Si 6.10834 2.29831 12.7741
Si 8.70915 6.67433 12.6499
O 6.02894 5.32469 15.7556
O 8.12684 0.62247 15.6759
O 7.29865 2.23192 13.9784
O 9.7526 6.79697 13.8077
O 6.21952 0.894354 11.9239
O 9.21211 5.46152 11.653
O 6.26888 3.46172 11.723
O 8.68156 7.87669 11.5371
O 7.26496 6.44911 13.4565
O 9.76094 1.57324 13.8181
O 6.71001 7.77819 15.4822
O 8.67415 3.18415 15.8275
Si 10.0818 4.50729 10.7126
Si 12.6823 0.00830714 11.0192
Si 10.9326 6.48135 14.6552
Si 13.5503 2.09608 14.5467
Si 11.0379 2.10864 12.8208
Si 13.5395 6.37766 13.0879
O 10.5164 5.32591 15.6039
O 13.0237 0.782184 15.5471
O 12.1325 2.68494 13.9226
O 14.7393 6.72298 14.1766
O 11.6924 0.85488 12.1111
O 14.0936 5.33395 12.0852
O 10.7575 3.2589 11.6275
O 13.1707 7.82263 12.1746
O 12.2653 6.07421 13.9106
O 14.7704 1.50979 13.6125
O 11.6167 7.8437 15.6231
O 14.2488 3.14707 15.4783
Si 0.0515441 12.9712 11.0412
Si 2.7331 8.6903 10.734
Si 1.60058 15.207 14.5903
Si 3.6709 10.7543 14.8199
Si 1.07751 10.6516 12.6725
Si 3.85896 15.2849 12.7421
O 1.41525 14.2273 15.8329
O 3.23336 9.39483 15.5262
O 2.3343 11.0857 13.9107
O 5.08084 15.7174 13.7886
O 1.93699 9.5725 11.8023
O 4.58009 14.3055 11.5817
O 1.12792 12.0074 11.824
O 3.51042 16.5877 11.9536
O 2.53146 14.766 13.5008
O 4.91695 10.4557 13.8222
O 1.79219 16.6657 15.2765
O 4.20535 11.8024 16.0116
Si 5.40573 13.1006 10.9073
Si 7.54707 8.67205 10.6837
Si 6.27603 15.3532 14.9195
Si 9.0319 10.6307 14.4456
Si 6.29293 10.6514 12.9524
Si 8.66148 15.5118 12.9679
O 5.60771 13.9518 15.5213
O 8.80182 9.3413 15.4186
O 7.54926 11.1238 13.7808
O 10.2449 15.2443 13.5557
O 6.68163 9.40676 11.8242
O 8.67592 14.3575 11.7856
O 6.24707 11.9918 11.8416
O 8.31434 17.0343 12.1658
O 7.76763 15.223 14.1966
O 10.098 10.3707 13.4165
O 6.38657 16.1675 16.2081
O 9.54173 11.6589 15.5062
Si 9.6171 13.3201 11.0339
Si 12.4923 8.81408 11.0291
Si 11.377 15.026 14.6091
Si 13.708 11.0471 14.4636
Si 11.3092 11.2912 12.7396
Si 13.9976 15.05 12.7357
O 10.9013 13.6997 15.3606
O 13.2976 9.89498 15.6411
O 12.3681 11.6036 13.8298
O 0.159464 15.2664 13.7407
O 12.004 10.2186 11.7403
O 14.2379 13.6629 12.0815
O 10.5039 12.7075 12.1379
O 13.7871 16.1433 11.4551
O 12.6438 14.9352 13.6243
O 14.8009 10.5853 13.4439
O 11.4768 16.2498 15.5098
O 14.5779 12.0429 15.4658
324
 Atoms. Timestep: 29500
Si 15.0306 4.48796 0.0802701
Si 2.5502 0.199885 16.0915
Si 0.792314 6.59403 3.55236
Si 3.86482 2.52513 3.28016
Si 1.24269 2.1463 1.60678
Si 3.7106 6.40526 2.00845
O 0.185594 5.4326 4.38032
O 3.3257 1.66673 4.57568
O 2.71584 2.38791 2.02858
O 4.81083 6.70008 3.38982
O 1.43516 0.901696 0.596437
O 4.22502 5.27446 0.977336
O 0.799329 3.77303 1.13851
O 3.64859 7.70734 0.999362
O 2.0417 6.30916 2.61764
O 5.18229 2.17824 2.61175
O 1.54224 7.63607 4.51423
O 4.30991 4.04374 4.05108
Si 4.6876 4.36929 16.3624
Si 7.97112 0.222045 0.0511198
Si 6.2444 6.60247 3.69842
Si 8.81828 2.55512 3.94902
Si 6.31712 2.41183 1.60894
Si 8.62647 6.04224 1.99004
O 6.29087 5.46383 4.91617
O 8.40752 1.20133 4.74767
O 7.50956 2.64874 2.87874
O 9.61241 6.37949 3.29212
O 7.10455 1.35648 0.927719
O 9.08602 4.85667 1.08928
O 5.76008 3.22903 0.426168
O 8.50758 7.29647 1.27911
O 7.02272 5.87639 2.5037
O 10.1272 2.19459 2.89662
O 7.07219 7.98423 4.18513
O 9.19424 3.77592 5.01951
Si 10.2149 4.26499 0.104997
Si 12.5376 -0.0638151 16.563
Si 11.1642 6.49077 3.64607
Si 14.083 1.99726 3.73244
Si 11.3967 2.102 1.97036
Si 13.4805 6.54675 1.68566
O 11.1227 5.22226 4.81375
O 13.6606 0.615646 4.59114
O 12.8375 2.324 2.77672
O 14.7466 7.18409 2.57075
O 11.6714 1.00817 0.896268
O 13.9516 5.43122 0.75257
O 11.1735 3.26916 0.875701
O 13.2046 7.83958 0.732529
O 12.1311 6.03468 2.49905
O 0.354021 1.60125 2.76908
O 11.8739 7.70076 4.30873
O 14.4184 3.16847 4.80275
Si 15.1098 12.9697 0.250091
Si 2.894 8.74915 0.135011
Si 1.45545 15.4931 3.64513
Si 3.92458 10.8407 3.85687
Si 1.38053 10.7706 1.94229
Si 3.40764 15.3529 1.4062
O 1.46961 14.2843 4.69062
O 3.53226 9.43741 4.3973
O 2.58589 11.2595 3.05355
O 4.81431 15.6732 2.26883
O 2.05847 9.71334 1.10725
O 3.85711 13.9304 0.635101
O 1.00233 11.8707 0.884285
O 3.09763 16.5292 0.549668
O 2.32407 14.8989 2.52373
O 5.13877 10.6366 2.68648
O 2.05779 16.7832 4.23856
O 4.41415 11.9731 4.89944
Si 4.71323 12.9624 16.3397
Si 7.68601 8.33816 0.130852
Si 5.93443 15.4449 3.50898
Si 8.98499 10.8704 3.1561
Si 6.33239 10.7576 1.63931
Si 8.68378 15.1896 1.92902
O 5.50717 14.3508 4.6704
O 8.7579 9.71881 4.21102
O 7.56375 11.223 2.4533
O 10.1713 15.4859 2.82798
O 6.78088 9.29933 0.917615
O 8.87704 13.9186 1.07892
O 5.67023 11.8994 0.733919
O 8.74819 16.6105 1.02612
O 7.36589 15.0363 2.83468
O 10.055 10.8524 2.08594
O 6.37239 16.7985 4.25428
O 9.33522 12.1676 4.27938
Si 10.0227 13.0388 0.335666
Si 12.4023 8.71171 16.204
Si 11.3598 15.0088 3.9495
Si 13.9704 10.6992 3.58235
Si 11.5968 11.1363 1.65245
Si 13.7852 15.1972 2.11341
O 11.0172 13.8419 5.07831
O 13.3856 9.65145 4.78072
O 12.6263 11.0493 2.82308
O 0.0904769 15.6031 2.8518
O 12.0391 10.2911 0.351982
O 14.2962 13.8998 1.27787
O 11.2738 12.6542 1.19778
O 13.3742 16.4738 0.976521
O 12.5671 14.6165 2.89879
O 0.0688633 10.2016 2.65207
O 11.7276 16.337 4.70668
O 14.622 12.2006 4.17873
Si 14.9157 4.44008 5.62363
Si 2.42126 0.450609 5.3374
Si 1.42553 6.44883 9.19105
Si 3.93297 1.95717 9.096
Si 1.1181 2.3155 7.5483
Si 3.96065 6.3173 7.37332
O 0.765503 5.45817 10.1855
O 3.53758 0.839822 10.2417
O 2.44127 2.16317 8.43706
O 5.2319 6.71377 8.18946
O 1.2707 1.10892 6.4115
O 4.27416 4.96305 6.5023
O 0.730986 3.60514 6.65254
O 3.30906 7.40701 6.3038
O 2.77874 6.0377 8.41694
O 5.09545 1.99857 8.0181
O 1.67966 7.84755 10.0274
O 4.42207 3.20526 9.91742
Si 5.29251 4.42758 5.34548
Si 7.374 0.0620173 5.25079
Si 6.29826 6.80689 9.46016
Si 8.67926 2.04363 9.05258
Si 6.46762 2.07807 7.10919
Si 9.00587 6.79092 7.63042
O 5.96645 5.44793 10.3186
O 7.84659 0.923459 9.85793
O 7.67476 2.60398 7.98596
O 10.3164 7.44239 8.40594
O 6.6222 0.822735 6.4019
O 9.5589 5.50407 7.00433
O 5.96326 3.23885 6.1594
O 8.58975 7.90028 6.45092
O 7.69408 6.79336 8.53735
O 9.68262 1.26038 8.12649
O 6.25912 8.24795 10.2313
O 9.354 2.99362 10.0491
Si 10.2859 4.3792 5.79986
Si 12.5098 17.3069 5.53712
Si 11.3608 6.51735 9.45595
Si 13.5866 2.40685 9.39336
Si 11.1181 1.87133 7.66393
Si 13.7057 6.36651 7.43674
O 10.7463 5.29528 10.2389
O 13.5565 1.21663 10.3378
O 12.2376 2.37745 8.74495
O 0.0483453 6.37941 8.11845
O 11.7079 0.867333 6.41989
O 13.7291 5.21753 6.21531
O 10.8369 3.23264 6.84485
O 13.3909 7.70307 6.71104
O 12.7469 6.16611 8.66064
O 14.9337 2.17214 8.41241
O 11.5845 7.55712 10.5163
O 13.9318 3.93183 10.2263
Si 0.365439 13.1307 5.22352
Si 2.74127 8.45607 5.38928
Si 1.19091 15.1881 9.38845
Si 3.81483 10.833 9.27278
Si 1.45731 10.6527 7.19944
Si 3.76409 15.6515 7.26893
O 0.989536 13.8359 10.3733
O 3.41201 9.65385 10.2134
O 2.61645 11.2493 8.1314
O 5.04948 16.15 8.4197
O 1.94193 9.52445 6.28622
O 4.42469 14.4019 6.69855
O 0.841585 11.8982 6.2764
O 3.41575 17.0766 6.25968
O 2.47945 15.0378 8.16485
O 5.10536 10.6754 8.37882
O 1.50663 16.4091 10.3386
O 4.34001 11.9249 10.2641
Si 5.14439 13.2775 5.74139
Si 7.94097 8.90115 5.32142
Si 6.1522 15.2493 9.03947
Si 8.79762 10.739 9.49038
Si 6.3691 10.8146 7.459
Si 8.8227 15.3276 7.13632
O 5.85055 13.8367 9.60692
O 8.44503 9.68977 10.6024
O 7.67788 10.8625 8.28263
O 10.0722 15.7779 8.07752
O 6.84703 9.75976 6.19755
O 9.05951 13.7656 6.55854
O 6.04181 12.4164 6.73536
O 8.46752 16.4186 6.02378
O 7.45027 15.1881 8.00309
O 10.0902 10.4824 8.70211
O 6.81788 16.013 10.114
O 8.93734 12.2326 10.2415
Si 10 12.8599 5.67248
Si 12.4113 8.63469 5.57443
Si 11.2923 15.5459 8.98942
Si 13.9653 10.4301 9.05593
Si 11.228 10.4223 7.61575
Si 13.7412 15.0816 7.36741
O 10.8695 14.3647 9.94108
O 13.3788 9.30861 10.0103
O 12.5928 10.7214 8.40767
O 15.0517 15.3187 8.38769
O 11.5196 9.26249 6.58892
O 14.258 14.0491 6.10806
O 10.4637 11.4883 6.48314
O 13.0601 16.3405 6.71167
O 12.524 14.5615 8.20999
O 0.170042 10.1975 8.09865
O 11.8276 16.7951 9.81362
O 14.6458 11.8132 9.96201
Si 14.9428 4.62565 11.1644
Si 2.56904 17.4172 11.1622
Si 1.45703 6.63383 14.7371
Si 3.47804 2.4201 14.3809
Si 0.867606 2.1714 12.8775
Si 4.08832 6.63055 12.836
O 0.709505 5.48469 15.6579
O 3.63111 1.05192 15.1217
O 1.99576 2.76082 14.0101
O 5.47646 6.82887 13.3368
O 1.57323 0.989649 12.0422
O 4.07302 5.41682 11.6888
O 0.46395 3.30857 11.9013
O 3.28497 7.98919 12.1951
O 2.77645 6.29272 13.9133
O 4.58874 2.35413 13.2797
O 2.10712 7.65547 15.8629
O 3.66222 3.70395 15.4515
Si 4.94782 4.33289 10.7521
Si 7.39823 17.4281 11.0715
Si 6.46774 6.40563 14.5553
Si 8.76852 2.23772 14.486
Si 6.07484 2.17963 12.698
Si 8.94834 6.29525 12.8852
O 5.52609 5.45289 15.5275
O 8.61787 0.918066 15.406
O 7.30723 2.18513 13.6272
O 10.0325 6.89854 13.8347
O 6.30124 0.789037 11.6518
O 9.24848 4.94196 12.1333
O 5.92928 3.46091 11.7111
O 8.47377 7.49461 11.8641
O 7.92419 5.89258 13.9516
O 10.0624 2.23733 13.647
O 6.69121 7.57287 15.6291
O 9.2831 3.31121 15.7372
Si 10.1387 4.0652 11.0499
Si 12.6939 0.109454 10.9476
Si 11.1719 6.63042 14.9197
Si 13.6207 2.19306 14.9407
Si 11.5037 2.0826 13.0273
Si 13.9291 6.85821 13.2533
O 10.8292 5.39065 15.8731
O 13.6131 0.771913 15.7611
O 12.3561 2.65616 14.34
O 0.205242 7.43245 13.9922
O 12.1107 0.87479 12.2862
O 14.5064 5.59441 12.3695
O 11.2778 3.36702 11.9176
O 13.612 7.96858 12.2097
O 12.6812 6.46455 14.1598
O 14.49 1.84591 13.6743
O 11.198 7.83584 15.9806
O 14.3432 3.30368 15.8505
Si 0.054672 12.844 11.1217
Si 2.44156 8.86467 11.2376
Si 1.12977 14.9179 14.3793
Si 3.84594 10.7824 14.6954
Si 0.945527 10.7178 13.0037
Si 3.75762 15.0167 12.8443
O 0.82441 13.8894 15.6047
O 4.08593 9.71968 16.0118
O 2.42758 10.5276 13.7765
O 5.04402 15.5719 13.6712
O 1.2117 9.69628 11.8587
O 4.6475 14.082 11.9366
O 0.803836 11.9575 12.0644
O 3.23681 16.2808 12.2093
O 2.49737 14.4935 13.6535
O 4.89802 10.6982 13.5526
O 1.67913 16.5472 15.1623
O 3.87449 12.207 15.2698
Si 5.45436 13.1345 11.0535
Si 7.48201 8.73198 11.3452
Si 6.27944 15.4829 14.6395
Si 8.78445 10.8308 14.9321
Si 6.40505 11.0151 12.985
Si 8.76169 15.3758 12.9685
O 5.98987 13.9646 15.579
O 8.42665 9.45144 15.8311
O 7.45575 11.0936 14.1609
O 9.9153 15.7158 13.9261
O 6.9255 9.66252 12.4443
O 9.47629 14.3033 11.9265
O 6.39359 12.4024 12.072
O 8.30274 16.8706 12.2016
O 7.50745 14.8921 13.7629
O 10.0441 10.816 14.178
O 7.01332 16.4 15.7325
O 9.0975 12.0489 16.0723
Si 10.1319 13.2607 10.9001
Si 12.4881 8.61896 11.1613
Si 11.2009 15.167 14.7213
Si 13.5693 11.0214 14.9424
Si 11.1814 11.064 13.0828
Si 13.479 14.9465 12.5266
O 10.8816 14.0477 15.8466
O 13.2084 9.39995 14.9621
O 12.4084 11.4647 13.9635
O 14.8545 14.7501 13.4511
O 11.8331 9.87977 12.1294
O 13.6697 13.6475 11.5077
O 10.8082 12.2119 11.9148
O 13.4746 16.269 11.5611
O 12.2045 14.8129 13.416
O 14.9484 10.8442 14.0625
O 11.573 16.4428 15.463
O 14.0824 11.905 16.0541
324
 Atoms. Timestep: 30000
Si 14.9097 4.19896 16.3945
Si 2.18699 17.1843 16.6213
Si 0.938329 6.74695 3.43162
Si 3.81298 2.11469 3.63347
Si 1.3088 2.18298 1.72808
Si 3.84338 6.22061 1.72564
O 1.01151 5.459 4.59919
O 3.2899 0.819611 4.3221
O 2.71317 2.49297 2.40686
O 4.73507 6.68087 2.96243
O 1.37733 0.714673 1.04326
O 4.32069 4.85223 1.06158
O 0.549768 3.11465 0.68708
O 3.72781 7.4775 0.869417
O 2.22759 6.21898 2.33468
O 5.14413 2.2145 2.69621
O 1.48946 7.85644 4.45948
O 4.02482 3.35779 4.60142
Si 5.1561 4.16273 16.4144
Si 7.76262 -0.0638758 16.5933
Si 6.14169 6.63961 3.92269
Si 9.00734 2.04476 3.63818
Si 6.49611 2.16994 1.68805
Si 8.48203 6.5854 1.72937
O 5.79625 5.32618 4.72588
O 8.38699 0.797475 4.59653
O 7.89335 2.35181 2.59085
O 9.83794 6.94744 2.56328
O 6.66001 0.798788 0.674093
O 9.20166 5.32931 0.779457
O 6.2787 3.37979 0.593545
O 8.35094 8.0047 0.982349
O 7.19119 6.36672 2.76637
O 10.4927 1.68832 3.06667
O 6.48282 7.63977 5.00057
O 9.37821 3.2893 4.60792
Si 10.2023 4.35595 0.0426577
Si 12.8051 17.4298 0.26922
Si 11.1659 6.53495 3.46258
Si 13.9148 2.34715 3.60476
Si 11.4961 2.09219 2.00462
Si 13.5738 6.414 1.66158
O 11.0308 5.37288 4.62163
O 13.6068 0.964593 4.48076
O 12.9883 2.48969 2.35454
O 14.6578 7.04943 2.59075
O 11.7849 0.688827 1.14733
O 14.2743 5.3838 0.767067
O 10.7712 3.26775 1.04618
O 12.907 7.81952 1.24414
O 12.4241 5.81436 2.65978
O 0.289469 2.08011 2.95496
O 11.6082 7.82624 4.21099
O 14.1078 3.5061 4.71109
Si 14.8768 12.9419 0.253629
Si 2.96178 8.53527 16.4568
Si 1.14533 15.244 3.99546
Si 3.67924 11.099 3.86717
Si 1.40141 10.7193 1.90378
Si 3.54683 15.2745 1.76929
O 1.47117 13.9147 4.88164
O 3.24436 9.80664 4.68747
O 2.34674 11.3539 2.86936
O 4.85871 15.6508 2.85248
O 2.08323 9.48151 1.10481
O 4.10502 14.0257 0.989253
O 0.739037 11.9089 0.870907
O 3.4163 16.4604 0.750101
O 2.17855 15.1644 2.62803
O 5.05979 10.7903 3.04036
O 1.58994 16.5895 4.68766
O 4.13389 12.294 4.79119
Si 5.06311 13.1182 16.6462
Si 7.29188 8.82544 0.21144
Si 6.39233 15.184 3.59576
Si 8.82173 11.2959 3.4731
Si 6.20282 11.2425 1.99738
Si 8.66128 15.2313 1.93006
O 6.04598 13.8168 4.40667
O 8.10493 9.92433 4.38283
O 7.67632 11.4639 2.35653
O 9.65341 15.5554 3.11813
O 6.47264 9.48217 1.31381
O 9.08482 14.054 0.964742
O 5.95251 12.2506 0.781688
O 8.61331 16.611 1.01587
O 7.35335 15.1493 2.49935
O 10.3662 10.6902 2.94502
O 6.58816 16.2417 4.69974
O 9.10089 12.2279 4.65375
Si 10.071 13.2335 16.5987
Si 12.4139 8.7506 0.0965605
Si 11.1755 15.5449 3.71076
Si 13.8481 10.7271 3.36765
Si 11.2691 10.9811 1.69047
Si 13.6855 15.136 2.0615
O 10.7887 14.3568 4.7633
O 13.0919 9.87466 4.52436
O 12.7108 11.0609 2.25224
O 14.6808 15.2242 3.29399
O 11.3498 9.67791 0.851898
O 13.9825 13.9437 1.15256
O 10.954 12.0596 0.587176
O 13.6607 16.4947 1.24153
O 12.1892 15.0072 2.65443
O -0.000703085 10.296 2.62299
O 11.7657 16.7461 4.57582
O 14.3661 12.1498 4.13913
Si 0.172652 4.36991 5.59944
Si 2.48222 0.036189 5.74508
Si 0.788019 6.618 9.1188
Si 3.76755 2.39622 9.37407
Si 1.4083 2.31464 7.46475
Si 3.5922 6.33749 7.45668
O 0.38097 5.3743 9.72692
O 3.03138 1.10967 10.1666
O 2.69829 2.70432 8.38868
O 4.59184 6.61424 8.70658
O 2.03795 1.14378 6.65149
O 4.19613 5.00447 6.82584
O 0.90969 3.43816 6.54482
O 3.44604 7.4205 6.29671
O 2.23067 6.30853 8.18113
O 4.96553 1.75128 8.42011
O 1.39751 7.72067 10.2015
O 4.46812 3.5396 10.2052
Si 4.97557 4.30557 5.41279
Si 7.51449 17.3185 5.61178
Si 6.2198 6.72147 9.22137
Si 8.59941 2.21266 9.08314
Si 6.15395 2.13847 7.38263
Si 8.90234 6.79143 7.29613
O 6.39495 5.04849 9.77074
O 7.87811 0.926106 9.93065
O 7.4148 2.73837 8.1826
O 9.84174 6.86302 8.57541
O 6.73349 0.682731 6.73347
O 9.09398 5.47107 6.4149
O 6.01408 3.19837 6.09449
O 8.47384 8.02138 6.22685
O 7.26314 6.82697 8.05725
O 10.0157 1.60705 8.15552
O 6.65958 7.65337 10.3763
O 9.21982 3.29226 10.0749
Si 10.0716 4.37096 5.5612
Si 12.8666 17.4263 5.39733
Si 11.2037 6.55865 9.29249
Si 13.8546 2.03808 9.03596
Si 11.2479 1.93465 7.13663
Si 13.5573 6.77 7.11823
O 10.7392 5.2832 10.1966
O 13.5664 0.700664 9.89384
O 12.6278 2.43788 8.06964
O 14.8192 7.11144 8.08083
O 11.927 0.848842 6.49329
O 14.2041 5.43792 6.40919
O 10.8451 3.31619 6.3281
O 13.1799 8.0435 6.24335
O 12.2745 6.43199 8.19297
O 0.102038 1.85093 8.30261
O 11.9168 7.75469 10.2125
O 14.0623 3.32048 10.0765
Si 0.313909 12.8772 5.31049
Si 2.58083 8.53794 5.43978
Si 1.22105 15.3853 9.11864
Si 3.62186 10.801 9.21069
Si 1.28351 10.5818 7.22875
Si 3.77198 15.2202 7.48753
O 0.971633 14.0993 10.1116
O 3.13349 9.3983 9.85708
O 2.54123 11.0913 8.03942
O 4.87361 15.72 8.34149
O 1.70452 9.12603 6.64026
O 4.2221 14.3503 6.35182
O 1.00813 11.5607 5.87429
O 3.36057 16.609 6.62547
O 2.50883 14.771 8.18329
O 5.03489 10.4517 8.47655
O 1.75351 16.6628 9.87981
O 3.92318 11.7559 10.3607
Si 5.07871 13.2613 5.66191
Si 7.50802 9.03931 5.45807
Si 6.08457 15.1947 9.39832
Si 8.80403 10.8754 9.51103
Si 6.28267 10.9581 7.62873
Si 8.63139 15.2638 7.58013
O 5.48992 13.8569 10.1108
O 8.49248 9.44418 10.0736
O 7.5596 11.337 8.69192
O 10.1126 15.3319 8.15305
O 6.55721 10.0456 6.43412
O 8.85356 13.8507 6.5161
O 5.76908 12.278 6.76943
O 8.54444 16.4067 6.38713
O 7.49555 15.0451 8.37929
O 10.147 10.7053 8.61392
O 6.23428 16.2232 10.4675
O 9.07273 12.0337 10.5802
Si 9.98756 13.2129 5.62337
Si 12.254 8.85978 5.24541
Si 11.3452 14.8887 8.93363
Si 13.9446 10.9748 9.10657
Si 11.2717 11.0189 7.56681
Si 14.1004 15.0369 7.38609
O 10.942 13.8817 10.0726
O 13.8902 9.6784 10.2189
O 12.5408 11.2422 8.30917
O 14.9616 15.4119 8.48182
O 11.4888 9.58236 6.63616
O 14.7102 13.8412 6.41648
O 10.7271 12.1844 6.56346
O 13.7844 16.2967 6.22988
O 12.4879 14.655 7.74444
O -0.00350826 10.3909 8.14901
O 11.8432 16.3399 9.65133
O 14.3352 12.2207 9.7642
Si 14.7932 4.47945 10.941
Si 2.53921 0.0399245 11.0735
Si 1.69864 6.34333 14.7505
Si 3.53807 1.99528 14.8658
Si 1.25434 2.38627 13.043
Si 4.15023 6.70614 12.8245
O 1.07225 5.08636 15.5169
O 2.80049 0.762921 15.5717
O 2.62046 2.81496 13.7163
O 5.42226 7.13904 13.787
O 1.64637 1.13025 12.0822
O 4.84403 5.70739 11.7962
O 0.639352 3.50265 12.2088
O 3.45817 7.63183 11.7424
O 2.91477 6.09629 13.7255
O 5.14827 1.68243 13.8971
O 2.16886 7.4818 15.5401
O 4.20891 3.01186 15.8535
Si 5.51839 4.44587 10.8861
Si 7.17884 0.192307 11.0785
Si 6.44233 6.44404 14.7708
Si 8.98468 2.34262 14.6551
Si 6.26324 2.4767 13.1463
Si 8.92917 6.25961 12.9265
O 5.57022 5.17848 15.2753
O 8.57094 1.09307 15.6462
O 7.54925 2.7873 14.029
O 10.1967 6.3856 13.9023
O 6.84628 1.14774 12.2471
O 9.18904 4.88872 12.0655
O 6.15626 3.53059 12.0339
O 8.69798 7.63578 11.9601
O 7.71399 6.09881 13.9022
O 9.79944 1.8935 13.3588
O 6.71709 7.56757 15.8694
O 9.50076 3.58806 15.3181
Si 10.1641 4.10065 11.128
Si 12.6125 17.1606 10.7476
Si 11.5331 6.29318 14.775
Si 13.7578 2.03259 14.7092
Si 11.3151 1.65931 12.6424
Si 14.134 6.81159 12.9848
O 11.5812 5.2366 15.8947
O 13.6492 1.0547 16.0385
O 12.7041 1.71803 13.5329
O 0.29256 6.85811 13.9883
O 11.5592 0.537768 11.7447
O 14.1956 5.84135 11.6828
O 11.1282 2.99929 11.7667
O 13.8924 8.27892 12.3418
O 12.7082 6.3509 13.7326
O 0.115797 1.8961 14.0958
O 11.5921 7.70023 15.7246
O 13.809 3.46028 15.3642
Si 0.0764569 12.954 10.9052
Si 2.47138 8.49192 10.9093
Si 1.06413 14.9963 14.8785
Si 3.7712 11.1542 14.6813
Si 1.42367 10.7432 12.5845
Si 3.67612 15.1043 13.0306
O 0.916316 13.8136 15.9533
O 3.61551 9.83578 15.5785
O 2.51146 11.3014 13.7698
O 5.10644 15.8672 13.6727
O 1.86965 9.46413 11.9846
O 3.98769 13.7832 12.0981
O 1.15019 11.9506 11.5089
O 3.40269 16.3462 11.7614
O 2.33363 15.0686 13.9161
O 5.07945 10.8771 13.8471
O 1.21848 16.3359 15.8438
O 4.10179 12.529 15.4608
Si 4.92272 12.9277 11.09
Si 7.71312 8.57918 11.1087
Si 6.23391 15.3834 14.7472
Si 8.65539 11.1647 14.6857
Si 6.24689 10.8499 12.7447
Si 8.82379 15.4734 12.9259
O 5.58454 14.1771 15.5782
O 7.83553 10.1406 15.6907
O 7.4858 11.3832 13.6772
O 9.84924 15.8108 14.1839
O 6.9763 9.69896 12.0504
O 9.45345 14.3246 12.04
O 5.88786 12.0109 11.7786
O 8.44361 16.5191 11.8774
O 7.39441 15.1519 13.6919
O 9.80058 10.4379 13.9719
O 6.8996 16.2629 15.8562
O 9.16443 12.5588 15.4258
Si 10.2184 13.0951 11.0923
Si 12.9629 8.80566 11.1551
Si 11.388 15.4958 14.7884
Si 13.9529 10.8979 14.716
Si 11.2321 10.794 13.0136
Si 13.8643 15.1884 12.7877
O 11.2093 14.3594 15.9432
O 13.4251 9.6818 15.8463
O 12.6537 10.7227 13.8492
O 14.9264 15.3598 14.0154
O 11.6885 9.61446 11.849
O 14.2256 13.8632 11.9099
O 11.0645 12.0572 12.1313
O 13.3939 16.2499 11.6965
O 12.4239 15.3242 13.6126
O 0.149031 11.0894 13.6782
O 12.1096 16.6981 15.593
O 14.0948 12.1814 15.5501
324
 Atoms. Timestep: 30500
Si 0.089496 4.17971 0.00556206
Si 2.66598 0.266955 0.424755
Si 1.5591 6.70058 3.56863
Si 3.55753 2.30488 3.56467
Si 1.28433 2.4413 1.76863
Si 3.96938 6.85568 1.60143
O 1.34456 5.20343 4.4357
O 2.71349 1.13439 4.36781
O 2.62104 2.95425 2.55316
O 4.98085 7.34145 2.7112
O 1.54764 0.936402 1.20852
O 4.64107 5.64313 0.763157
O 1.10811 3.12148 0.423206
O 3.20503 7.84679 0.546621
O 2.78151 6.29119 2.53877
O 4.92181 1.81817 2.72264
O 2.18737 7.72301 4.46985
O 4.15695 3.37728 4.69009
Si 5.51518 4.58905 0.111516
Si 7.38453 0.166368 16.4602
Si 6.19343 6.74154 3.80756
Si 8.83506 2.05726 3.80879
Si 6.17935 2.051 2.03752
Si 8.77668 6.71333 1.98605
O 5.84427 5.37593 4.70802
O 8.49752 1.06648 5.10144
O 7.47877 1.81416 2.97418
O 10.1273 6.83318 2.6106
O 6.4368 1.10016 0.889058
O 9.0754 5.55098 0.709541
O 5.91927 3.49979 1.26491
O 8.31166 7.96983 1.14719
O 7.45637 6.29013 2.82073
O 10.1378 1.81623 2.80518
O 6.7678 7.80975 4.79375
O 9.17473 3.55321 4.35255
Si 10.0861 4.555 16.4386
Si 12.4362 0.137195 16.5475
Si 11.396 6.52298 3.56576
Si 13.8526 2.43776 3.78774
Si 11.2715 2.46387 1.81166
Si 14.1171 6.32721 2.00679
O 11.0454 5.24313 4.41354
O 13.6638 0.975718 4.51487
O 12.51 2.63643 2.83086
O 0.253048 6.9967 2.92036
O 11.4474 1.1779 0.68781
O 14.7857 4.9593 1.32668
O 10.7837 3.6244 0.822879
O 13.7731 7.47766 1.00782
O 12.7322 6.16708 2.71376
O 15.0606 2.40965 2.68547
O 11.665 7.56219 4.80568
O 14.4861 3.59706 4.90766
Si 0.185921 13.0247 0.0470747
Si 2.11954 8.59666 16.1365
Si 0.942451 15.2627 3.51267
Si 3.69678 10.8874 3.61091
Si 1.12866 10.8615 1.842
Si 3.77552 15.4854 2.08247
O 0.794012 13.9109 4.41636
O 3.77132 10.0111 4.94825
O 2.09901 10.7231 2.99041
O 4.98233 15.5347 3.24033
O 1.47879 9.46808 0.803888
O 4.46641 14.1624 1.27959
O 1.17077 12.1124 0.895398
O 3.87372 16.948 1.29175
O 2.28107 15.316 2.64658
O 5.05583 10.926 2.86401
O 1.06653 16.5743 4.46198
O 4.02751 12.4291 4.32533
Si 5.11586 13.1096 0.122708
Si 7.58682 9.03236 0.134718
Si 6.46322 15.2912 3.85277
Si 8.86155 10.8673 3.7759
Si 6.33728 11.2966 2.02854
Si 8.7152 15.0083 1.45303
O 6.21798 13.7636 4.67992
O 8.61216 9.54306 4.68627
O 7.68904 11.3006 2.98355
O 10.0131 15.6334 2.39314
O 6.61407 10.0021 0.875985
O 9.09027 13.5612 0.877285
O 6.23068 12.4153 1.11751
O 8.24081 16.4096 0.857032
O 7.51977 14.6789 2.73906
O 9.98819 10.3595 2.74211
O 7.0906 16.1516 5.0749
O 9.28925 12.1573 4.39412
Si 9.94218 12.8261 16.3858
Si 12.8223 8.45262 0.0341695
Si 11.072 15.3987 3.51506
Si 13.6484 10.82 3.55241
Si 11.3932 10.5766 1.55591
Si 13.577 15.0435 1.82539
O 10.6232 14.4359 4.63437
O 13.2871 9.59252 4.45878
O 12.4666 11.031 2.56465
O 14.563 15.3853 2.96981
O 11.9271 9.19724 1.01972
O 14.2851 13.763 1.01293
O 10.7798 11.665 0.577849
O 13.3822 16.5212 0.882091
O 12.2207 14.5341 2.76822
O 14.8686 10.778 2.48138
O 12.0153 16.5616 4.25501
O 13.9979 12.2554 4.2927
Si 0.426069 4.78219 5.58975
Si 2.13513 0.0859877 5.39724
Si 1.04459 6.4829 9.15198
Si 3.8623 2.18214 9.19482
Si 1.17157 2.34932 7.32453
Si 3.76844 6.53701 7.48445
O 0.735979 4.99264 9.77929
O 3.526 0.853973 10.0198
O 2.54547 2.25981 8.21693
O 4.95103 6.74734 8.65884
O 1.20296 1.16575 6.24458
O 4.23578 5.28703 6.55515
O 1.00063 3.9387 6.87087
O 3.43956 7.92128 6.7051
O 2.28708 6.36886 8.05258
O 5.07358 1.895 8.26823
O 1.41483 7.62817 10.2104
O 4.16514 3.17078 10.34
Si 5.02179 4.36569 5.69808
Si 7.58942 17.2182 6.01835
Si 6.28824 6.30911 9.35146
Si 8.87381 1.9871 9.21333
Si 6.28499 2.05889 7.39887
Si 8.56436 6.16937 7.6031
O 5.91573 5.211 10.4369
O 8.69427 0.794923 10.1028
O 7.64848 2.25423 8.25471
O 9.52453 6.72694 8.67543
O 6.39705 0.657386 6.57448
O 9.12833 5.14045 6.42318
O 6.00387 3.27889 6.45035
O 8.44241 7.63631 6.64626
O 7.20063 5.8754 8.18188
O 10.1527 1.64686 8.28814
O 6.86332 7.66002 10.0053
O 9.10499 3.24971 9.97086
Si 10.0232 4.41379 5.36189
Si 12.7516 17.3065 5.35417
Si 10.9741 6.6123 9.05454
Si 13.8533 1.99056 9.02637
Si 11.3685 2.04695 7.22337
Si 13.7541 6.99302 7.3775
O 10.8452 5.41893 10.2194
O 13.2674 0.682118 9.71341
O 12.7836 2.44217 7.9144
O 14.6293 6.68571 8.6294
O 11.9902 0.879151 6.42271
O 14.7003 6.12424 6.13029
O 10.8871 3.41066 6.26556
O 13.1996 8.31976 6.83261
O 12.2032 6.44468 7.90829
O 0.174702 1.70641 8.29031
O 11.3807 8.01708 9.65793
O 14.086 3.02069 10.2344
Si 14.8305 13.0289 5.27599
Si 2.7934 8.8205 5.5143
Si 1.1583 15.2073 9.07349
Si 3.44184 11.0178 9.06132
Si 0.973233 10.6665 7.14949
Si 3.84104 15.6382 7.33573
O 0.749923 14.0573 10.0308
O 3.20731 9.72227 10.0421
O 2.1948 11.24 8.057
O 5.16457 15.8562 8.24647
O 1.6998 9.672 6.28575
O 4.40315 14.4079 6.50689
O 0.370272 11.8154 6.2914
O 3.07678 16.7005 6.35596
O 2.46556 14.9447 8.24649
O 4.99483 10.8687 8.41971
O 1.45301 16.4487 9.88943
O 3.43796 12.2977 10.1169
Si 4.95152 13.1468 5.45936
Si 7.76543 8.77493 5.74891
Si 5.97663 15.1442 9.42977
Si 8.87819 10.9126 8.90801
Si 6.22204 10.8393 7.31837
Si 8.70234 15.1122 7.90024
O 5.42673 13.9903 10.2445
O 8.47571 9.57685 9.92145
O 7.61569 11.3086 8.14749
O 9.96716 15.2072 8.89085
O 6.82793 9.48116 6.81861
O 8.93182 14.0098 6.57075
O 5.65092 11.8761 6.29929
O 8.50519 16.5728 7.18069
O 7.30679 14.6528 8.65243
O 10.0565 10.5822 7.93988
O 6.70501 16.484 10.2476
O 9.50816 12.0688 9.89066
Si 9.77708 13.2693 5.40389
Si 12.4048 8.88099 5.61309
Si 11.3563 14.8909 9.52924
Si 13.7394 10.8023 9.08091
Si 11.2795 11.1897 7.10801
Si 13.5916 15.1623 7.25122
O 11.482 13.5244 10.3337
O 13.0623 9.70412 9.91386
O 12.5644 11.312 8.02235
O 15.0044 15.3787 8.0971
O 11.5467 10.0497 6.08948
O 13.9715 13.9497 6.3012
O 10.6644 12.5981 6.6181
O 13.3559 16.2808 6.24329
O 12.4459 14.7321 8.2858
O 14.9296 10.2581 8.19748
O 11.9828 16.0176 10.678
O 14.1739 11.9687 10.1288
Si 0.0619577 4.01001 10.9343
Si 2.40428 17.385 10.8883
Si 0.811197 6.43505 14.2464
Si 4.22584 2.275 14.7964
Si 1.59415 2.11642 12.8247
Si 3.66943 6.54332 12.9963
O 0.322504 5.26808 15.2607
O 3.61044 1.26659 15.953
O 3.07536 2.2739 13.6375
O 4.94494 6.67997 14.3433
O 1.39687 0.857562 11.9184
O 4.07177 5.29312 12.2312
O 1.27945 3.23035 11.7762
O 3.38216 7.83874 12.0849
O 2.20253 6.25731 13.5427
O 5.43489 1.98697 14.0287
O 1.27478 7.82077 15.154
O 4.58668 3.6935 15.4234
Si 4.97132 4.31713 11.4082
Si 7.773 0.000316715 11.1241
Si 6.57449 6.59363 14.8311
Si 9.32758 2.21169 14.9574
Si 6.63226 2.2028 13.0444
Si 8.73339 6.61953 12.8716
O 6.58392 5.39116 16.0006
O 8.66807 1.24737 16.0761
O 7.95166 2.5229 13.9421
O 9.93224 6.93777 13.8267
O 6.99417 1.05438 11.9789
O 8.99891 5.19648 11.8383
O 5.8159 3.36676 12.2386
O 8.44018 7.79034 11.8378
O 7.51751 6.43388 13.6494
O 10.6878 1.77027 14.0684
O 6.88432 7.93282 15.5675
O 9.75849 3.79375 15.1551
Si 10.0253 4.29405 10.8995
Si 12.6687 17.3358 11.0708
Si 11.458 6.67595 14.6262
Si 14.0454 2.18332 14.503
Si 11.4824 2.14094 12.7635
Si 13.4154 6.14263 12.4125
O 11.2535 5.68845 15.7934
O 13.3264 0.921959 15.5
O 13.0182 2.61097 13.3864
O 14.3894 6.86532 13.5678
O 11.6976 0.928216 11.7873
O 14.4437 4.96357 11.9257
O 10.8214 3.24468 11.8892
O 13.0659 7.1349 11.2493
O 12.1827 5.87445 13.3036
O 0.317226 2.22632 13.6936
O 12.0115 7.97765 15.2823
O 14.163 3.21269 15.7698
Si 15.0411 13.1525 11.1396
Si 2.38777 8.69585 11.0209
Si 1.51854 15.3188 15.1201
Si 3.87813 11.0451 14.9252
Si 1.29593 10.8172 12.7919
Si 3.58357 15.2567 12.7502
O 1.17717 14.0222 15.9625
O 3.08552 9.73177 15.618
O 2.78712 11.1887 13.4618
O 4.96469 15.6327 13.5327
O 1.49055 9.56498 11.958
O 3.78597 13.9307 12.0038
O 0.681643 12.0212 12.0032
O 3.06871 16.3746 11.8052
O 2.51832 15.0909 13.9012
O 5.17373 10.4695 14.1092
O 1.98842 16.3987 16.0513
O 4.08469 12.0742 16.0679
Si 4.60485 12.9585 11.1323
Si 7.6089 8.64944 10.9405
Si 6.27604 15.359 14.5041
Si 8.707 10.8623 14.5873
Si 6.09702 10.5627 12.8352
Si 8.97825 15.0915 12.765
O 5.85778 14.3257 15.8081
O 8.57765 9.9123 15.869
O 7.57255 10.8058 13.4909
O 10.0359 15.251 13.9858
O 6.29944 9.3843 11.813
O 9.25668 13.8237 11.6706
O 5.53751 11.8633 11.8276
O 8.68398 16.5054 11.9307
O 7.59451 14.8255 13.716
O 10.3905 10.5806 13.9528
O 6.67722 16.6262 15.3925
O 8.78574 12.3653 15.2979
Si 10.3199 12.8241 11.1131
Si 12.2748 8.53893 10.8296
Si 11.3065 15.1831 15.0225
Si 14.0494 10.65 14.7446
Si 11.3904 10.5802 12.856
Si 13.9477 15.4141 13.1742
O 10.8692 14.014 15.9625
O 13.579 9.66386 15.9433
O 12.8547 10.6447 13.5973
O 0.101247 15.5782 14.2431
O 11.5578 9.29709 11.9974
O 14.2414 14.1208 12.1188
O 11.1292 11.9762 12.1593
O 13.8739 16.7169 12.1457
O 12.5454 14.9981 14.0211
O 0.400663 10.5574 14.1024
O 11.5303 16.4796 15.7473
O 14.4116 12.1024 15.6152
324
 Atoms. Timestep: 31000
Si 14.9903 4.56099 0.19845
Si 2.71634 0.230289 0.232761
Si 1.23145 6.62665 3.83933
Si 3.89643 2.33455 3.65888
Si 1.33916 2.60008 1.89748
Si 3.78656 6.42966 1.77017
O 0.819142 5.70956 5.04797
O 3.6699 0.924978 4.36167
O 2.43837 2.48027 3.05045
O 5.11139 7.26305 2.46511
O 1.93573 1.45699 0.79888
O 4.59856 5.34695 1.08962
O 1.19193 4.04032 1.25475
O 2.97561 7.45558 0.861315
O 2.70959 6.17486 3.02664
O 5.12532 2.06433 2.63797
O 1.64016 8.11372 4.47353
O 4.27945 3.59402 4.67869
Si 5.24319 4.43874 16.5061
Si 7.27262 17.3244 16.2373
Si 6.45832 6.62269 3.3344
Si 8.91629 1.81426 3.61151
Si 6.39435 2.08382 1.72261
Si 9.09838 6.6137 1.76203
O 5.96408 5.47313 4.25307
O 8.60961 0.500091 4.33005
O 7.78265 2.23042 2.61734
O 10.2598 7.16185 2.60691
O 6.4766 0.695045 0.719075
O 9.67545 5.059 1.23711
O 5.93939 3.27386 0.62879
O 8.38775 7.50698 0.643673
O 7.75772 6.30373 2.58297
O 9.90618 1.73512 2.28394
O 6.70781 7.87807 4.39548
O 9.60895 3.07654 4.53802
Si 10.1107 4.2 0.117361
Si 12.5204 17.3503 16.4979
Si 11.0572 6.77966 3.8645
Si 13.9001 2.3805 3.69355
Si 11.4279 2.12508 1.61631
Si 13.8147 6.68542 1.97815
O 10.8314 5.38488 4.53757
O 13.8198 1.39415 4.76531
O 12.5227 2.56616 2.64156
O 0.286304 6.70857 2.64572
O 11.683 0.678519 1.0614
O 13.984 5.37442 1.07353
O 11.241 3.09843 0.301991
O 13.3931 7.9586 1.08765
O 12.5014 6.6357 2.91778
O 15.0011 2.29105 2.46333
O 11.4862 7.6138 5.14921
O 14.3956 3.78227 4.23493
Si 0.394834 13.1812 16.3937
Si 2.31882 8.79579 0.115043
Si 1.31917 15.3646 3.7299
Si 3.72562 10.8365 3.7381
Si 1.22411 11.2818 1.92296
Si 3.83587 14.9965 2.08771
O 0.322851 14.2319 4.40491
O 3.76695 9.6297 4.64252
O 2.0193 11.1584 3.45712
O 5.19436 15.4881 2.6326
O 1.5176 9.98037 0.941563
O 4.36222 13.6816 1.37937
O 1.53554 12.5105 0.94304
O 3.05697 16.4238 1.34106
O 2.52154 14.7061 2.88922
O 4.66886 10.7007 2.22788
O 2.06373 16.3547 4.69544
O 3.99124 12.1662 4.4257
Si 5.21481 13.2576 0.135739
Si 7.63559 8.60379 16.4492
Si 6.45847 15.1668 3.54072
Si 8.64823 10.796 3.79724
Si 6.27681 10.9461 1.68554
Si 8.8028 15.2171 1.45534
O 5.93988 13.9864 4.70891
O 8.51543 9.45342 4.7092
O 7.37629 11.1097 2.93916
O 10.1582 15.5382 2.46202
O 6.69774 9.71014 0.927855
O 9.24879 13.9777 0.63413
O 6.15934 12.1452 0.890049
O 8.18828 16.2007 0.355412
O 7.69248 15.124 2.58479
O 9.51446 10.0515 2.69472
O 6.60877 16.3856 4.5445
O 9.41923 12.1007 4.37816
Si 10.0993 12.8565 0.0192715
Si 12.4345 8.76669 0.0448226
Si 11.4954 15.5376 3.54459
Si 13.5229 10.744 3.65182
Si 10.8015 10.4252 1.99284
Si 14.1935 15.4554 1.59293
O 11.2016 14.1283 4.44804
O 13.4985 9.34135 4.69465
O 11.9783 10.5295 2.98522
O 0.305395 15.8824 2.56799
O 11.3163 9.40411 0.739438
O 14.5233 14.0148 0.915724
O 10.7013 11.9124 1.41701
O 13.9264 16.6574 0.572696
O 13.0106 15.2695 2.73278
O 14.6309 11.1505 2.57007
O 11.8237 16.8303 4.28487
O 13.7179 12.1423 4.50684
Si 0.0674321 4.50068 5.63753
Si 2.72358 0.131579 5.44652
Si 0.985578 6.50255 9.62241
Si 3.78543 2.01797 9.01165
Si 1.28992 2.17087 7.44478
Si 3.56689 6.6323 7.52308
O 0.828537 5.02819 10.5387
O 3.12542 0.878725 9.84954
O 2.60036 2.77011 8.02977
O 4.78965 6.58442 8.49348
O 1.75816 1.14828 6.34214
O 3.7996 5.56512 6.22765
O 0.763872 3.3761 6.47122
O 3.31922 7.87923 6.62752
O 2.34672 6.2044 8.59747
O 5.16281 1.87552 7.99187
O 1.30444 7.75597 10.3337
O 4.05993 3.23662 10.1015
Si 4.976 4.67064 5.49195
Si 7.54012 17.3726 5.47903
Si 6.13938 6.20937 9.43853
Si 8.88917 2.14577 9.53168
Si 6.62723 2.41542 7.32005
Si 8.47853 6.07898 7.32717
O 5.61515 5.05042 10.4217
O 8.7377 0.715985 10.0916
O 7.61938 2.72578 8.55421
O 9.6807 6.44679 8.34275
O 7.1836 1.21696 6.36223
O 8.90276 5.07717 6.20423
O 6.08975 3.68329 6.30964
O 8.13739 7.46096 6.58469
O 7.21517 5.54195 8.39081
O 10.1271 2.05335 8.50254
O 6.84566 7.46657 10.1251
O 9.29785 3.31385 10.642
Si 10.1864 4.33943 5.6095
Si 12.6112 0.35546 5.38434
Si 11.0639 6.5416 9.26001
Si 14.0753 1.86933 9.35337
Si 11.328 2.30158 7.56692
Si 13.566 6.4619 7.5226
O 11.1307 5.08802 10.2039
O 13.2377 0.641058 10.2419
O 12.7351 2.18859 8.40444
O 14.7627 6.43919 8.66796
O 11.7501 1.23392 6.29606
O 13.9652 5.22905 6.5771
O 10.9565 3.61909 6.80196
O 13.7457 7.56142 6.48869
O 12.1866 6.59124 8.2708
O 0.332395 1.70203 8.62165
O 11.4445 7.57483 10.3867
O 14.2292 2.98824 10.4897
Si 14.4428 13.2903 5.24776
Si 2.47906 8.84789 5.48265
Si 0.934869 15.3309 9.20328
Si 3.88522 10.6931 9.18899
Si 1.12768 11.254 7.41375
Si 3.57128 15.2596 7.47642
O 0.521254 13.9918 9.86169
O 3.12857 9.47134 9.88814
O 2.63345 11.405 8.2823
O 4.74556 15.4891 8.5704
O 1.56887 9.99052 6.37105
O 3.81098 14.088 6.31884
O 0.226409 12.3203 6.43452
O 3.69604 16.5149 6.5302
O 2.28411 15.0471 8.1975
O 5.10815 10.4513 8.36519
O 1.4512 16.5746 10.197
O 4.33551 11.4256 10.5243
Si 4.68791 13.1629 5.44935
Si 7.27296 8.64248 5.58928
Si 6.2629 15.086 9.18262
Si 8.60988 11.0509 8.77503
Si 6.09304 11.0043 7.28719
Si 8.898 15.1662 7.15039
O 5.94542 13.7396 9.97941
O 8.38005 9.64053 9.61832
O 7.33935 11.5316 8.19201
O 9.70711 15.4869 8.53588
O 6.6577 9.75464 6.46872
O 9.3916 14.009 6.21217
O 5.35611 12.031 6.46914
O 8.38812 16.4859 6.42967
O 7.43787 14.9371 8.00982
O 9.68749 10.8052 7.60182
O 6.6395 16.3705 9.76798
O 9.47244 12.0119 9.89215
Si 10.2683 13.1158 5.1288
Si 12.6106 8.44663 5.87987
Si 11.1865 15.2497 9.12243
Si 13.4496 11.0208 9.21857
Si 11.2085 11.0886 7.30229
Si 13.715 15.4801 7.24964
O 11.1483 13.7958 9.72469
O 13.2223 9.46578 9.75822
O 12.1508 11.4941 8.47057
O 14.8453 15.8156 8.16779
O 12.0107 9.55954 6.87951
O 13.7375 14.1546 6.42155
O 11.1064 11.9232 5.89444
O 13.4045 16.6754 6.23912
O 12.3921 15.2738 8.15981
O 14.886 10.9277 8.45805
O 11.2788 16.3633 10.2997
O 13.9545 11.8177 10.5656
Si 15.0444 3.97135 11.4409
Si 2.45078 17.4229 10.9694
Si 0.809851 6.84191 14.6599
Si 4.04184 1.92336 15.0099
Si 1.34317 1.84828 13.2526
Si 3.48177 6.44139 12.9576
O 0.21521 5.69233 15.6479
O 3.9727 0.800813 15.9945
O 2.56565 2.00482 14.2469
O 4.66196 6.62194 14.018
O 1.76849 0.730808 12.2217
O 3.92197 5.15665 12.1389
O 1.04551 3.20569 12.3006
O 3.42843 7.6948 11.8793
O 1.96406 6.45999 13.5661
O 5.34797 1.87688 13.9394
O 1.1597 7.96415 15.8154
O 4.2023 3.3555 15.7966
Si 4.73759 4.15247 11.2713
Si 7.75258 17.3179 10.9542
Si 6.25497 6.42275 14.5336
Si 8.81934 2.45571 14.9488
Si 6.51844 2.05473 12.9045
Si 8.69791 6.84899 12.5999
O 6.14935 5.13141 15.4935
O 8.44793 0.966735 15.6941
O 7.92818 2.51582 13.7324
O 9.62288 6.83266 13.8412
O 6.84599 0.768322 11.9567
O 9.02714 5.59966 11.554
O 5.87501 3.19198 11.9814
O 8.57362 8.1882 11.6978
O 7.13688 6.38252 13.2302
O 10.3622 2.33334 14.3228
O 6.54816 7.76568 15.4175
O 8.80519 3.64275 15.927
Si 10.1788 4.48348 11.4096
Si 12.214 0.0493695 11.3049
Si 11.1462 6.47456 14.5939
Si 13.9013 2.24229 14.8973
Si 11.5247 2.5901 13.2364
Si 13.7166 6.40571 12.7725
O 10.484 5.41766 15.4239
O 13.0469 1.16709 15.6935
O 13.0181 2.68687 13.6309
O 14.4881 7.3165 13.8881
O 11.4924 1.22003 12.2846
O 14.3283 4.98468 12.4436
O 11.0302 3.90636 12.6071
O 13.5297 7.32334 11.4821
O 12.1586 6.35443 13.3764
O 0.097524 1.66573 14.2268
O 11.925 7.42076 15.6689
O 14.3454 3.28079 16.1183
Si 15.0182 12.9767 11.0291
Si 2.42611 8.6121 11.0837
Si 1.60947 15.7112 14.7459
Si 3.97792 10.9879 14.7193
Si 1.47548 10.9738 12.9324
Si 3.94178 15.1075 12.6836
O 1.03747 14.4447 15.6991
O 3.55502 9.77116 15.5776
O 2.54583 11.4486 13.9716
O 5.32828 15.104 13.3316
O 1.774 9.5094 12.2786
O 4.04586 13.7305 11.8586
O 0.971783 12.1327 11.9906
O 3.56443 16.5367 11.8631
O 2.81398 15.4318 13.7404
O 5.17378 10.6801 13.6929
O 1.96038 16.8919 15.6594
O 4.49488 12.2412 15.7459
Si 5.19551 12.8241 10.96
Si 7.56 8.77665 10.5434
Si 6.39993 15.1468 14.4103
Si 9.00995 10.6131 14.7045
Si 6.39705 10.7967 12.6053
Si 9.00602 14.8878 12.8176
O 5.79449 14.3598 15.7059
O 8.62754 9.2173 15.3324
O 7.72406 10.8954 13.7362
O 10.2198 15.0959 13.7511
O 6.68075 9.83632 11.5955
O 9.48557 13.5632 12.0178
O 6.34899 12.3129 11.9782
O 8.25063 15.9642 11.7031
O 7.71453 14.5496 13.7588
O 10.2867 10.442 13.7435
O 6.6985 16.6661 14.8688
O 9.30794 11.8177 15.7084
Si 10.4827 12.757 10.8463
Si 12.6292 8.47746 10.8947
Si 11.5068 14.8956 14.9002
Si 14.0239 11.0218 14.6338
Si 11.5189 10.5945 12.7812
Si 13.793 15.2402 13.062
O 11.2216 13.7242 15.8224
O 13.4863 9.93576 15.8794
O 12.6335 11.2097 13.958
O 0.0839725 15.7724 13.6995
O 12.0095 9.18733 12.1159
O 14.2424 14.009 12.0495
O 11.3248 11.7016 11.5678
O 13.023 16.4594 12.2962
O 12.9111 14.7916 14.1704
O 14.9759 10.5217 13.5353
O 11.4419 16.3615 15.6154
O 14.7141 12.3943 15.2498
324
 Atoms. Timestep: 31500
Si 0.0392811 4.33454 0.146556
Si 2.37653 17.2076 16.4627
Si 0.858867 6.85758 3.6211
Si 3.78126 2.40467 3.83772
Si 1.36686 1.97157 1.78236
Si 3.55196 6.3336 2.14301
O 0.610641 5.40003 4.5833
O 3.20023 1.16571 4.64735
O 2.69181 2.54532 2.67938
O 4.94104 6.28899 3.10025
O 1.67373 0.999569 0.673931
O 3.62329 5.22053 1.03675
O 0.876795 3.21284 1.01893
O 3.6698 7.49513 1.00043
O 2.18084 6.567 2.92967
O 5.22811 1.98264 3.09294
O 1.39903 7.83075 4.98986
O 4.35484 3.71321 4.70857
Si 4.6081 4.33905 0.0435256
Si 7.58958 17.4048 0.129728
Si 6.30637 6.32751 3.92383
Si 9.04261 2.57388 3.64712
Si 6.37484 2.44971 1.92055
Si 8.94707 6.21823 2.1109
O 6.07984 5.56348 5.13756
O 8.32212 1.17 4.2112
O 7.77025 3.01998 2.56943
O 9.99131 6.96788 3.01979
O 6.69329 1.15466 0.957918
O 9.47754 4.91182 1.23126
O 5.68238 3.52995 1.04616
O 8.45045 7.40746 0.969781
O 7.6844 5.77629 2.98814
O 10.2368 2.42855 2.66129
O 6.80381 7.69776 4.29163
O 9.31174 3.74767 4.83772
Si 9.98961 4.28145 -0.0452362
Si 12.9456 17.2634 0.0353633
Si 11.3499 6.76061 3.83057
Si 13.7187 2.09731 3.31538
Si 11.4151 2.13131 1.57961
Si 13.5778 6.49062 1.68008
O 10.7622 5.76662 5.06043
O 12.9405 1.06942 4.33392
O 12.7871 2.48447 2.19764
O 14.6555 7.07445 2.91012
O 11.722 0.519579 1.00688
O 14.0448 5.29 0.947752
O 11.0555 3.24121 0.362179
O 13.2573 7.75975 0.898889
O 12.2919 6.19456 2.583
O 0.143428 1.70863 2.82798
O 12.3864 7.76319 4.40184
O 14.0286 3.39471 4.23287
Si 14.956 13.0962 16.4349
Si 3.05165 8.51647 16.6071
Si 1.62834 14.9098 3.77361
Si 3.66394 10.5334 3.5791
Si 1.26306 10.4256 1.6643
Si 3.82752 15.0606 1.66256
O 1.41121 13.9291 5.00774
O 3.25277 9.50918 4.59197
O 2.45557 11.0519 2.48865
O 4.90574 15.8022 2.36512
O 1.8681 9.22594 1.00217
O 4.35082 13.9922 0.578182
O 0.59866 11.6611 0.59632
O 3.07593 16.3354 0.956741
O 2.79076 14.4939 2.68793
O 5.20572 9.82209 3.01537
O 2.24257 16.19 4.62597
O 4.35254 11.9435 3.93918
Si 4.99826 12.6948 16.3222
Si 7.57466 8.55293 0.1383
Si 5.92593 15.5611 3.54445
Si 8.81657 10.9709 3.68456
Si 6.11744 10.6172 1.87783
Si 8.76442 15.4321 2.04695
O 5.43837 14.3417 4.24683
O 8.15068 9.74169 4.55785
O 7.38113 11.1684 2.8377
O 9.93667 15.2407 3.15039
O 6.83765 9.58322 1.01224
O 8.87263 13.8085 1.26336
O 5.67772 11.7271 0.890112
O 8.7512 16.5402 0.946569
O 7.4647 15.3959 2.97533
O 10.1555 10.7195 2.66831
O 6.29283 16.6508 4.56001
O 9.22506 12.329 4.53278
Si 9.95961 13.1915 0.176195
Si 12.3468 9.01606 16.658
Si 11.3877 15.2902 3.69948
Si 13.9044 11.2782 3.94457
Si 11.659 11.3245 2.04176
Si 14.193 15.3465 1.97485
O 11.3414 13.8653 4.36414
O 13.7842 9.84186 4.80672
O 12.7019 11.7723 3.01775
O 0.300209 15.3908 3.0007
O 11.8672 10.2202 0.986989
O 14.7004 14.1224 1.08476
O 11.121 12.4978 0.98526
O 14.0805 16.72 1.01892
O 12.6426 15.3548 2.65761
O 14.8116 10.7816 2.73313
O 11.4009 16.4536 4.8087
O 14.4971 12.341 4.859
Si 14.9934 4.1817 5.17872
Si 2.58214 -0.0293235 5.72082
Si 1.20692 6.33585 9.11005
Si 3.84144 2.07337 8.85983
Si 1.207 2.21048 7.284
Si 3.56401 6.42651 7.3735
O 1.36272 5.39483 10.5065
O 3.17889 1.15328 9.93186
O 2.71593 2.45354 7.80702
O 4.52979 6.96713 8.69075
O 1.52103 0.687325 6.73536
O 4.15156 5.22277 6.77364
O 0.621599 3.048 6.07927
O 3.58462 7.62514 6.30165
O 2.14869 6.13083 8.00062
O 5.01167 1.35639 8.13737
O 1.51756 7.74044 9.72768
O 4.16695 3.48865 9.79261
Si 5.11074 4.42421 5.84871
Si 7.44939 0.229905 5.14318
Si 5.84218 6.84479 9.56064
Si 8.92618 2.07341 9.22929
Si 6.32904 2.08655 7.38289
Si 8.44614 6.67821 7.47701
O 5.78299 5.46903 10.3179
O 8.73221 0.94617 10.3013
O 7.71069 2.21023 8.18411
O 9.96654 7.01562 8.23703
O 6.62618 1.19027 6.19616
O 8.69758 5.22938 6.76953
O 5.99061 3.49273 6.75562
O 8.16876 7.77444 6.31465
O 7.07144 7.1545 8.4501
O 10.438 2.04867 8.78352
O 6.15681 8.227 10.4787
O 8.79545 3.51749 10.0478
Si 9.99132 4.68797 5.94885
Si 12.3808 0.162968 5.35163
Si 11.1891 6.61461 9.12584
Si 13.8551 2.40277 9.32894
Si 11.474 2.41034 7.58328
Si 13.6475 6.21957 7.40801
O 10.5633 5.33264 10.1377
O 13.4774 0.772745 9.84535
O 12.7249 2.89519 8.40399
O 14.9205 5.94012 8.45658
O 11.7477 1.06261 6.44987
O 13.8069 5.11115 6.19556
O 10.7312 3.44366 6.74549
O 13.4828 7.64544 6.71386
O 12.4411 5.9972 8.39425
O 15.1745 2.17654 8.37226
O 11.6576 7.71067 10.1774
O 14.6374 3.12566 10.482
Si 0.229019 13.2597 5.79456
Si 2.42134 8.77525 5.7073
Si 1.35741 15.0552 9.0695
Si 3.88163 10.7009 9.15021
Si 1.24014 10.9958 7.62006
Si 3.86862 15.1352 7.18389
O 1.03699 13.9652 10.1721
O 3.13348 9.59068 9.98265
O 2.49406 11.7273 8.48075
O 4.75907 15.0336 8.52096
O 1.93277 10.0361 6.55202
O 4.00862 13.8289 6.11271
O 0.550188 12.2442 6.94764
O 3.55483 16.658 6.71257
O 2.26618 14.83 7.81775
O 4.85856 10.6231 7.94751
O 2.13806 16.1254 9.91683
O 4.37087 11.9517 10.3409
Si 4.84979 12.9614 5.14602
Si 7.0949 8.80777 5.2447
Si 6.25913 14.853 9.09605
Si 8.72384 10.9369 9.06116
Si 6.19724 11.044 7.11783
Si 8.60275 15.4159 7.06762
O 6.10717 13.3584 9.94565
O 8.62657 9.82513 10.2639
O 7.44967 10.8246 8.10384
O 9.65632 16.0812 8.13137
O 6.03081 9.8724 6.02089
O 9.38599 14.2759 6.35361
O 6.05772 12.2616 6.0609
O 8.3334 16.4814 5.9208
O 7.33634 14.8239 7.8975
O 9.98317 10.8243 8.0935
O 6.9799 15.861 10.022
O 8.96075 12.1894 9.98908
Si 10.3092 13.143 5.25568
Si 12.8179 8.67265 5.52949
Si 10.9114 15.6932 9.1535
Si 13.9335 10.8202 9.14475
Si 11.4722 11.08 7.22467
Si 13.646 15.6126 7.34837
O 10.3547 14.6632 10.2203
O 13.54 9.49025 10.0876
O 12.6692 11.2838 8.26035
O 15.0295 15.4644 8.43763
O 11.8368 9.65202 6.38005
O 14.1349 14.244 6.39495
O 11.1321 12.2006 6.33226
O 13.5356 16.7271 6.10521
O 12.2773 15.1365 8.13587
O 0.14691 10.2204 8.31858
O 11.3991 16.6868 10.0883
O 14.4626 12.0392 10.046
Si 0.380354 4.36294 11.3073
Si 2.63012 17.4914 10.9763
Si 1.5718 6.49811 14.674
Si 3.7944 1.86429 14.9356
Si 1.50609 1.99944 12.9596
Si 3.61773 6.37315 12.7023
O 0.776583 5.66413 15.9104
O 3.58362 0.4662 15.6061
O 2.59542 1.6921 13.9873
O 4.83723 7.01588 13.602
O 1.64088 0.832969 11.933
O 3.9784 5.11105 11.8344
O 1.41756 3.4194 12.3543
O 2.95776 7.47264 11.7621
O 2.82916 5.85474 13.9129
O 5.18147 1.49305 14.0157
O 2.25583 7.92154 15.3117
O 3.87254 3.24466 15.5933
Si 4.91179 4.10996 10.999
Si 7.8694 17.2619 10.9807
Si 6.00232 6.77627 14.7242
Si 8.81656 2.14015 14.5488
Si 6.24843 1.82605 12.8156
Si 8.63936 6.67595 12.9495
O 5.36132 5.32522 15.4587
O 8.56199 0.720555 15.507
O 7.56103 2.18549 13.6822
O 10.1241 6.80746 13.6402
O 6.67418 0.695921 11.7613
O 8.73637 5.29197 12.0386
O 5.48173 2.85034 11.828
O 8.24056 7.96895 11.9796
O 7.2921 6.37689 13.8999
O 10.1572 1.84594 13.6752
O 6.48784 7.8358 15.8082
O 8.94514 3.44419 15.6347
Si 9.69974 4.4941 11.1376
Si 12.6209 17.3305 10.8597
Si 11.4019 6.66171 14.8569
Si 13.6421 2.32881 14.7085
Si 11.3932 2.23972 12.6364
Si 14.0145 6.65372 13.1547
O 10.8309 5.39964 15.7544
O 13.4028 1.13804 15.6996
O 12.535 2.82796 13.6352
O 0.364818 6.76518 13.8295
O 11.9203 1.10176 11.675
O 14.3333 5.18158 12.3371
O 10.7396 3.39011 11.797
O 13.5819 7.9407 12.1064
O 12.8195 6.3629 14.2389
O -0.0697746 1.72069 13.9157
O 11.411 8.21361 15.4457
O 14.5865 3.63377 15.4345
Si 0.269664 12.9904 10.9872
Si 2.31375 8.59816 10.899
Si 1.30189 14.933 14.4014
Si 3.91202 10.5707 14.6887
Si 1.23906 10.6956 12.9015
Si 4.17105 15.4149 12.7227
O 0.858867 13.5193 15.3064
O 3.70141 9.96258 15.9814
O 2.64575 10.559 13.7781
O 5.10579 15.4933 14.1628
O 1.40769 9.3938 11.8843
O 4.73564 14.5354 11.6409
O 1.10349 11.983 11.9399
O 3.49026 16.7358 12.1356
O 2.5743 14.7332 13.4567
O 5.268 10.1181 14.0486
O 1.40171 15.9847 15.7064
O 4.19381 12.1402 15.2071
Si 5.22306 12.9945 11.1108
Si 7.68551 9.05786 11.0946
Si 6.44555 14.951 14.9951
Si 8.72629 11.0389 14.7855
Si 6.27539 10.9474 13.0778
Si 8.91976 15.2176 13.0761
O 6.28377 13.4405 15.5378
O 8.31573 9.45308 15.6324
O 7.53236 11.298 13.9483
O 10.4815 15.6369 13.6395
O 6.89392 10.1635 11.747
O 8.87128 13.8223 12.2604
O 5.82239 12.3565 12.4284
O 8.65577 16.4542 11.9254
O 7.84218 15.0566 14.1913
O 10.0208 10.9183 13.733
O 6.63215 16.1644 16.0851
O 9.09915 11.9146 16.2152
Si 9.73007 13.3566 10.9713
Si 12.6023 8.79179 11.0216
Si 11.4902 15.0944 14.7765
Si 13.736 10.9244 14.645
Si 11.2558 11.0159 12.7851
Si 13.8029 15.0157 12.5925
O 10.4088 14.2782 15.6692
O 13.3144 9.66595 15.5079
O 12.5322 11.35 13.6114
O 0.039474 15.2485 13.5122
O 11.5365 9.8709 11.7801
O 14.2796 13.8061 11.7475
O 10.9935 12.3057 11.6652
O 13.3281 16.38 11.6865
O 12.7747 14.8567 13.8538
O 15.1074 10.684 13.8975
O 12.2392 16.1105 15.8179
O 13.675 12.3338 15.805
324
 Atoms. Timestep: 32000
Si 15.0508 4.33419 0.0586017
Si 2.30368 17.0911 16.2481
Si 1.02799 6.41754 3.63342
Si 3.96742 2.07146 3.6602
Si 1.4422 1.91992 1.79207
Si 3.4639 6.26581 2.02259
O 0.41831 5.16436 4.52996
O 3.66369 0.701803 4.27727
O 2.69083 2.25739 2.79225
O 4.78082 6.69931 2.9535
O 1.88924 0.940757 0.728475
O 3.59954 5.32134 0.693901
O 0.994874 3.42227 1.01642
O 3.39894 7.78235 1.13063
O 2.2398 5.87058 2.79138
O 5.38632 2.16345 2.95103
O 1.82862 7.58611 4.57044
O 4.1006 3.29953 4.77784
Si 4.70116 4.46591 16.4811
Si 7.53187 0.402158 16.5376
Si 6.24232 6.50436 3.7843
Si 8.77765 2.51732 3.71066
Si 6.41186 2.7863 2.00749
Si 8.62757 6.07021 1.5731
O 5.8759 5.16693 4.54312
O 8.32331 1.12342 4.41409
O 7.61333 3.03413 2.84359
O 9.92481 6.22318 2.58488
O 6.81478 1.57717 0.805241
O 8.88712 4.87725 0.642852
O 5.54857 3.81666 1.07488
O 8.53456 7.49282 0.759742
O 7.38103 6.20221 2.65359
O 10.0335 2.14823 2.80254
O 6.90202 7.67139 4.70645
O 8.8834 3.57494 4.96031
Si 10.2323 4.08531 16.4378
Si 12.6562 17.2935 0.0122907
Si 11.1977 6.52458 3.39735
Si 13.8708 1.88537 3.72501
Si 11.2951 2.03287 1.95608
Si 13.8063 6.73748 1.54358
O 10.8387 5.46789 4.64631
O 13.8245 0.722387 4.74421
O 12.5203 2.02782 2.84747
O 14.9331 7.11129 2.8925
O 11.7971 0.825264 0.97163
O 14.3914 5.57832 0.79825
O 11.1276 3.21402 0.931535
O 13.3014 8.0873 1.08068
O 12.4421 6.09247 2.50902
O 0.0306685 1.75936 2.70164
O 11.3279 7.94207 4.0305
O 14.0525 3.09749 4.76044
Si 14.9635 12.929 0.119793
Si 2.73032 8.50609 16.4703
Si 1.32488 15.2687 3.7382
Si 4.10281 10.9357 3.57608
Si 1.55617 10.8324 1.78424
Si 3.77791 14.797 1.67346
O 0.750698 14.1721 4.8997
O 3.64263 9.53667 4.04756
O 2.91239 11.0777 2.36522
O 5.16168 15.0356 2.22795
O 1.69899 9.52355 0.781473
O 3.81504 13.547 0.799566
O 0.848948 12.0119 1.15637
O 3.23001 16.0398 0.565769
O 2.66504 14.6755 2.85854
O 5.51397 11.1343 2.91843
O 1.71497 16.6337 4.31801
O 3.97881 12.1182 4.64581
Si 4.86753 13.0633 16.3822
Si 7.47755 8.65671 0.133865
Si 6.40712 14.934 3.11798
Si 8.88969 11.0029 3.78941
Si 6.82524 11.3644 1.88095
Si 9.14814 15.6433 1.80798
O 5.80035 14.0094 4.20064
O 8.05646 9.83364 4.30016
O 8.12125 11.64 2.68702
O 10.253 15.8174 3.06779
O 6.91492 9.65112 1.16792
O 10.1261 14.6005 0.993403
O 6.09282 12.5445 0.998066
O 8.5967 17.0666 1.01354
O 7.76206 15.0017 2.09859
O 10.4484 10.8762 3.14893
O 6.99079 16.226 4.11995
O 9.14954 11.7855 5.25188
Si 10.6238 13.1863 0.204176
Si 12.1825 8.92754 0.0450447
Si 11.3902 15.1166 3.93987
Si 14.0552 10.8843 3.66544
Si 11.6625 11.0605 1.85062
Si 13.8502 14.9926 1.82941
O 10.8806 13.7474 4.78686
O 13.3576 9.69724 4.6893
O 13.0663 10.9639 2.50488
O 0.226767 15.1687 2.64129
O 11.4129 10.011 0.775447
O 13.813 13.6889 1.03414
O 11.5467 12.4338 1.05712
O 13.4123 16.2884 1.03231
O 12.8619 14.9749 3.09894
O 0.443594 10.5939 3.01512
O 11.7986 16.138 5.00328
O 14.4162 12.086 4.66147
Si 14.8549 4.19365 5.71068
Si 2.78974 17.4054 5.31193
Si 1.00337 6.61612 8.91459
Si 4.02616 2.23499 9.23545
Si 1.44086 2.227 7.36913
Si 3.70034 6.66563 7.28482
O 0.623199 5.30058 10.0345
O 3.39933 1.07078 10.4325
O 2.61627 2.50766 8.46896
O 4.8328 6.68756 8.45045
O 2.17756 1.14783 6.25587
O 4.19336 5.34764 6.41315
O 1.0149 3.43772 6.54806
O 3.98416 8.03857 6.40334
O 2.29453 6.60992 7.91634
O 5.463 1.84261 8.63045
O 1.69307 7.75122 9.97035
O 4.31647 3.77542 9.75213
Si 5.02764 4.20499 5.69876
Si 7.43392 17.3438 5.22334
Si 6.38016 6.85337 8.80929
Si 8.82787 2.06535 9.11383
Si 6.41364 1.94733 7.29902
Si 8.68343 7.11742 7.0493
O 6.42082 5.39765 9.5525
O 8.24601 0.756654 10.0024
O 7.84739 2.16018 7.82938
O 9.65187 7.10484 8.41312
O 6.44481 0.844232 6.13687
O 9.2531 5.68237 6.44352
O 5.55713 3.18624 6.81249
O 8.88737 8.44116 6.16596
O 7.27362 6.99137 7.48558
O 10.2442 1.77277 8.26413
O 6.32789 7.75451 10.2573
O 8.9108 3.44113 10.0611
Si 10.0405 4.57003 5.72918
Si 12.765 17.338 5.61823
Si 10.8787 6.78978 9.18922
Si 13.9863 2.41456 9.25097
Si 11.4208 2.10258 7.34044
Si 13.4227 6.5104 7.10691
O 10.5682 5.50095 9.99108
O 13.5189 1.10407 9.95424
O 12.8592 2.39932 8.04455
O 14.8664 6.89465 7.84708
O 11.7499 1.11738 6.11885
O 13.9333 4.96686 6.90641
O 11.0165 3.6585 6.68094
O 12.8625 7.40777 5.97367
O 12.1933 6.40789 8.21159
O 0.133652 1.99517 8.28985
O 11.6823 7.60598 10.2682
O 13.8063 3.54911 10.244
Si 0.120518 12.9028 5.78863
Si 2.68933 8.71996 5.30876
Si 1.37497 15.2491 9.2426
Si 4.01208 10.715 9.34403
Si 1.22542 10.5085 7.60424
Si 3.5902 15.1876 7.32656
O 1.03511 13.9667 10.2432
O 3.65069 9.59311 10.2588
O 2.71606 10.7211 8.40928
O 4.86085 15.4586 8.28608
O 1.60969 9.61305 6.27794
O 3.88805 14.0458 6.3481
O 0.891002 11.9176 6.79458
O 3.35466 16.4376 6.43171
O 2.30743 14.8954 8.11156
O 5.11349 10.664 8.18743
O 1.79522 16.628 10.2282
O 4.4456 12.0329 10.1747
Si 4.85039 13.0668 5.38147
Si 7.4524 8.89155 5.40536
Si 6.27504 15.2273 9.14179
Si 8.87541 10.9065 9.46699
Si 6.48527 10.9172 7.39075
Si 8.8746 15.3015 7.4883
O 6.214 13.9072 10.2881
O 8.06983 9.79677 10.325
O 7.83687 11.0079 8.20168
O 9.98189 15.8882 8.48515
O 6.74381 9.55896 6.63551
O 9.45446 14.0721 6.80773
O 5.97064 12.172 6.37211
O 8.30382 16.3691 6.32032
O 7.61217 15.1391 8.40832
O 10.3826 10.4308 8.91934
O 6.55174 16.66 10.084
O 8.92062 12.3046 10.2307
Si 10.1436 12.9868 5.84049
Si 12.2404 8.74056 5.15683
Si 11.2796 15.2245 9.07917
Si 13.9836 10.5449 9.2971
Si 11.4515 10.7463 7.69222
Si 13.6558 15.2798 7.6152
O 10.9408 13.9314 9.95691
O 13.2711 9.69305 10.467
O 12.9261 10.911 8.2951
O 14.9332 15.6143 8.59037
O 11.6186 9.64369 6.44839
O 14.0162 13.8295 6.72876
O 10.9853 11.9595 6.86588
O 13.3367 16.5577 6.95726
O 12.342 14.6966 7.98534
O 15.0427 9.8127 8.40395
O 11.9786 16.3108 9.96961
O 14.6978 11.7495 10.0006
Si 14.8135 4.55527 11.0318
Si 2.28292 0.2452 11.2855
Si 1.50018 6.07391 14.7023
Si 3.49426 2.19881 14.7363
Si 0.845317 2.33953 12.9425
Si 3.89131 6.50752 12.761
O 0.831394 4.88163 15.3315
O 3.30475 0.720239 15.2581
O 2.0743 2.36606 13.9064
O 5.10841 7.11282 13.7139
O 1.03673 1.11182 11.8866
O 4.56456 5.48249 11.7938
O 0.651781 3.60555 12.0446
O 3.40073 7.77398 11.9543
O 2.66714 5.82836 13.7894
O 4.72483 2.32507 13.7661
O 1.79146 7.35889 15.841
O 3.87378 3.3298 15.8937
Si 5.39519 4.74106 10.5971
Si 7.29045 0.104095 11.085
Si 6.24843 6.57164 14.7885
Si 8.72489 2.01811 14.3104
Si 6.01746 2.24742 12.7
Si 8.71052 6.48319 13.1514
O 5.5773 5.22586 15.3631
O 8.39486 1.21352 15.5952
O 7.30927 2.19028 13.5328
O 10.0906 6.95115 13.8396
O 6.20662 0.848215 11.7381
O 9.28314 5.30519 12.3132
O 5.91573 3.48287 11.7171
O 8.05866 7.66161 12.1702
O 7.61889 6.33004 14.3167
O 9.74966 1.57148 13.2115
O 6.41112 7.54435 16.0737
O 9.58627 3.2193 15.0409
Si 9.94909 4.39198 10.9279
Si 12.9546 17.3233 10.9442
Si 11.3434 6.43846 14.6585
Si 13.5417 2.2231 14.8907
Si 11.2771 1.99552 12.7803
Si 13.8888 6.74025 13.1538
O 11.0467 5.28983 15.7706
O 13.8814 0.999481 15.8544
O 12.0631 2.03219 14.1735
O 0.137721 6.82989 14.1372
O 11.9226 0.835398 11.9406
O 14.4677 5.83925 11.9293
O 10.8261 3.31874 11.889
O 13.2525 7.92967 12.4998
O 12.69 5.87261 13.8158
O 14.4844 2.08756 13.6735
O 11.6763 7.69945 15.7626
O 13.8542 3.47589 15.8736
Si 0.149738 12.982 10.9876
Si 2.51651 8.69303 10.97
Si 0.968128 15.2869 14.5306
Si 3.72479 10.6632 14.6979
Si 1.13926 10.9501 12.8389
Si 3.71498 15.4726 12.9772
O 0.613085 14.1414 15.7523
O 3.57014 9.33544 15.5105
O 2.40279 10.9187 13.7092
O 5.0669 15.9184 13.6931
O 1.4478 9.73715 11.719
O 4.35771 14.2354 12.104
O 0.808492 12.2965 12.2279
O 3.21176 16.8966 12.2525
O 2.44872 14.9921 13.9718
O 4.98658 10.6195 13.743
O 0.94624 16.7222 15.3647
O 4.26192 11.8383 15.665
Si 5.2796 13.1059 11.1614
Si 7.30569 8.69189 11.444
Si 6.18919 15.4148 14.6784
Si 8.86329 11.1261 15.121
Si 6.44875 11.1694 13.3324
Si 8.68229 15.3223 13.0029
O 5.34426 14.3016 15.4489
O 8.36913 9.61215 15.7218
O 7.46015 11.5783 14.4951
O 10.1636 15.5257 13.7109
O 6.82026 9.94271 12.5641
O 8.88975 14.1079 11.9124
O 5.98409 12.212 12.2705
O 8.23075 16.6536 12.1203
O 7.56244 14.7701 14.017
O 9.78291 10.6181 13.9111
O 6.65531 16.7444 15.6356
O 9.35221 12.3677 16.1457
Si 9.98574 13.2393 10.9949
Si 12.3132 8.66532 11.2274
Si 11.4822 15.1985 14.6188
Si 13.769 10.6639 14.5292
Si 11.0886 10.7641 12.8913
Si 13.9006 14.9049 12.5386
O 11.4002 13.8399 15.4325
O 13.2824 9.77264 15.8069
O 12.4446 10.8957 13.8123
O 0.0843979 15.0054 13.2427
O 11.2876 9.47881 12.0594
O 13.8055 13.6587 11.5976
O 10.5966 12.0716 11.983
O 13.9212 16.3905 11.7098
O 12.7901 14.7533 13.6728
O 14.9113 10.4471 13.5918
O 12.0093 16.5139 15.4599
O 14.3499 12.2114 15.2681
324
 Atoms. Timestep: 32500
Si 14.9261 4.40308 16.3866
Si 2.49788 0.183984 16.4489
Si 1.44624 6.52665 3.85655
Si 3.4949 2.13173 3.47599
Si 1.04494 2.19007 1.62572
Si 3.56603 6.47549 1.65121
O 1.06621 5.38512 4.90709
O 2.83282 0.731556 3.86194
O 2.43314 2.58504 2.34023
O 5.05756 7.04985 2.40038
O 1.31811 0.939029 0.677768
O 4.32926 5.45871 0.799222
O 0.740381 3.51575 0.814358
O 2.81549 7.51014 0.718089
O 2.70577 6.2349 3.11771
O 4.98697 1.55607 2.66679
O 1.70391 7.95054 4.70521
O 4.15215 3.11681 4.50239
Si 5.24829 4.56867 16.4061
Si 7.52922 17.2341 -0.030598
Si 6.19812 6.3529 3.48347
Si 8.83897 2.02426 3.83209
Si 6.16566 2.12734 1.77287
Si 8.8588 6.36143 1.73767
O 5.80648 5.24334 4.61775
O 8.32267 1.00121 4.90304
O 7.67936 2.14322 2.65148
O 10.0308 6.38099 2.78983
O 6.60075 1.00304 0.508332
O 9.15347 5.11644 0.829461
O 5.74919 3.53538 1.08861
O 8.32862 7.70577 0.843424
O 7.42092 5.83019 2.70413
O 10.2745 1.87217 3.29535
O 6.76726 7.48844 4.50309
O 9.13746 3.20081 4.79525
Si 10.1467 4.00901 0.148835
Si 12.2838 17.3522 0.0853947
Si 11.2551 6.1782 3.84569
Si 13.8014 2.39645 3.68041
Si 11.2358 1.99234 2.09118
Si 13.8927 6.41756 1.9785
O 11.0176 4.78758 4.52636
O 13.4753 1.24592 4.87137
O 12.704 2.29419 2.61979
O 0.109168 6.54668 2.88874
O 11.2898 0.900106 0.916701
O 14.1075 5.33329 0.842045
O 10.6858 3.35066 1.4975
O 13.4626 7.67853 0.953044
O 12.6247 6.13809 2.85072
O -0.0369206 1.95405 2.85178
O 11.3135 7.57465 4.47707
O 14.0557 3.73206 4.48522
Si 0.201295 13.2781 0.192655
Si 1.97136 8.60486 16.3529
Si 1.04523 15.1038 3.64979
Si 3.94192 11.0928 3.71496
Si 1.3118 10.8324 1.84897
Si 3.82427 15.7095 1.91005
O 0.942728 13.636 4.20176
O 3.86632 9.55589 4.47102
O 2.90342 11.2058 2.61342
O 4.97857 15.8346 3.17325
O 1.38798 9.76691 0.743291
O 4.4445 14.3586 1.13409
O 1.00013 12.2901 1.23101
O 3.44522 16.9326 0.947169
O 2.40468 15.3513 2.52543
O 5.38379 10.9991 2.80983
O 1.23836 16.2963 4.7856
O 4.06721 12.2866 4.97068
Si 5.05997 13.2001 0.0955577
Si 7.49164 8.67658 16.5526
Si 6.29078 15.0847 3.69883
Si 8.95173 10.8587 3.87993
Si 6.56661 10.9843 1.77025
Si 8.86988 15.1903 1.90933
O 6.12282 13.9196 4.743
O 8.65514 9.42149 4.44408
O 7.9962 11.3563 2.52779
O 10.1212 15.6223 2.93361
O 6.67552 9.72461 0.892758
O 9.24017 13.9478 0.882089
O 6.08531 12.3155 0.996792
O 8.60251 16.379 0.912053
O 7.50125 14.9129 2.68101
O 10.2625 10.8803 2.81287
O 6.77773 16.341 4.70705
O 8.88422 11.6818 5.13914
Si 9.88694 12.9852 16.2764
Si 12.5538 8.55111 0.123502
Si 11.1846 14.8726 3.8617
Si 13.8827 10.7115 3.56459
Si 11.2917 10.7943 1.58684
Si 13.6457 15.1395 1.85623
O 10.3617 13.7397 4.5776
O 13.5985 9.20761 4.28061
O 12.6978 11.1869 2.43648
O 14.8228 15.339 2.86446
O 11.3783 9.32617 1.00269
O 14.4035 14.2912 0.770816
O 10.7766 11.9057 0.535267
O 13.0862 16.3937 1.08631
O 12.42 14.4343 2.81647
O 0.228027 10.2599 2.89834
O 12.0325 16.0336 4.72063
O 14.3305 11.8995 4.38916
Si -0.0202685 4.4421 5.62628
Si 2.09563 0.130159 5.17068
Si 1.27201 6.852 9.04919
Si 3.88833 2.32305 9.40013
Si 1.33694 2.15237 7.41263
Si 3.89266 6.43872 7.36179
O 0.87975 5.53204 9.91851
O 3.05462 1.27133 10.1341
O 2.7027 2.88649 8.25414
O 5.25332 6.94358 8.01864
O 1.81995 1.47124 6.05763
O 4.14225 4.98748 6.67698
O 0.716544 3.47719 6.65659
O 3.56834 7.4503 6.15311
O 2.69822 6.44173 8.40934
O 5.2082 1.77728 8.61657
O 1.4103 8.1094 9.95482
O 4.6295 3.62977 10.0588
Si 5.00339 4.17172 5.53832
Si 7.64415 17.2768 5.73208
Si 6.35258 6.73475 9.03993
Si 8.7234 1.8781 9.1212
Si 6.29531 1.89843 7.52857
Si 8.97044 6.67969 7.23007
O 5.89031 5.81557 10.3293
O 8.1037 0.87291 10.0596
O 7.62036 2.36563 8.28795
O 10.3585 6.78512 8.25043
O 6.59791 0.412534 6.74532
O 9.28807 5.32645 6.34331
O 5.9787 2.91804 6.28884
O 8.56865 7.94338 6.50497
O 7.86173 6.191 8.22423
O 10.194 1.41706 8.40623
O 6.97559 7.96936 9.83474
O 9.35119 2.963 10.1432
Si 10.1525 4.05978 5.60595
Si 12.7978 17.4747 5.61055
Si 11.3088 6.62637 9.38477
Si 13.9994 2.13222 9.10268
Si 11.4 1.86561 7.26892
Si 13.6909 6.59294 7.52509
O 10.6167 5.45357 10.3853
O 13.4833 1.17882 10.3498
O 12.6974 1.97036 8.14256
O 15.177 7.33692 8.16752
O 11.5162 0.646003 6.29235
O 14.4263 5.50362 6.63762
O 10.9667 3.23865 6.62572
O 12.9511 7.65382 6.5466
O 12.779 6.0863 8.63588
O 0.277286 1.40427 8.30064
O 11.9382 8.0417 10.3011
O 14.3865 3.55499 9.60551
Si 0.0722748 13.038 5.29537
Si 2.89411 8.79859 5.27288
Si 1.32579 15.1878 9.21383
Si 3.81597 10.9286 9.09122
Si 1.63249 11.0292 7.18048
Si 3.61905 15.7175 7.33251
O 1.21637 13.9565 10.3529
O 3.49972 9.6367 9.91198
O 2.56744 11.4815 8.27767
O 4.72602 16.096 8.41861
O 2.37093 9.73879 6.42971
O 4.24704 14.5775 6.36089
O 1.0165 12.1441 6.28663
O 3.14337 16.8901 6.2942
O 2.6111 15.092 8.31009
O 5.06547 10.5731 8.13516
O 1.5232 16.3864 10.3717
O 3.91224 12.2955 9.99146
Si 4.93217 13.3133 5.78719
Si 7.55906 8.51226 5.46382
Si 5.94249 15.4336 9.37028
Si 9.09183 10.6525 9.05012
Si 6.43196 10.812 7.22948
Si 8.68734 15.0931 7.66001
O 5.43836 14.1216 9.96586
O 8.82975 9.29934 9.94357
O 7.87447 10.8256 8.0454
O 10.1641 15.5309 8.25332
O 6.59031 9.52334 6.21177
O 8.95865 13.7532 6.8303
O 5.83215 12.3396 6.64194
O 8.6348 16.2793 6.47677
O 7.21301 15.2247 8.31939
O 10.4125 10.6617 8.19125
O 6.15857 16.5119 10.5465
O 9.29346 12.021 10.0552
Si 9.86718 12.6667 5.7704
Si 12.3878 8.5082 5.14734
Si 11.3753 15.1879 9.11585
Si 14.2247 10.9017 9.1253
Si 11.5868 10.7508 7.0224
Si 13.8447 15.2533 7.38028
O 10.7101 14.2771 10.2557
O 13.6806 9.8685 10.3906
O 12.9305 10.626 7.97077
O 0.129558 15.3155 8.33707
O 11.7656 9.81558 5.81181
O 14.4994 14.1748 6.15946
O 11.1587 12.1871 6.40636
O 13.6186 16.5922 6.5754
O 12.5605 14.5545 8.3848
O 0.361259 10.8123 8.10596
O 11.9462 16.4488 10.0726
O 14.3596 12.1827 9.98511
Si 14.7351 4.62002 10.6364
Si 2.45437 0.0828119 11.151
Si 1.29574 6.38907 14.5433
Si 3.53032 2.81719 14.4949
Si 0.979627 2.40661 12.8197
Si 3.6686 6.62468 12.6316
O 0.863719 4.99925 15.3606
O 3.21368 1.57192 15.6859
O 2.18406 3.05282 13.718
O 5.07872 6.96487 13.3711
O 1.68344 1.31055 11.9658
O 3.97905 5.19415 12.0204
O 0.265353 3.64817 11.8874
O 3.40122 7.65508 11.505
O 2.6669 6.61229 13.912
O 4.69494 2.176 13.5117
O 1.11992 7.70745 15.4651
O 4.15744 3.92949 15.389
Si 5.08849 4.55302 11.1129
Si 7.12085 0.130368 11.2968
Si 6.49454 6.79015 14.4181
Si 8.67766 2.03874 14.825
Si 6.21933 2.55291 13.1536
Si 8.90083 6.23166 12.8143
O 6.11419 5.68349 15.5848
O 8.50751 0.668215 15.4871
O 7.14283 2.63888 14.356
O 10.2136 6.5797 13.8003
O 6.76076 1.4935 12.0002
O 9.19233 4.82708 12.1904
O 6.08812 3.72209 12.0649
O 8.82474 7.55071 11.7575
O 7.74477 6.28895 13.7483
O 9.50228 1.99102 13.4608
O 6.83401 8.10213 15.3194
O 9.24543 3.04681 16.0034
Si 10.1121 3.95454 10.9816
Si 12.7217 0.0610283 11.0794
Si 11.4281 6.07886 14.7584
Si 13.4777 2.27139 14.8754
Si 11.0749 2.13118 12.9816
Si 13.7669 6.45275 12.7982
O 11.0739 4.85406 15.7836
O 13.2746 0.847495 15.578
O 12.0084 2.48845 14.1514
O 0.120967 6.56693 13.4337
O 11.8827 0.791728 12.2638
O 13.7263 5.35511 11.5694
O 11.167 3.19913 11.6325
O 13.6094 7.99598 12.1889
O 12.7754 5.86599 14.0157
O 14.6337 2.12282 13.749
O 11.7694 7.44559 15.6308
O 13.9309 3.28387 15.8913
Si 0.190507 13.0685 11.1869
Si 2.52275 8.89598 10.8063
Si 1.44372 15.3203 14.8089
Si 3.70668 10.7859 14.8492
Si 1.21525 10.9009 13.0251
Si 3.62066 15.4278 12.967
O 1.22989 13.9984 15.7094
O 2.86418 9.75461 15.6653
O 2.4736 11.2354 13.8406
O 4.7143 15.7081 14.0123
O 1.54734 9.83138 11.7876
O 4.23971 14.077 12.1734
O 1.0494 12.1678 12.0325
O 3.44781 16.779 12.2172
O 2.06541 14.9131 13.3831
O 4.87233 10.1703 13.798
O 2.15939 16.4012 15.6209
O 4.16043 12.0188 15.9065
Si 4.77899 13.1135 11.0566
Si 7.90094 8.66763 10.9787
Si 6.00337 15.4066 14.9198
Si 8.66533 10.9018 14.4623
Si 6.17643 10.6209 12.7502
Si 8.6813 15.0902 12.9177
O 5.76187 13.9449 15.5344
O 8.63087 9.82196 15.6542
O 7.30623 11.2866 13.7633
O 10.0664 15.3984 13.8099
O 7.05466 9.5769 11.9644
O 8.67739 13.9048 11.8076
O 5.61618 11.7069 11.688
O 8.22427 16.3509 12.0723
O 7.35548 15.3848 14.1107
O 10.1347 10.7171 13.8083
O 6.38603 16.238 16.1004
O 8.78239 12.3167 15.2866
Si 9.87919 13.1663 10.9715
Si 12.8118 8.9626 11.2577
Si 11.4012 15.2632 14.7421
Si 13.9448 10.8118 14.9909
Si 11.326 11.2836 13.0709
Si 14.0485 15.4698 12.9909
O 10.7323 13.9473 15.3584
O 13.4166 9.69112 15.8713
O 12.6123 11.4084 14.065
O 15.1536 15.7186 14.4879
O 11.942 9.95483 12.1915
O 14.3374 14.2533 11.9828
O 10.6236 12.3703 12.1353
O 13.7457 16.6612 12.0133
O 12.8276 15.0769 13.9915
O 15.0444 10.3934 13.911
O 11.4683 16.3678 15.8458
O 14.7849 11.8604 15.9124
324
 Atoms. Timestep: 33000
Si 14.9232 4.45537 16.2605
Si 2.56343 0.075663 0.0643159
Si 1.20137 6.45925 3.78842
Si 3.75949 2.2214 3.56933
Si 1.19773 2.21168 1.6184
Si 3.65674 6.60473 1.7557
O 0.993319 5.01897 4.57081
O 3.41076 0.867967 4.42364
O 2.46188 2.52951 2.5961
O 4.89996 7.13609 2.69532
O 1.52382 0.946194 0.954463
O 4.40952 5.33481 1.02087
O 0.650411 3.44221 0.783818
O 3.30701 7.66201 0.730434
O 2.15329 6.27943 2.61257
O 5.18922 2.05491 2.84524
O 1.62695 7.65866 4.74705
O 3.64335 3.54172 4.46858
Si 5.20292 4.45179 16.5353
Si 7.49125 17.056 16.4593
Si 6.1628 6.75905 3.67884
Si 8.7265 2.17909 3.67145
Si 6.43497 2.01796 1.69194
Si 8.70716 6.84851 1.83609
O 5.6561 5.33522 4.35505
O 8.03934 0.837478 4.22477
O 7.84757 2.48222 2.25109
O 9.89455 7.01251 2.88557
O 6.73937 0.506743 0.980728
O 8.96465 5.92791 0.695137
O 5.97046 3.2303 0.713564
O 8.2932 8.15244 1.10919
O 7.46111 6.30825 2.77075
O 10.3574 2.0236 3.21439
O 6.76758 7.88594 4.58602
O 9.13056 3.05124 5.04285
Si 9.60111 4.547 16.4895
Si 12.3463 0.140033 16.4207
Si 11.2146 6.58347 3.84079
Si 13.8612 2.1543 3.57492
Si 11.2441 2.26193 1.87436
Si 13.7069 6.38827 1.844
O 10.8775 5.20629 4.63301
O 13.6136 0.941073 4.7436
O 12.6844 2.37851 2.46043
O 14.8619 6.68041 2.85139
O 11.3477 1.21513 0.585868
O 13.9425 5.20769 0.819735
O 10.6771 3.59836 1.00743
O 13.5138 7.8628 1.00664
O 12.4968 6.33359 2.90483
O 0.00418204 1.89721 2.7191
O 11.627 7.85112 4.59025
O 14.1082 3.38116 4.49755
Si 0.0101182 13.1885 0.050315
Si 2.4869 8.76479 16.4308
Si 0.891163 15.1708 3.40813
Si 3.78674 10.6345 3.82193
Si 1.3139 11.0493 1.84949
Si 3.57598 15.146 1.74213
O 0.414053 13.9852 4.25132
O 3.04433 9.7864 5.07455
O 2.61126 11.213 2.9017
O 4.84591 15.1331 2.71764
O 1.90208 9.78531 1.08977
O 4.04462 14.0619 0.628433
O 0.770943 12.0949 0.861454
O 3.38493 16.3773 0.83358
O 2.03471 14.948 2.28683
O 5.10579 10.1254 3.27137
O 1.6872 16.1417 4.59167
O 4.41025 11.7565 4.7609
Si 4.97244 12.7536 0.144655
Si 7.38474 9.03453 0.219899
Si 6.08922 15.0203 3.76974
Si 8.88881 10.8039 3.79197
Si 6.20739 10.8732 2.36117
Si 8.54472 14.9551 1.83459
O 5.77192 13.9307 4.74627
O 8.53769 9.61658 4.96125
O 7.61654 10.8711 2.91503
O 9.92782 15.3748 2.49509
O 6.6427 10.1568 1.00352
O 8.56112 13.5646 0.998225
O 5.65008 12.2634 1.5849
O 8.30352 16.0868 0.655884
O 7.48874 14.727 2.89678
O 10.0646 10.2972 2.8842
O 6.42164 16.4021 4.59085
O 9.41872 12.1663 4.5387
Si 9.81761 12.93 0.210237
Si 12.7135 8.71033 0.0112232
Si 11.0146 15.5723 3.61851
Si 13.6226 10.9875 3.43824
Si 11.1721 10.6444 1.67582
Si 13.4185 15.3001 1.84909
O 10.6645 14.5808 4.8595
O 13.3916 9.7112 4.4249
O 12.5826 11.1663 2.31233
O 14.8259 15.8199 2.71603
O 11.6572 9.54099 0.674943
O 14.1253 14.1154 1.04703
O 10.4054 12.007 1.38417
O 13.0588 16.3798 0.656407
O 12.319 14.8032 2.84547
O 14.9992 10.8592 2.67735
O 11.6683 16.927 3.94429
O 13.7068 12.0921 4.44649
Si 0.0267386 4.23152 5.4592
Si 2.78213 17.2594 5.48738
Si 1.42845 6.30705 9.18338
Si 3.68266 2.21263 8.94398
Si 1.13804 2.01854 7.22476
Si 4.02748 6.38127 7.6323
O 0.870994 4.94079 9.8256
O 3.68219 0.605807 9.62126
O 2.25873 2.50917 8.17843
O 5.55293 6.48587 8.27069
O 1.72774 0.860369 6.23981
O 4.20541 5.38591 6.45624
O 0.75484 3.2985 6.50235
O 3.29626 7.63173 6.88456
O 3.06942 5.98683 8.89738
O 4.96225 2.35844 8.20281
O 1.66581 7.47914 10.419
O 3.75383 3.31898 10.1176
Si 4.77822 4.4561 5.27315
Si 7.33333 17.3713 5.3668
Si 6.47444 6.15316 9.53313
Si 8.87359 2.57237 9.02624
Si 6.22115 2.33741 7.25597
Si 8.90052 6.30443 7.59428
O 5.86183 4.94146 10.3792
O 8.17249 1.37128 10.2183
O 7.52426 2.8154 8.06015
O 10.3324 6.91677 8.27263
O 6.56881 0.971141 6.52759
O 9.26625 5.08697 6.61289
O 5.80833 3.47148 6.08899
O 8.33566 7.42571 6.58632
O 7.86591 5.76676 8.68228
O 9.79005 1.55257 7.79001
O 6.76217 7.44276 10.4152
O 9.46402 3.68606 9.85569
Si 10.1396 4.14427 5.66674
Si 12.5418 17.1641 5.17877
Si 11.5421 6.70493 9.05508
Si 13.7326 1.884 9.20695
Si 11.1969 1.6266 7.27506
Si 14.1345 6.74794 7.16822
O 11.3856 5.28306 9.8694
O 13.6374 0.968817 10.4262
O 12.4129 1.91717 8.41576
O 0.216513 6.76743 8.29279
O 11.762 0.541167 6.31595
O 14.2731 5.40945 6.32277
O 11.3557 3.25179 6.40374
O 13.7327 7.99769 6.12827
O 12.697 6.61241 7.8479
O 14.9487 1.63102 8.13423
O 11.6407 7.92509 9.95111
O 14.0481 3.32244 9.70814
Si 14.7756 12.9675 5.19024
Si 2.27485 8.64858 5.93142
Si 1.26083 15.3654 9.18494
Si 3.77925 10.7922 9.09143
Si 1.19022 11.0941 7.24442
Si 4.02075 15.037 7.56591
O 0.7255 13.9832 9.90855
O 3.33446 9.67446 10.2331
O 2.60497 11.1853 7.99551
O 5.28775 15.2293 8.22852
O 1.26597 9.56179 6.65907
O 4.16212 13.8144 6.65926
O 0.627569 11.8052 5.91498
O 3.45997 16.395 6.60367
O 2.85966 14.9159 8.68766
O 5.05609 10.2002 8.50401
O 1.40945 16.6233 10.1474
O 4.42801 12.0566 9.80225
Si 5.11764 12.9461 5.69321
Si 7.53648 8.54766 5.76436
Si 6.49282 15.1939 9.30795
Si 8.93874 11.0354 9.4995
Si 6.51437 10.8717 7.53561
Si 8.87353 15.4015 7.32985
O 6.1206 14.0421 10.4049
O 8.54384 9.72461 10.4102
O 7.56825 11.2748 8.60043
O 10.3356 15.2642 8.10713
O 6.69839 9.38325 6.85927
O 8.98877 14.1836 6.39568
O 6.32188 12.0478 6.52764
O 8.52265 16.7804 6.52184
O 7.83168 15.0724 8.62224
O 10.0714 10.6438 8.33988
O 6.51535 16.6037 10.2161
O 9.508 12.3939 10.2996
Si 10.1018 13.2427 5.49774
Si 12.5873 8.8212 5.48215
Si 11.5654 15.1667 9.22148
Si 13.9988 11.2122 9.32639
Si 11.3622 10.9344 7.37459
Si 13.9495 15.0113 7.04447
O 11.5873 14.0527 10.2787
O 13.8406 9.75155 10.0153
O 12.6345 11.3871 8.1908
O 0.125112 15.6008 7.93245
O 11.5647 9.67901 6.46379
O 14.3055 13.6945 6.44816
O 10.8993 12.1542 6.38982
O 13.2347 15.779 5.72661
O 12.8207 14.9296 8.22812
O 0.106582 11.3487 8.34575
O 11.8276 16.5804 10.0369
O 14.106 12.2023 10.4323
Si 15.0222 4.12879 10.8544
Si 2.68699 -0.00116961 10.6732
Si 1.17857 6.67394 14.6857
Si 3.87242 2.32066 14.8988
Si 1.3427 2.09146 12.9155
Si 3.82983 6.81884 13.0559
O 0.793194 5.35815 15.4669
O 3.18943 1.33718 15.9087
O 2.71004 2.58788 13.7495
O 5.18576 6.94625 13.9278
O 2.181 1.19772 11.6959
O 4.12121 5.62899 11.9431
O 0.599679 3.20454 11.9489
O 3.70767 7.95525 12.0586
O 2.43827 6.41925 13.8083
O 5.10897 1.5685 14.2596
O 1.44552 7.75881 15.7968
O 3.99305 3.64104 15.7313
Si 4.49072 4.38171 11.0777
Si 7.52622 0.197399 11.0491
Si 6.47621 6.73125 14.8858
Si 8.53369 2.0787 14.6049
Si 6.02487 2.14722 13.1146
Si 8.89656 6.80074 12.9808
O 6.07659 5.50931 15.7446
O 8.24336 0.855486 15.4884
O 7.21767 2.81872 13.9031
O 10.2711 6.97292 13.7179
O 6.62512 0.920791 12.3614
O 9.43493 5.92707 11.7669
O 5.34441 3.32812 12.1453
O 8.40641 8.24759 12.4553
O 7.56426 6.37312 13.8393
O 9.61567 1.92953 13.4245
O 6.63657 8.05857 15.7303
O 9.04064 3.35011 15.5295
Si 10.3796 4.73794 11.0823
Si 12.4228 0.0509135 11.1905
Si 11.6023 6.43842 14.5568
Si 13.8801 2.12808 14.6362
Si 11.0463 2.27861 12.8629
Si 13.9824 6.71825 12.6885
O 10.6966 5.25243 15.3546
O 13.4831 1.03424 15.8006
O 12.545 2.2316 13.5273
O 15.023 7.21909 13.8006
O 11.4349 0.969865 12.0595
O 14.3882 5.43283 11.7425
O 10.9873 3.6732 12.0368
O 13.6265 7.83867 11.6751
O 12.7678 6.19014 13.4543
O 0.029886 1.67263 13.6856
O 12.0263 7.59066 15.6555
O 14.2707 3.4592 15.2542
Si 0.192122 13.3593 11.2961
Si 2.59127 8.56446 11.2274
Si 1.28595 15.2154 14.7332
Si 3.80837 10.9187 14.5339
Si 1.39738 10.9424 12.9855
Si 3.71102 14.9481 12.7599
O 0.875287 14.1632 15.9068
O 3.25442 9.49434 15.2772
O 2.62614 11.3468 13.6872
O 4.82378 15.2147 13.9064
O 1.51113 9.66299 11.9845
O 4.07919 13.7549 11.8209
O 1.14074 12.3298 11.9528
O 3.28163 16.221 11.6146
O 2.38849 14.9648 13.6133
O 5.24933 10.8907 13.8967
O 1.72423 16.7552 15.4415
O 4.19554 11.7387 15.8088
Si 5.10118 12.9837 11.0124
Si 7.47792 8.76091 11.1499
Si 6.26177 14.5952 14.6182
Si 9.17276 10.5719 14.7375
Si 6.55777 11.0539 12.7913
Si 8.93578 15.3037 12.8718
O 5.83622 13.4761 15.6476
O 8.59837 9.44279 15.7065
O 7.9512 11.064 13.5974
O 10.0158 15.3514 13.9112
O 6.46225 9.71119 11.9483
O 9.7756 14.6482 11.6361
O 5.99376 12.1181 11.8565
O 8.40151 16.7013 12.0382
O 7.54718 14.3202 13.6639
O 10.6095 10.4293 13.9636
O 6.79203 16.124 15.3442
O 9.52132 11.8641 15.7017
Si 10.5832 13.2605 11.2826
Si 12.7456 8.89654 10.8072
Si 11.1352 15.3536 14.9536
Si 14.0165 10.9901 14.7114
Si 11.5694 10.9158 12.9436
Si 13.6324 15.1237 13.1887
O 10.7067 14.3145 16.2284
O 13.4387 9.8603 15.706
O 12.9023 11.2949 13.6822
O -0.0211939 15.4811 13.9687
O 11.8609 10.0005 11.6755
O 14.2192 14.0559 12.2383
O 11.1026 12.5196 12.393
O 12.9806 16.2903 12.3969
O 12.4629 14.752 14.2114
O 0.362837 10.6569 14.0383
O 11.4885 16.9564 15.2582
O 14.2144 12.3138 15.6282
324
 Atoms. Timestep: 33500
Si 0.19017 4.23558 0.235252
Si 2.25632 0.00733219 0.178024
Si 1.05685 6.22459 3.65374
Si 3.81163 2.13256 4.06996
Si 1.11493 2.08682 2.48508
Si 3.79657 6.76901 1.98701
O 0.849775 4.81759 4.30581
O 3.42702 1.07486 5.20835
O 2.36692 2.28845 3.34705
O 4.82778 7.37287 3.05953
O 1.51539 0.853444 1.42634
O 4.31409 5.45377 1.25647
O 1.018 3.37548 1.2401
O 3.45461 7.81412 0.901026
O 2.43977 6.16914 2.65484
O 4.88441 1.57976 2.9546
O 1.47163 7.24722 4.83493
O 4.51217 3.351 4.61705
Si 4.96538 4.19896 0.228374
Si 7.42628 0.118475 16.416
Si 6.27857 6.84439 3.76275
Si 8.88844 2.21153 3.33591
Si 6.09111 2.04037 1.94751
Si 9.05919 6.74078 2.05042
O 5.93457 5.585 4.57397
O 8.62887 0.994716 4.39437
O 7.49763 2.12366 2.64692
O 10.1955 7.06155 3.14752
O 6.37445 0.927184 0.866351
O 9.27958 5.45181 1.21232
O 5.77795 3.33263 1.15598
O 8.59186 7.89481 0.804719
O 7.44618 6.78534 2.6889
O 10.0056 1.97752 2.23019
O 6.96492 7.78228 4.92339
O 9.25477 3.43072 4.24153
Si 10.0105 4.87096 16.4011
Si 12.808 0.18215 16.4778
Si 11.5275 6.62716 4.02024
Si 13.4357 2.28942 3.87471
Si 11.5292 2.48339 1.55751
Si 13.7274 6.38811 2.03719
O 10.8459 5.47027 4.98534
O 12.7356 1.01152 4.40388
O 12.4398 2.99349 2.79721
O 14.759 6.67904 3.14175
O 12.0832 1.2563 0.787919
O 14.47 5.33766 0.960519
O 11.085 3.65272 0.363472
O 13.4333 7.56897 0.9862
O 12.4075 6.15794 2.86687
O 14.7419 1.95713 3.09842
O 12.1396 7.88492 4.61119
O 13.9463 3.24971 4.83424
Si 15.004 13.2334 16.4599
Si 2.71875 8.74374 16.4108
Si 1.2847 15.4704 3.67701
Si 3.49808 10.8401 3.72391
Si 1.19887 10.8334 1.68021
Si 3.5466 15.1805 1.90861
O 1.24372 14.1613 4.90372
O 2.77111 9.46285 4.37623
O 2.19468 11.4385 2.86495
O 4.54254 15.6059 3.26195
O 1.96049 9.74552 0.80937
O 4.29866 14.08 0.92193
O 0.722951 12.0934 0.820294
O 3.18062 16.4865 1.10674
O 2.15417 14.8228 2.50754
O 4.82724 10.653 2.67037
O 1.79514 16.7677 4.17535
O 4.10757 11.8856 4.96617
Si 5.29557 13.0676 0.0410348
Si 7.65548 8.76148 16.314
Si 5.9934 15.2544 3.84795
Si 8.93268 10.5271 3.77997
Si 6.22156 10.703 1.77821
Si 8.60394 15.3817 1.87061
O 5.71199 14.0565 4.76477
O 8.92295 9.43972 4.91483
O 7.46338 10.8666 2.84895
O 9.79184 15.5479 2.88055
O 6.82925 9.523 0.849911
O 8.93695 14.0525 0.886772
O 6.07964 12.0611 0.93232
O 8.14644 16.5787 0.874901
O 7.14264 15.0892 2.6865
O 10.1024 10.375 2.78227
O 6.51342 16.8044 4.64693
O 9.11362 11.8532 4.63973
Si 9.766 13.095 0.0902344
Si 12.9235 8.72631 -0.0276498
Si 11.2196 15.1326 3.45684
Si 13.9863 10.4304 3.50315
Si 11.3542 10.8066 1.88065
Si 13.8424 15.4065 1.96203
O 10.8793 13.694 4.02586
O 13.9717 9.43236 4.69923
O 12.4891 10.8389 3.04114
O 14.8175 15.2006 3.21941
O 11.9501 9.81044 0.773021
O 14.2474 14.4968 0.695771
O 10.7649 12.2515 1.04618
O 13.7874 16.943 1.14292
O 12.4493 15.1833 2.49584
O 15.0387 10.2708 2.38641
O 11.499 16.292 4.68049
O 14.5105 11.9346 4.17351
Si 0.0865475 4.039 5.52239
Si 2.39973 17.2913 5.54055
Si 1.17438 6.51935 9.37422
Si 3.83728 2.33895 9.05907
Si 1.1993 1.85573 7.39373
Si 3.60561 6.31509 7.38032
O 0.761175 5.06881 9.93083
O 3.39793 1.175 10.2773
O 2.41489 2.37774 8.34282
O 5.03263 6.493 8.19504
O 1.39787 0.377441 6.73524
O 3.97296 4.99863 6.40121
O 0.995118 2.9784 6.20019
O 3.52653 7.71768 6.31268
O 2.35268 6.25229 8.43066
O 4.98242 1.75686 8.19154
O 1.52992 7.63989 10.7769
O 3.85952 3.69352 9.8684
Si 5.22329 4.44916 5.46471
Si 7.66304 0.260416 5.4074
Si 6.34399 6.42419 9.33154
Si 8.73052 2.47686 9.50736
Si 6.32637 2.35271 7.43474
Si 8.86598 6.26685 7.44474
O 6.06082 5.09769 10.1784
O 8.55221 1.44284 10.7499
O 7.45901 2.27224 8.64955
O 10.2442 6.44076 8.18496
O 6.92273 1.1795 6.52827
O 8.77154 5.0193 6.28548
O 6.00561 3.60697 6.53648
O 8.68186 7.60883 6.69546
O 7.73291 6.19621 8.5821
O 10.1397 2.07436 8.78878
O 6.54278 7.69907 10.1696
O 9.08831 3.85157 9.73059
Si 9.96724 4.18003 5.54829
Si 12.3623 17.4461 5.55233
Si 11.4493 6.35107 9.12235
Si 13.7178 2.15553 9.22065
Si 11.3331 2.09559 7.59717
Si 14.0053 6.32984 7.4112
O 10.8528 5.59763 10.3434
O 12.8395 0.875466 9.80036
O 12.5032 2.95182 8.36252
O -0.0464373 6.93499 8.39647
O 11.9556 0.89276 6.8131
O 14.7465 5.24148 6.53104
O 10.7661 2.97597 6.22603
O 13.4001 7.57718 6.58151
O 12.7119 5.78619 8.09688
O 14.9674 1.80632 8.33369
O 12.0428 7.81749 9.58863
O 14.1805 2.91547 10.6168
Si 0.262362 13.1001 5.23076
Si 2.23536 8.4267 5.57859
Si 1.27644 15.3816 9.21263
Si 3.628 10.6194 8.99021
Si 1.07349 10.8874 7.2969
Si 4.02019 14.8987 7.51487
O 0.826106 14.3183 10.4039
O 3.39399 9.27815 10.0466
O 2.18306 11.0856 8.37013
O 5.03932 15.7726 8.2871
O 1.46988 9.35503 6.69948
O 4.71557 13.5934 6.80801
O 0.939373 12.2052 6.41299
O 3.22386 16.0244 6.30319
O 2.43307 14.5823 8.42689
O 4.86654 10.2291 7.93104
O 1.77345 16.4635 10.1482
O 4.19212 11.8726 9.96542
Si 5.29785 12.6813 5.59661
Si 8.04284 8.64239 5.804
Si 6.32649 15.4154 9.21557
Si 8.71623 10.8466 9.25586
Si 6.29199 10.623 7.37065
Si 8.53867 15.1826 7.0726
O 5.89103 14.1784 10.0153
O 8.47156 9.47846 10.2341
O 7.30215 11.3004 8.5068
O 9.68033 15.6748 8.12078
O 7.07224 9.47461 6.77428
O 9.31014 14.1818 5.98158
O 6.33641 11.695 6.19143
O 8.16593 16.6519 6.37661
O 7.43686 14.7963 8.22725
O 9.68767 10.5462 8.14993
O 6.8346 16.6791 10.0094
O 9.01299 12.0537 10.174
Si 10.1933 12.7199 5.23476
Si 12.8378 8.72233 5.69549
Si 11.1808 15.2241 8.84094
Si 13.6185 11.075 9.09888
Si 11.1072 10.7021 7.44878
Si 13.9657 15.1967 7.1239
O 10.7499 13.995 9.71007
O 13.7972 9.8422 10.1102
O 12.0476 10.8766 8.64266
O -0.0407622 15.5848 8.28358
O 11.814 9.52715 6.61741
O 14.3699 14.1734 5.98124
O 10.8652 11.9571 6.32975
O 13.5104 16.5859 6.13151
O 12.4779 15.0656 8.01666
O 14.7405 10.8647 8.00044
O 11.547 16.4182 9.84631
O 14.1242 12.3357 9.97233
Si 0.0944202 3.97075 11.0249
Si 2.65733 -0.0262034 11.0946
Si 1.31528 6.48434 14.7115
Si 3.74906 2.16439 14.84
Si 1.38226 1.87632 12.9591
Si 3.77578 6.70012 12.8835
O 0.934837 5.16786 15.7044
O 3.38066 0.890632 15.9884
O 2.43567 2.17649 14.0129
O 5.00744 6.77497 13.7546
O 1.48558 0.782852 11.9518
O 3.96126 5.45025 11.9215
O 1.20793 3.27919 12.0303
O 3.57827 8.0667 12.3537
O 2.53465 6.41581 13.6953
O 4.94148 2.04816 13.8571
O 1.60683 7.92149 15.6531
O 4.02173 3.44556 15.6835
Si 4.75925 4.46482 11.0085
Si 7.65985 0.119575 11.0716
Si 6.15212 6.41093 14.7134
Si 8.9332 2.44054 14.7397
Si 6.16729 2.31601 12.8734
Si 8.77186 6.63559 13.0068
O 5.75712 5.15834 15.7819
O 8.54601 1.24231 15.564
O 7.53224 2.68464 13.7699
O 10.1715 7.10665 13.7898
O 6.63716 1.01779 12.1654
O 9.03735 5.59955 11.8678
O 5.56522 3.58418 11.9474
O 7.92451 7.79705 12.2107
O 7.6576 6.21636 14.0754
O 10.0529 1.98887 13.7839
O 6.81139 7.66046 15.5609
O 9.17248 4.10014 15.3069
Si 9.87016 4.69138 10.9368
Si 12.1889 17.3839 10.9094
Si 11.4791 6.8172 14.5889
Si 13.9492 2.18972 14.5759
Si 11.1058 2.36547 12.8423
Si 13.9974 6.36975 12.6903
O 11.0183 5.90027 15.7765
O 13.3908 0.921071 15.1981
O 12.6302 2.73493 13.7689
O 0.275819 6.78146 13.5834
O 11.2829 1.12594 11.7287
O 14.5092 4.95631 12.1454
O 10.5129 3.65291 11.9145
O 13.6534 7.35022 11.2257
O 12.6845 6.31265 13.5832
O 0.0781106 1.76483 13.8365
O 12.1102 8.26858 15.1432
O 14.2054 3.22316 15.9073
Si 14.9275 13.2328 11.2288
Si 2.53187 8.76304 11.3
Si 1.08785 15.4725 14.6342
Si 4.1182 10.9781 14.7216
Si 1.64403 11.2084 12.9057
Si 3.64888 15.0587 12.7131
O 1.0656 13.9989 15.5452
O 3.69267 9.52796 15.3284
O 3.0441 11.6304 13.6826
O 4.90026 15.1395 13.7195
O 1.92635 9.8991 12.2059
O 3.72834 13.8786 11.6728
O 0.945103 12.4824 11.9492
O 3.57565 16.4933 12.0276
O 2.13385 14.8643 13.4283
O 5.53875 10.819 13.9891
O 1.49417 16.5382 15.6311
O 4.21135 12.0439 15.8173
Si 5.04099 13.0238 10.8748
Si 7.32779 8.64773 11.0555
Si 6.20442 15.1301 14.6299
Si 9.05532 10.8989 14.27
Si 6.51488 10.9606 12.8127
Si 8.81063 15.3459 12.8427
O 6.06535 13.8915 15.5719
O 8.38881 9.73654 15.2223
O 7.91863 11.1733 13.2481
O 9.73258 15.8249 14.0354
O 6.38823 9.8688 11.5665
O 9.33935 13.9343 12.0687
O 6.10471 12.3013 11.8225
O 8.51238 16.2502 11.6768
O 7.22189 15.0027 13.4117
O 10.514 10.8105 13.6459
O 6.59388 16.5079 15.3299
O 8.95276 12.1556 15.4327
Si 10.0104 13.0809 10.852
Si 12.9466 8.62176 10.6258
Si 11.2344 15.2145 14.8323
Si 14.0507 11.0118 14.7207
Si 11.866 10.9225 12.5691
Si 13.5632 15.2538 12.9234
O 10.6819 13.8262 15.6328
O 14.1038 9.66231 15.8211
O 12.986 10.9439 13.6306
O 14.706 15.662 13.9154
O 11.9735 9.54568 11.6253
O 13.7572 14.0814 11.8528
O 11.0989 12.1959 11.8756
O 13.0765 16.361 11.773
O 12.4811 14.7985 13.9978
O 0.412852 11.0328 14.0293
O 11.795 16.4317 15.8744
O 14.0909 12.374 15.3913
324
 Atoms. Timestep: 34000
Si 0.0551306 4.2393 0.183277
Si 2.73507 0.119313 16.5271
Si 1.14036 6.67765 3.67573
Si 3.48189 2.04917 3.78925
Si 1.12298 1.94493 2.03054
Si 3.69313 6.79126 1.91243
O 1.01103 5.61338 4.87888
O 3.36081 0.844061 4.86754
O 2.24521 2.69637 2.95688
O 5.07174 6.94893 2.74544
O 2.00407 0.735021 1.22668
O 4.05777 5.49833 0.892612
O 0.686529 3.0496 1.029
O 3.41834 8.0363 0.97446
O 2.33268 6.58354 2.62744
O 4.63766 1.62106 2.94717
O 1.29454 8.29198 4.22376
O 3.79044 3.23927 4.96323
Si 4.75718 4.35024 0.134026
Si 7.41913 -0.0467639 0.0122073
Si 6.19109 6.32562 3.58827
Si 8.59453 2.12483 3.57261
Si 5.87766 2.15829 1.97872
Si 8.61363 6.39621 1.86151
O 5.8052 5.03656 4.40339
O 8.94989 0.874678 4.71625
O 7.1097 2.2913 2.99431
O 9.82461 6.6241 2.8116
O 6.68017 1.00833 1.02578
O 8.98001 5.48303 0.731245
O 5.21673 3.43072 1.30964
O 8.0746 7.83533 1.08043
O 7.38498 5.72511 2.645
O 9.8636 1.79251 2.49347
O 6.95083 7.39713 4.49117
O 8.98911 3.52391 4.32619
Si 9.92641 4.50635 16.4488
Si 12.4971 0.13482 16.5364
Si 11.1547 6.53352 3.59555
Si 13.9935 1.9582 3.84366
Si 11.1334 2.16854 1.88442
Si 13.7732 6.69791 1.43878
O 11.1669 5.02266 4.42376
O 13.6331 0.877744 4.8561
O 12.2147 2.28799 3.17656
O 14.9103 6.97027 2.72289
O 11.7714 1.29967 0.793957
O 14.0671 5.30341 0.799631
O 10.9194 3.56905 0.913731
O 13.6892 7.75048 0.355285
O 12.4417 6.71531 2.38348
O 14.9499 1.3964 2.65311
O 11.5232 7.54729 4.76611
O 14.6821 3.36368 4.38105
Si 14.9293 13.2295 16.5255
Si 2.52653 8.91315 16.6551
Si 1.55034 15.4011 3.81452
Si 3.9852 10.8826 3.14684
Si 0.955462 10.9928 1.5521
Si 3.83715 15.2988 1.88005
O 0.912881 14.0697 4.86288
O 3.56345 9.67243 4.06103
O 2.53036 10.9841 2.34652
O 5.27314 15.5931 2.28194
O 1.29512 9.58481 0.772937
O 4.0544 13.9173 1.06151
O 0.760468 12.1551 0.54023
O 3.50586 16.3562 0.572733
O 2.78138 15.1823 3.02181
O 5.16456 10.5015 2.23806
O 1.47034 16.6883 4.48141
O 4.39514 12.0074 4.0566
Si 5.2038 13.4436 0.143376
Si 7.49723 8.72926 16.4467
Si 6.41717 15.3176 3.46423
Si 8.84824 10.6334 3.65998
Si 6.60125 10.9943 1.37116
Si 8.97713 15.2211 1.77484
O 5.72829 14.1434 4.43893
O 8.56124 9.26556 4.36236
O 7.85738 10.7375 2.33888
O 10.231 15.7866 2.44505
O 6.63502 10.0364 0.239709
O 9.55603 14.0874 0.917462
O 6.33031 12.4871 0.766107
O 8.40941 16.3442 0.730003
O 7.80313 14.8167 2.85628
O 10.2219 10.5998 3.07032
O 6.78135 16.6617 4.25375
O 8.7695 11.8446 4.7435
Si 10.484 13.1686 16.4806
Si 12.4904 8.78753 16.4596
Si 11.2865 15.2969 3.62087
Si 13.9236 10.7963 3.85766
Si 11.4056 10.8843 2.06758
Si 13.8132 15.1157 1.96962
O 10.6128 13.8845 4.22036
O 13.3349 9.43008 4.62269
O 12.5253 11.4099 3.1087
O 0.343138 15.4459 2.56956
O 11.8402 9.39671 1.27148
O 13.8777 13.8425 0.956535
O 11.2687 11.9986 0.876668
O 13.1426 16.4823 1.25183
O 12.7809 15.1419 3.06428
O 14.9164 10.7864 2.64851
O 11.3062 16.4861 4.71925
O 14.33 11.9407 5.10997
Si 0.218862 4.26431 5.55646
Si 2.49701 17.3067 5.62011
Si 1.48053 6.81374 9.22683
Si 3.9775 1.97435 9.12384
Si 1.47644 1.9857 7.45589
Si 3.95654 6.95852 7.14045
O 0.861012 5.66019 10.0803
O 3.33482 0.876528 10.0888
O 2.70919 2.42312 8.2198
O 5.28176 7.02404 7.96543
O 1.93454 0.553108 6.90943
O 4.38438 5.62378 6.16223
O 1.10736 3.07575 6.20088
O 3.14775 8.06195 6.25897
O 2.84469 6.37262 8.39299
O 5.24199 1.45253 8.38943
O 2.32987 8.16133 10.0506
O 4.5712 3.25852 10.017
Si 4.98624 4.39133 5.61668
Si 7.78869 17.3234 5.41382
Si 6.33945 6.71836 9.19973
Si 8.87567 2.1353 9.41492
Si 6.29487 2.2205 7.48766
Si 8.87262 6.61096 7.2969
O 6.17706 5.53765 10.2261
O 8.46297 0.70016 10.4329
O 7.64484 2.36074 8.2576
O 10.3146 6.59354 8.26164
O 6.80446 0.925247 6.62235
O 9.16137 5.42822 6.32378
O 5.78597 3.36808 6.54156
O 8.33396 7.9714 6.59185
O 7.71198 6.36374 8.29989
O 10.1192 1.55004 8.36293
O 6.20313 8.13345 9.94005
O 9.34576 3.22635 10.2851
Si 10.0685 4.31369 5.26238
Si 12.359 0.0428903 5.49085
Si 11.3397 6.56834 9.36759
Si 13.9444 2.34089 8.93498
Si 11.214 2.09208 7.35815
Si 14.0242 6.50149 7.49998
O 11.0286 5.08715 10.173
O 13.3014 1.26881 9.93833
O 12.7609 2.39255 7.88499
O 0.261061 6.97835 8.19277
O 11.4796 1.083 6.21618
O 14.5133 5.11693 6.57359
O 10.7603 3.32112 6.37411
O 13.5535 7.78258 6.6741
O 12.7035 6.25824 8.45892
O 0.198534 1.83841 8.27168
O 11.7868 7.59342 10.3958
O 14.272 3.68066 9.77126
Si 15.0775 13.1407 5.81702
Si 2.48924 9.05636 5.19101
Si 1.23798 15.401 9.06198
Si 3.62052 11.1285 9.45435
Si 1.11894 10.9543 7.52998
Si 3.63794 15.0796 7.00744
O 1.01194 14.186 10.0728
O 3.73276 10.0634 10.6595
O 2.44358 10.9244 8.53245
O 4.61943 15.4726 8.21842
O 1.89759 10.2184 6.24206
O 3.9619 13.8161 6.25314
O 0.720966 12.2754 6.82268
O 3.35753 15.9565 5.77772
O 2.31903 15.1424 7.98909
O 5.05937 10.9874 8.38302
O 1.65991 16.5829 10.0852
O 3.89593 12.3907 10.2645
Si 4.85797 12.9703 5.2315
Si 7.39028 8.68285 5.43308
Si 5.99791 15.4203 9.09889
Si 8.71044 10.8238 9.17472
Si 6.19325 10.9842 7.15022
Si 8.66169 14.9913 7.38233
O 5.66733 14.2728 10.254
O 8.42252 9.40522 9.87659
O 7.5252 11.2714 8.05956
O 9.85513 15.0446 8.3928
O 6.33153 9.73762 6.08506
O 9.1269 13.8895 6.47925
O 5.92779 12.2045 6.09138
O 8.26732 16.0641 6.25806
O 7.16129 15.0082 8.22021
O 10.1504 10.6734 8.34187
O 6.3952 16.7857 9.97842
O 8.74823 12.0438 10.1826
Si 9.84862 13.0479 5.35855
Si 12.3518 8.45162 5.61556
Si 11.1283 15.0827 9.49304
Si 13.7161 10.7334 9.17898
Si 11.3776 10.8835 7.29137
Si 13.6374 15.3867 7.67353
O 10.7478 13.8064 10.305
O 13.4668 9.66405 10.3485
O 12.5165 11.2764 8.31335
O 14.8521 15.576 8.40439
O 11.5662 9.49786 6.61861
O 13.9506 14.387 6.48534
O 10.7608 12.0824 6.12581
O 13.0017 16.64 6.85387
O 12.6321 14.7128 8.7244
O 14.9129 10.1242 8.16131
O 11.5986 16.2939 10.503
O 14.5152 12.0811 9.79446
Si 0.139642 4.34388 10.7758
Si 2.56105 17.2928 11.1073
Si 1.37381 6.47792 15.0008
Si 3.59891 2.37861 14.7164
Si 1.16865 2.21635 12.7828
Si 3.86386 6.1598 13.0567
O 1.26413 5.46566 16.2698
O 3.60528 1.13457 15.6211
O 2.37036 2.53841 13.7984
O 4.939 6.64324 14.2941
O 1.57781 0.807654 12.0616
O 4.47631 4.98551 12.1255
O 0.901111 3.17851 11.4896
O 3.70303 7.50101 12.1109
O 2.56381 5.83495 13.9453
O 4.8684 2.0351 13.6836
O 2.05817 7.80057 15.4672
O 3.88107 3.61963 15.6032
Si 5.35825 4.41432 10.905
Si 7.33125 17.2454 11.1529
Si 6.18182 6.14583 15.1493
Si 8.89274 2.12384 14.7991
Si 6.22877 2.12541 12.825
Si 8.51465 6.38012 12.9432
O 6.09139 4.74879 15.8908
O 8.44019 1.09861 16.0685
O 7.42172 2.5288 13.8929
O 9.87705 6.9337 13.7044
O 6.7209 0.6897 12.3465
O 9.35383 5.22059 12.2248
O 6.3268 3.34215 11.6524
O 8.07868 7.41193 11.7411
O 7.4381 5.98128 14.0183
O 10.0999 1.4487 14.037
O 6.68774 7.46767 15.8361
O 9.46649 3.42178 15.4838
Si 10.2479 4.3087 11.2762
Si 12.5793 0.173436 11.167
Si 11.1498 6.8608 14.6289
Si 13.9921 2.00692 14.8086
Si 11.2428 1.95661 13.1942
Si 13.9962 6.33461 13.0637
O 10.8607 5.59226 15.5084
O 13.807 0.676135 15.6862
O 12.5891 2.4947 14.2651
O 15.1132 6.47418 14.2278
O 12.0501 1.00838 12.3286
O 14.2285 5.00705 12.0913
O 10.7259 3.10358 12.253
O 13.9187 7.6196 12.0816
O 12.5201 6.47965 13.7141
O 14.9995 1.91287 13.576
O 11.4012 8.04579 15.6712
O 14.5787 3.35204 15.5288
Si 0.232685 13.1114 10.8663
Si 3.0085 8.76231 11.3194
Si 1.08412 15.7082 14.8361
Si 3.68873 11.1494 14.754
Si 1.41419 10.9806 12.9397
Si 3.79063 15.1876 13.0773
O 0.558944 14.5046 15.9021
O 3.34377 10.2873 16.0554
O 2.29354 11.6292 14.0599
O 5.18217 15.4793 13.5684
O 1.98427 9.76829 12.2313
O 3.98855 13.8516 12.4397
O 1.05681 11.9632 11.7394
O 3.42093 16.2358 11.8512
O 2.56495 15.2927 14.063
O 5.05622 10.5368 13.7042
O 1.50098 17.0447 15.4948
O 4.58157 12.3941 15.446
Si 4.81949 13.2951 11.1762
Si 7.39478 8.82568 10.8255
Si 6.36549 15.3201 14.5699
Si 8.66889 10.8779 14.6913
Si 6.47837 11.0938 12.6406
Si 8.62085 14.7242 12.8149
O 5.80328 14.6516 15.8589
O 8.42473 9.48901 15.3442
O 7.52583 11.4469 13.712
O 9.87308 15.4615 13.8104
O 7.05715 9.97869 11.6894
O 9.47896 13.6248 12.1861
O 5.88378 12.2522 11.7185
O 8.06682 15.8292 11.8029
O 7.53368 14.5432 13.9469
O 10.011 10.5696 13.8312
O 6.87463 16.816 15.335
O 9.31445 12.1179 15.7554
Si 9.78849 12.7601 10.9826
Si 12.8193 8.51399 11.4109
Si 11.3334 15.2973 14.5525
Si 13.7017 10.9294 14.4954
Si 11.1315 10.5845 12.7959
Si 13.9213 15.3583 12.7678
O 11.4414 14.0716 15.5911
O 13.2307 9.84632 15.6024
O 12.3953 11.2396 13.6012
O 15.0627 15.5822 13.7575
O 11.794 9.24414 12.3828
O 14.397 13.9448 11.9783
O 10.7256 11.6507 11.5479
O 13.5566 16.6533 11.9041
O 12.3974 15.2962 13.5289
O -0.0147508 10.5089 13.6434
O 11.6603 16.5639 15.4992
O 14.2239 12.1811 15.464
324
 Atoms. Timestep: 34500
Si 15.0216 4.4149 16.3445
Si 2.50109 0.114566 16.5041
Si 1.01833 6.67349 3.61464
Si 3.85549 2.1726 3.85709
Si 1.28784 2.34311 1.68822
Si 3.5454 6.53685 1.84529
O 0.425033 5.44573 4.4697
O 3.19304 0.795797 4.59269
O 2.58836 2.5 2.72604
O 4.74733 6.71568 3.01014
O 1.57952 1.06628 0.875533
O 4.23267 5.56398 0.685839
O 0.893755 3.59268 0.686165
O 3.15856 7.7243 0.9709
O 2.3716 5.99992 2.80265
O 5.00807 2.21184 2.7907
O 1.65015 7.82259 4.6122
O 4.31399 3.19717 4.97407
Si 5.19622 4.61229 16.3015
Si 7.56247 0.104388 0.279568
Si 6.25419 6.30605 3.44384
Si 8.7749 2.25432 3.96819
Si 6.38199 2.44075 2.03474
Si 8.81164 6.33921 1.64257
O 5.77212 4.95305 4.25371
O 8.32493 0.865259 4.66217
O 7.40589 2.67923 3.21227
O 10.132 6.6837 2.66782
O 6.69273 1.01672 1.47773
O 9.4746 5.20563 0.740524
O 6.0953 3.29414 0.695272
O 8.28663 7.71815 1.08148
O 7.3777 5.82899 2.28214
O 9.90823 1.98704 2.92028
O 7.13247 7.58275 4.16337
O 9.22767 3.38117 4.89881
Si 10.3692 4.29394 16.379
Si 12.4409 17.461 0.157032
Si 11.338 6.57342 3.52437
Si 13.8961 2.12046 3.67416
Si 11.1981 2.17769 1.93531
Si 13.8223 6.84324 1.59526
O 10.9098 5.56933 4.75647
O 13.5439 0.856415 4.68909
O 12.6448 2.41005 2.70757
O 14.9331 7.25197 2.78007
O 11.5398 0.833006 0.977684
O 14.4005 5.61939 0.719624
O 10.9941 3.51609 1.03697
O 13.5542 8.11516 0.799449
O 12.4425 6.40009 2.46416
O 0.113403 2.05076 2.77588
O 11.7984 7.88944 4.2832
O 13.9731 3.22832 4.84969
Si 14.8415 13.0748 16.4179
Si 2.5049 8.71654 16.6828
Si 1.11145 15.1984 3.71994
Si 3.61073 11.0484 3.48738
Si 1.17457 10.9498 1.75091
Si 3.82671 15.2818 1.88928
O 0.641809 13.9945 4.81605
O 3.20578 9.72445 4.46482
O 2.47418 11.2759 2.34012
O 5.12144 15.2658 2.7121
O 1.49777 9.72195 0.765378
O 3.85579 14.0549 0.663873
O 0.46868 12.2923 1.08693
O 3.35915 16.5142 0.717672
O 2.54133 15.4077 2.81953
O 5.09996 10.9294 2.96175
O 1.3514 16.3188 4.88755
O 3.70077 12.3486 4.52506
Si 4.6978 13.0361 16.4309
Si 7.61205 8.79106 16.5913
Si 6.49408 14.9047 3.69954
Si 8.93836 11.2447 3.63128
Si 6.26895 10.9989 1.89391
Si 8.7969 15.263 1.80071
O 6.1028 13.5941 4.63389
O 8.53652 9.79032 4.40648
O 7.49171 11.3028 2.73303
O 10.0616 15.2516 2.99356
O 6.63903 10.0256 0.546213
O 9.35467 14.1274 0.739559
O 5.50541 12.2092 1.0159
O 8.6283 16.6388 1.23785
O 7.5989 14.7231 2.7937
O 10.2274 11.0695 2.88506
O 6.57868 16.2476 4.56225
O 9.14397 12.3505 4.63953
Si 10.2537 13.0302 16.3777
Si 12.3413 8.73216 16.4247
Si 11.1386 15.1744 4.02648
Si 13.8362 10.8968 3.72006
Si 11.3166 10.9038 1.84289
Si 13.611 15.0325 1.98259
O 10.9943 14.2278 5.2741
O 13.5308 9.71651 4.75906
O 12.68 11.2978 2.66184
O 15.0265 15.284 2.58255
O 11.4304 9.71685 0.722043
O 13.7217 13.9772 0.728287
O 10.9271 12.0937 0.868307
O 13.2368 16.3904 1.14914
O 12.5369 14.6658 3.21931
O -0.0380313 10.5792 2.89215
O 11.4228 16.5352 4.62762
O 14.0514 12.1072 4.70236
Si 14.9083 4.36399 5.59596
Si 2.23403 0.0196325 5.74414
Si 1.19764 6.63014 9.123
Si 3.61264 1.88003 9.17308
Si 1.13025 2.28724 7.53606
Si 4.10626 6.75135 7.45705
O 0.843873 5.39766 9.98127
O 3.28576 0.636183 9.90935
O 2.26576 2.48315 8.61969
O 5.23458 6.9292 8.46101
O 1.54229 0.974867 6.79324
O 4.50876 5.57956 6.4072
O 1.13506 3.49946 6.0717
O 3.66919 7.78403 6.31083
O 2.72687 6.00509 8.27555
O 4.78465 1.93158 8.16125
O 1.65295 7.74636 10.1626
O 4.18138 3.06584 10.4358
Si 5.21959 4.26616 5.68945
Si 7.54872 17.1938 5.47253
Si 6.58477 6.6634 9.3025
Si 8.78759 1.94519 9.1239
Si 6.14261 1.96875 7.40213
Si 8.91292 6.91672 7.24214
O 6.43916 5.03511 10.1445
O 8.47828 0.645032 9.98127
O 7.26622 2.08795 8.39598
O 10.1253 7.03328 8.3118
O 6.47551 0.594864 6.39082
O 8.77863 5.72727 6.37779
O 6.11409 3.46294 6.57462
O 8.95477 8.16689 6.30052
O 7.6907 6.72082 8.23868
O 10.0269 1.79213 8.22952
O 7.16528 7.75365 10.1943
O 9.2953 2.91658 10.2691
Si 9.9671 4.68017 5.75158
Si 12.3199 0.0059267 5.51304
Si 11.29 6.3671 9.31357
Si 13.7045 2.60767 9.19357
Si 11.1602 2.2431 7.25528
Si 13.8635 6.60155 7.36536
O 11.0905 4.71037 9.74393
O 13.9558 1.15723 9.97694
O 12.3914 2.13821 8.33412
O 0.0312092 7.08224 8.26965
O 11.4345 1.17827 6.10179
O 14.3714 5.36182 6.56236
O 10.9023 3.76816 6.58863
O 13.202 7.48695 6.25791
O 12.558 6.30371 8.30682
O 14.8604 2.70789 8.09239
O 11.9439 7.2307 10.5002
O 13.852 3.7731 10.2303
Si 14.7443 12.9984 5.791
Si 2.55485 8.59568 5.52181
Si 0.900443 14.9794 9.23486
Si 4.17034 10.8793 9.33329
Si 1.66893 11.0321 7.45607
Si 3.74466 15.364 7.41699
O 0.644758 13.7707 10.2152
O 3.41553 9.62351 9.99056
O 2.95198 11.3776 8.3267
O 4.74637 15.4675 8.66478
O 2.02892 9.71234 6.53207
O 4.08258 14.3488 6.15867
O 0.799898 12.1441 6.66957
O 3.13371 16.6728 6.79475
O 2.02771 14.6317 8.18253
O 5.14009 10.2467 8.27636
O 1.41264 16.1295 10.1746
O 4.78951 11.7665 10.4301
Si 4.82776 12.9683 5.49964
Si 7.76589 8.79065 5.36239
Si 6.18474 15.1047 9.30742
Si 8.84165 11.0021 8.98912
Si 6.16233 10.647 7.16729
Si 8.77668 15.0214 7.56749
O 6.32214 13.8243 10.45
O 8.58586 9.78181 10.1449
O 7.54648 10.9436 8.05288
O 9.89864 15.4789 8.58867
O 6.50572 9.40004 6.03428
O 8.94211 13.6645 6.89279
O 5.34342 11.8993 6.58318
O 8.47801 16.1818 6.36313
O 7.20548 14.7618 8.24746
O 10.2716 10.4495 8.56239
O 6.31538 16.4222 10.2795
O 9.44529 12.4649 9.66846
Si 10.0558 13.0366 5.80164
Si 12.6557 8.59732 5.28907
Si 11.1529 15.4044 9.40958
Si 13.9244 10.7434 9.02316
Si 11.4184 10.634 7.51902
Si 13.4904 15.2605 7.56307
O 10.7921 14.5356 10.6926
O 13.1934 9.42698 9.53813
O 12.8702 11.0881 7.93256
O 14.8021 15.3881 8.28962
O 11.5913 9.48816 6.3275
O 13.8542 14.13 6.47347
O 10.86 11.8595 6.52816
O 12.7833 16.6327 6.73909
O 12.22 14.7058 8.60547
O 0.358901 10.7318 8.41963
O 12.1237 16.5712 9.94697
O 13.9679 11.8278 10.2103
Si 15.044 4.60126 10.9972
Si 2.42682 17.1586 11.0034
Si 1.17453 6.70976 14.5026
Si 3.76588 2.19249 14.5672
Si 1.11595 2.32535 12.7354
Si 3.89158 6.4442 12.7071
O 0.862001 5.26633 15.2558
O 3.46011 1.01631 15.5996
O 2.52765 2.37383 13.6104
O 5.04115 6.76215 13.679
O 1.62817 0.958452 11.9841
O 4.4377 5.22501 11.9872
O 0.797956 3.56998 11.8406
O 3.49152 7.67548 11.8377
O 2.37406 6.34698 13.4858
O 5.05337 1.80239 13.5939
O 1.53603 8.01052 15.4326
O 4.32492 3.52582 15.4955
Si 5.24929 4.14381 11.072
Si 7.61315 17.3686 10.9914
Si 6.38753 6.67623 14.4631
Si 8.68402 2.35886 14.7166
Si 6.389 2.11339 12.8529
Si 9.07599 6.22066 12.7056
O 6.13235 5.57662 15.5083
O 8.38511 1.31527 15.7998
O 7.40935 2.63755 14.0354
O 9.95965 6.35092 14.0384
O 6.98971 1.02977 11.9066
O 9.48645 5.12523 11.5516
O 6.11315 3.44027 12.0657
O 9.21771 7.71482 12.0123
O 7.54726 6.34076 13.439
O 9.97633 1.91162 13.7116
O 6.67266 8.11245 15.3927
O 9.41769 3.61306 15.4094
Si 10.4713 4.02394 10.8664
Si 13.0387 0.0715119 10.9264
Si 11.4612 6.41995 14.5949
Si 13.7236 2.02388 14.7936
Si 11.3652 2.05034 12.8492
Si 13.8903 6.81418 12.856
O 11.5087 5.17579 15.7279
O 13.3729 0.851363 15.7936
O 12.4805 2.36223 13.9041
O 14.7339 7.12599 14.0981
O 11.9671 0.847172 11.8727
O 14.4557 5.52756 11.9918
O 11.2999 3.38229 12.0604
O 13.6695 8.36014 12.0383
O 12.2969 6.60874 13.3503
O 15.01 1.94705 13.7972
O 11.7155 7.7779 15.4698
O 14.0858 3.50981 15.5782
Si 15.0034 12.6795 11.1163
Si 2.48114 8.57955 11.1403
Si 1.53312 15.0807 15.0227
Si 3.49134 10.9129 14.6736
Si 1.18185 10.7469 12.8694
Si 4.00757 15.2298 12.884
O 0.8784 13.9324 15.7366
O 3.48914 9.74421 15.8455
O 2.21062 10.9207 13.9456
O 5.24809 15.8778 13.5858
O 1.77902 9.42317 12.1675
O 4.322 14.029 11.9084
O 1.07363 11.6823 11.5807
O 3.38757 16.2123 11.8496
O 2.77957 14.9242 14.0522
O 4.72972 10.5587 13.6126
O 1.52229 16.449 15.7689
O 3.85431 12.4073 15.3494
Si 5.33372 12.8458 11.4197
Si 7.81751 8.77935 11.1067
Si 6.28905 15.5623 14.7771
Si 8.91223 10.719 14.7907
Si 6.29206 10.5643 13.1607
Si 8.83762 15.1491 13.0422
O 5.8127 14.1005 15.5149
O 8.67912 9.52851 15.8095
O 7.46619 10.8956 14.1758
O 10.2426 15.3899 13.7254
O 6.79 9.43643 12.1247
O 8.67687 13.6986 12.2503
O 6.05811 11.9856 12.5666
O 8.44017 16.3507 12.084
O 7.69876 15.4085 14.1323
O 9.88292 10.5764 13.5781
O 6.65662 16.5779 16.0627
O 9.48314 12.0738 15.3124
Si 9.79284 13.327 11.0217
Si 12.559 8.59994 10.8924
Si 11.5062 15.135 14.5994
Si 13.6712 10.972 14.4891
Si 11.1776 10.9282 12.562
Si 14.117 15.1684 12.7419
O 11.287 14.0339 15.5877
O 13.1961 9.78916 15.413
O 12.112 11.2696 13.8294
O 0.349589 15.443 13.6414
O 11.5495 9.74891 11.5074
O 14.2918 13.694 12.2911
O 10.446 12.0795 11.8446
O 13.944 16.5193 11.7618
O 12.8159 15.0999 13.6468
O 14.6671 10.681 13.2989
O 11.6212 16.4829 15.7403
O 14.2569 12.0744 15.5028
324
 Atoms. Timestep: 35000
Si 0.235359 4.43215 16.4153
Si 2.31174 0.13248 0.163007
Si 1.31092 6.25642 3.70553
Si 4.0342 2.44462 3.77375
Si 1.26542 2.44473 1.93235
Si 3.99988 6.39007 2.01289
O 0.680013 4.88106 4.14786
O 3.83437 1.22542 4.94081
O 2.49801 2.42848 2.92848
O 5.4434 6.23934 2.62528
O 1.27227 1.24383 0.671667
O 3.95188 5.26252 0.953778
O 1.28471 3.65514 0.872919
O 3.95345 7.69562 1.00165
O 2.69723 6.19048 2.96314
O 5.04583 2.12231 2.67977
O 1.49253 7.47423 4.85623
O 4.46198 3.81835 4.46806
Si 5.05917 4.58587 16.4859
Si 7.88318 -0.0736332 0.0899063
Si 6.52534 6.48066 3.73571
Si 8.78922 2.37812 3.6668
Si 6.39469 2.50533 1.81688
Si 8.94984 6.44214 1.6843
O 6.53302 5.45323 4.91928
O 7.71256 1.24889 4.51136
O 7.70832 3.10719 2.68276
O 10.5192 6.43438 2.33053
O 7.24608 1.15408 0.977548
O 9.10549 5.11452 0.596859
O 5.89668 3.60498 0.823939
O 8.30088 7.58841 0.884778
O 8.05079 6.39379 3.12822
O 10.0183 1.92104 2.81014
O 6.29921 7.98787 4.34178
O 9.60671 3.0418 5.00994
Si 10.0818 4.07874 16.4841
Si 12.7483 0.0447673 -0.0168552
Si 11.5999 6.32867 3.45536
Si 13.7839 1.98663 3.67726
Si 11.299 2.16973 1.99957
Si 14.2103 6.75664 1.58492
O 11.0908 5.12493 4.5532
O 13.332 0.619533 4.23703
O 12.5289 2.60128 3.01459
O 0.399662 6.88681 2.53809
O 11.7968 0.989305 1.17261
O 14.5217 5.45963 0.80541
O 11.1006 3.35334 1.12278
O 13.5608 8.02044 0.853402
O 13.0512 6.39685 2.97758
O 15.0911 2.1215 2.78213
O 11.4584 7.81868 4.5552
O 14.1726 2.89358 5.00735
Si 15.1144 12.9369 16.6196
Si 2.85411 8.47231 0.0626387
Si 1.41721 15.2764 3.65444
Si 3.77952 10.8872 4.01117
Si 1.34838 10.6713 1.87409
Si 3.56307 15.3034 1.92208
O 1.24568 14.0721 4.60066
O 3.02322 9.48879 4.31929
O 2.56783 11.3405 2.73117
O 4.59704 15.1354 3.08356
O 1.9861 9.51595 1.04806
O 4.19867 14.1466 1.00167
O 0.859886 11.8265 0.753934
O 3.13656 16.6279 1.12098
O 2.16487 14.7596 2.30635
O 4.98233 10.4242 3.02521
O 2.09958 16.6513 4.31598
O 4.31446 11.9448 5.06918
Si 4.90791 13.2511 16.4373
Si 7.55702 8.8952 16.6311
Si 5.92526 15.0997 3.75071
Si 8.65302 11.1389 3.66238
Si 6.1068 10.8847 1.77861
Si 8.43998 14.9705 1.84146
O 5.87805 14.0555 4.98528
O 8.4404 9.86194 4.62171
O 7.42433 11.2588 2.74283
O 9.73371 15.1344 2.77864
O 6.63036 9.69895 0.914788
O 9.04083 13.7412 0.905824
O 5.74723 12.1701 0.988919
O 8.51337 16.199 0.930839
O 7.19394 14.8605 2.71709
O 9.91266 11.1111 2.56036
O 6.60866 16.3777 4.55293
O 9.0204 12.395 4.60303
Si 10.2397 13.371 16.4948
Si 12.3873 8.72149 0.12231
Si 11.23 15.2446 3.57397
Si 13.7933 11.1003 3.52907
Si 11.3527 11.0564 1.71706
Si 13.6021 15.1193 1.74225
O 10.8995 14.0943 4.85313
O 13.2345 9.86822 4.40366
O 12.5253 11.3193 2.5797
O 14.9183 15.3837 3.03292
O 11.4146 9.52176 1.21183
O 14.2372 13.8925 0.998147
O 11.0878 12.2816 0.484319
O 13.5066 16.3802 0.806194
O 12.332 14.9501 2.62683
O 0.00601147 10.4911 2.69201
O 11.5326 16.5689 4.25522
O 14.3856 12.4028 4.31529
Si 14.8569 4.20869 5.31358
Si 2.69364 0.131885 5.59033
Si 1.09816 6.25873 9.14379
Si 3.42097 2.06691 9.35074
Si 0.973546 2.30046 7.31168
Si 3.78252 6.51852 7.60298
O 0.863597 5.14849 10.2013
O 3.13793 0.839133 10.2432
O 1.98891 2.32784 8.56952
O 4.78666 7.07614 8.70601
O 1.51024 0.961085 6.44601
O 4.41989 5.32321 6.80524
O 0.596987 3.70409 6.65662
O 3.85345 7.57029 6.39308
O 2.3394 6.10271 8.20908
O 4.56199 1.52368 8.24177
O 1.55599 7.62335 9.71205
O 4.1949 3.22684 10.2514
Si 5.4872 4.42079 5.67068
Si 7.3871 17.4484 5.39057
Si 6.15907 6.46864 9.25103
Si 8.71185 2.29138 9.08399
Si 5.76816 1.79859 7.29198
Si 8.48442 6.35061 6.81982
O 5.84846 5.07867 10.0969
O 8.8013 0.950648 10.1963
O 7.34483 2.05592 8.1249
O 9.57223 6.72155 8.11647
O 6.41018 0.682726 6.37841
O 9.18439 5.12544 6.22263
O 5.66553 3.11303 6.37949
O 8.07543 7.56612 6.00269
O 7.1051 6.26581 8.07333
O 9.96309 2.35743 8.04043
O 6.70228 7.80908 10.1049
O 8.95353 3.49486 10.0475
Si 10.4519 4.17332 5.58925
Si 12.4864 17.2869 5.25914
Si 10.7841 6.68352 9.0485
Si 13.7523 1.91645 9.48403
Si 11.418 2.00519 7.58654
Si 13.4549 6.41972 7.03305
O 10.7297 5.32433 10.1383
O 14.0566 0.706748 10.426
O 12.2972 2.08185 8.96367
O 14.6969 6.20797 8.25771
O 11.755 0.739496 6.55271
O 13.8066 5.38741 5.80246
O 11.4616 3.38418 6.49995
O 13.4862 7.86689 6.37065
O 11.9868 6.41361 7.88486
O 14.6538 2.02515 8.07705
O 11.3748 7.93707 9.99514
O 14.0693 3.15199 10.4453
Si 0.249438 12.8786 5.39909
Si 2.54221 8.37104 5.66704
Si 0.889353 15.282 9.33097
Si 3.74022 11.012 8.94888
Si 1.45858 10.6287 7.07555
Si 3.7577 15.2859 7.63421
O 0.345504 13.863 10.1937
O 3.19886 9.58403 9.50629
O 2.56265 11.3792 7.92088
O 4.94423 15.654 8.65058
O 2.02484 9.1953 6.7769
O 4.42825 14.132 6.94196
O 0.924649 11.4924 5.80747
O 3.43922 16.4924 6.61461
O 2.33082 14.9585 8.30736
O 5.33519 10.7664 8.31382
O 1.55557 16.2481 10.3183
O 4.17436 12.0585 10.0282
Si 5.2041 13.0385 5.83984
Si 7.3555 8.84093 5.31684
Si 6.3701 15.5672 9.30195
Si 8.92466 10.7962 9.29502
Si 6.58367 11.0168 7.219
Si 8.82618 15.5774 7.36307
O 5.87809 14.084 10.1836
O 8.42197 9.89206 10.6834
O 7.8829 11.0142 8.07176
O 10.0496 16.0554 8.09208
O 6.4599 9.66854 6.32725
O 9.11243 13.9003 6.77351
O 6.30717 12.4 6.63563
O 8.51717 16.6401 6.20795
O 7.5612 15.3889 8.27717
O 10.284 10.635 8.59086
O 7.00216 16.3069 10.626
O 8.78713 12.322 9.92207
Si 9.91989 13.1673 5.65315
Si 12.4715 8.73964 5.41934
Si 11.2419 15.3359 8.93298
Si 13.8982 10.8576 8.98165
Si 11.467 10.8091 7.28633
Si 13.7258 15.0402 7.26313
O 10.7657 14.1823 9.99094
O 13.3627 9.46693 9.6429
O 12.8728 11.3912 7.80595
O 14.8665 15.666 8.24824
O 11.7544 9.59549 6.43676
O 14.5635 13.7615 6.65684
O 10.8047 11.9546 6.42067
O 13.6297 16.1168 6.06148
O 12.2948 14.6562 7.8576
O 0.216039 10.7323 8.15204
O 11.9585 16.4852 9.76996
O 13.9588 11.9329 10.2152
Si 15.098 4.27547 11.2539
Si 2.27304 17.3167 11.1865
Si 1.323 6.50443 14.5319
Si 3.99845 2.1357 14.8044
Si 1.36802 2.1066 13.1162
Si 3.75477 6.93226 12.7173
O 1.13168 5.37176 15.4384
O 3.40752 1.07622 15.8811
O 2.62372 2.46818 14.0557
O 4.8442 7.1208 13.7711
O 1.81319 0.860637 12.243
O 4.04039 5.4823 11.9262
O 1.02952 3.28779 12.1227
O 3.38509 8.16461 11.6787
O 2.3512 6.49969 13.4642
O 5.21979 1.54725 13.9044
O 1.81407 7.69123 15.6787
O 4.37164 3.67602 15.3123
Si 4.99306 4.26965 11.2101
Si 7.79068 0.138412 11.2845
Si 6.0942 6.82582 14.7528
Si 9.01678 1.99699 14.8612
Si 6.38478 1.99072 12.8884
Si 8.75943 6.37039 13.0381
O 5.86797 5.62091 15.6692
O 8.72207 0.647764 15.5894
O 7.7891 2.44742 13.8937
O 10.1936 6.51534 13.6831
O 6.63208 1.13502 11.6387
O 8.91696 5.15411 11.9582
O 5.9173 3.34834 12.2312
O 8.23408 7.44055 11.9251
O 7.47732 6.3265 14.1372
O 10.4417 1.8417 14.0407
O 6.53104 8.30376 15.5633
O 9.21859 2.97702 15.9968
Si 9.80609 4.31425 10.9946
Si 12.5221 17.1828 11.0597
Si 11.4448 6.21651 14.6158
Si 13.902 2.31246 14.7428
Si 11.3871 2.16494 12.8458
Si 13.7366 6.70359 12.7943
O 10.9568 4.80708 15.3484
O 13.3553 1.25587 15.7752
O 12.8261 2.50854 13.6088
O -0.0386667 6.99217 13.5985
O 11.545 0.777247 11.8602
O 14.0442 5.42968 11.8009
O 10.8877 3.43472 12.0652
O 13.2319 7.68977 11.8231
O 12.7937 6.10257 13.875
O 0.221489 1.87535 14.1468
O 11.67 7.41261 15.7239
O 14.1913 3.66569 15.5612
Si 14.9034 12.837 11.0825
Si 2.24654 8.80871 10.5531
Si 1.51117 15.3557 14.6103
Si 3.5865 10.9681 14.8476
Si 1.14522 10.739 12.8358
Si 3.96222 15.2257 12.8963
O 0.938717 14.0003 15.617
O 3.57162 9.49589 15.5526
O 2.23123 10.9773 14.0789
O 5.2182 15.4931 13.8171
O 1.32366 9.63507 11.6153
O 4.18214 13.8876 12.006
O 0.696018 11.995 12.082
O 3.31902 16.4912 11.9756
O 2.8433 14.9029 13.8876
O 4.85326 10.6982 13.8845
O 1.69121 16.5962 15.6019
O 4.08256 12.3289 15.5577
Si 5.02395 13.0301 10.986
Si 7.51904 8.64805 11.1136
Si 6.49292 15.5095 14.8831
Si 8.80188 10.9051 14.6572
Si 6.19073 10.7758 12.9906
Si 8.98525 15.2475 13.2051
O 5.80153 14.3235 15.6232
O 8.43431 9.82349 15.8327
O 7.54338 11.1834 13.7584
O 10.598 15.4066 13.4114
O 6.53121 9.48048 12.1332
O 9.18009 14.3114 12.0152
O 6.03715 11.9382 11.8509
O 8.47194 16.8691 12.5772
O 7.86649 15.2222 14.373
O 9.92342 10.2614 13.6385
O 6.60504 16.8178 15.9601
O 9.38251 12.2724 15.4074
Si 9.82707 13.2634 10.934
Si 12.3643 8.77558 10.8666
Si 11.7659 15.339 14.6362
Si 13.58 11.0447 14.8591
Si 11.1423 10.9455 12.8468
Si 14.132 15.2177 12.9904
O 10.9611 14.6712 15.8472
O 13.0589 9.84794 15.8538
O 12.3579 11.1724 13.7704
O 0.467006 15.9259 13.4728
O 11.6288 9.8009 11.8305
O 14.3776 13.8365 12.359
O 10.8037 12.286 11.8698
O 13.4277 16.2807 12.0111
O 13.1531 14.9251 14.1492
O 14.9005 10.6174 13.9308
O 11.8388 16.7725 15.3402
O 13.8818 12.4218 15.613
