     257
Lattice="19.6230000000 0.0000000000 0.0000000000 0.0000000000 16.9480000000 0.0000000000 0.0000000000 0.0000000000 22.0" Properties=species:S:1:pos:R:3 pbc="T T T"
 Si         2.3333747042        0.5968559483        5.9835423092
 Si         4.8480927667        4.8200990331        6.2170130881
  O         2.9742919042        1.3651739930        4.7524751410
  O         0.4260712223        5.8266481417        4.7725806210
  O         2.4849400858        3.4465956341        2.8770600494
  O        -0.0091612409        7.6880387773        2.9261399325
  O         4.1288700838        3.6835237101        5.2514026181
  O         1.7172093559        8.0015816056        5.2075467406
  O         0.6456881978        3.9159793968        1.1210446966
  O         3.0672886306        8.2141261374        1.1815543862
  O        -0.1073443465        2.3288975876        2.9836643040
  O         2.4609187809        6.6477557705        3.1621796698
 Si         1.1455019636        2.8505524696        2.0824412660
 Si         3.5695464997        7.1119067148        2.0992223405
 Si         3.6060243182        2.7365916051        4.0249380249
 Si         1.0939738024        7.0937200204        4.0655377186
 Si         6.8979868094       17.7144046750        6.0701744721
 Si         9.6301257155        4.8160671274        6.0127823510
  O         7.6316326494        1.4782343586        4.8275306169
  O         5.3012099723        6.0145360356        5.1561563254
  O         7.3941166982        3.4432045056        2.8778419021
  O         4.8941854290        7.6873902998        2.9258807394
  O         8.9483334296        3.5361137784        5.3128490966
  O         6.5460420304        8.1781870782        5.0379817971
  O         5.5552869141        3.9122293818        1.1211052635
  O         7.9772757137        8.0877836073        1.1142278691
  O         4.7340308446        2.2971804433        2.9116268215
  O         7.2331819685        6.5198489225        3.1099115291
 Si         6.0596493909        2.8461686504        2.0790016155
 Si         8.4856619334        7.0396571048        2.0888678242
 Si         8.3400607089        2.7038423654        4.0461602527
 Si         5.9618729889        6.9907906003        4.1036542713
 Si         2.4968767743        9.0635403440        6.1708492087
 Si         4.7657918526       13.3580270908        5.7982777182
  O         3.1758621625        9.9942154452        5.0100389176
  O         0.2692682150       14.2398045114        4.7561908653
  O         2.4871463289       11.9188355839        2.8740590859
  O        -0.0461545294       16.2191612974        2.9355459443
  O         3.6592305418       12.3368831243        5.2690869204
  O         1.5450569266       16.2739824141        5.3188924425
  O         0.6489505964       12.3848644544        1.1164698074
  O         3.0729843604       16.6863433025        1.1214483825
  O        -0.0561069130       11.0924491014        3.1340841498
  O         2.3204291652       15.0726111368        3.0203130182
 Si         1.1513625534       11.3198264658        2.0766694974
 Si         3.5754940473       15.6056862372        2.0654913249
 Si         3.5726893850       11.3168868184        4.0529926181
 Si         1.0610681090       15.4853897038        3.9672921198
 Si         7.2805409918        9.2003002267        6.0288184511
 Si         9.7998017230       13.4282444351        5.9626735901
  O         8.0181889277       10.2347834117        5.0122083886
  O         5.5378671859       14.0005297954        4.5393934741
  O         7.3832756534       11.9305533844        2.8662628075
  O         4.8805505457       16.2063428364        2.9230294446
  O         8.8397705187       12.6162863149        4.9149782173
  O         6.1015979193       16.4314493478        5.4191014422
  O         5.4982352145       12.3871803565        1.1189184697
  O         7.9744263315       16.6881142643        1.1800083493
  O         5.0071721868       10.8736471884        3.3521969718
  O         7.3981256249       15.2727600244        3.3111318146
 Si         6.0398172763       11.3446966603        2.0829406410
 Si         8.4769720126       15.5902904931        2.1027680157
 Si         8.4400704652       11.3320946652        3.9646477453
 Si         5.9494315299       15.4794345343        4.0458794042
  O         1.2417513468        1.4346113985        6.9937218479
  O         3.8087946196        5.5574356367        7.2730956578
  O         2.9326925082       15.4398628998        9.3246902258
  O         0.3729744101        2.7247717791        9.1339941073
  O         2.5372887790        1.1165189279        9.3297311688
  O         0.0319015561        5.2925084220        9.4718335443
  O         1.1656881514        4.2759448054        7.0407669700
  O         3.5619966485        8.4238691194        7.3295680741
  O         0.1482578734       17.0341243286        9.1780402487
  O         2.5371317285        4.3762374518        9.3322541070
 Si         1.0815731596        1.3016476730        8.6392826688
 Si         3.6535094171        5.5379533673        8.9007283761
 Si         3.4028153488       16.8464501686        8.6705004878
 Si         1.0186914625        4.2185778022        8.7355148381
  O         6.1217256415        1.7532218464        7.1123344990
  O         8.5559056560        5.4426968273        7.1920210020
  O         7.8288664291       15.5639701837        9.2142767411
  O         5.2141506795        2.8250740742        9.3898332977
  O         7.4007911972        1.1838620580        9.3569728486
  O         5.1256615704        5.2943192832        9.5938813878
  O         6.0621444789        4.3423704093        7.2233405850
  O         8.2061272209        8.3806269992        7.0721039454
  O         4.9514356419       17.1431182569        9.1806889816
  O         7.5541896462        4.2852890746        9.4787524217
 Si         5.9031496305        1.4689236352        8.7212115770
 Si         8.4375254003        5.5695976863        8.8485088560
 Si         8.4356145951       16.9581139457        8.5986808248
 Si         6.0712515860        4.1458770919        8.8508958291
  O         1.4548524556        9.7856626742        7.1739988765
  O         3.9973422619       14.5505308698        6.7695653789
  O         3.1287609626        6.9385028543        9.4887907925
  O         0.5659331678       11.3129642553        9.3024316256
  O         2.4985307828        9.6081988982        9.5498964783
  O         0.2052401816       13.7851478467        9.2840841721
  O         0.5201317057       12.6746686030        6.8029608756
  O         3.5404589912       17.2031356120        7.0786518196
  O         0.2922439526        8.4211622218        9.0536140574
  O         2.6082577919       12.8924084776        8.3795719049
 Si         1.1409082608        9.8326785141        8.7893617560
 Si         3.6437162868       14.2223032957        8.3133522715
 Si         3.6377642942        8.4558020550        8.9591496649
 Si         0.9451610241       12.6246793140        8.3377281084
  O         6.3034719058        9.9662816440        7.0815183610
  O         8.8038040739       14.2116756563        7.0291177428
  O         7.8870672521        6.9905683539        9.4648782124
  O         5.1535265454       11.2651831065        8.9879979295
  O         7.4729725348        9.5491875685        9.3952227378
  O         4.9936141735       13.9546040765        9.2250792768
  O         5.7845828202       12.5206062308        6.8079011937
  O         8.2006092768       17.1230774789        7.0011999367
  O         5.0961800043        8.8108760231        9.5686202639
  O         7.4424202124       13.0219204032        8.9616073504
 Si         5.9547141170        9.8636428587        8.6610843577
 Si         8.5229479491       14.2132446529        8.6097530072
 Si         8.4706784334        8.3766706135        8.7373326398
 Si         5.8856184015       12.6882060887        8.4717309608
 Si        12.0924931318        0.7128637358        6.1844823759
 Si        14.5746110666        5.0216381726        6.0279239302
  O        12.7909683924        1.6166526738        5.0016356910
  O        10.2221700520        5.8299783571        4.9139972281
  O        12.2686397668        3.4402944226        2.9258121388
  O         9.7921687616        7.6740420400        2.9131413870
  O        13.7835524123        3.9667764521        5.0993518585
  O        11.4120317332        7.8569134457        5.2724221807
  O        10.3994843669        3.9086844011        1.1835459784
  O        12.8815934367        8.0893990809        1.1172290199
  O         9.7224277330        2.4397951864        3.1942819220
  O        12.1483023587        6.4256526512        2.9550048637
 Si        10.9409723671        2.8281001796        2.1064813669
 Si        13.3898739345        7.0409469315        2.0916908353
 Si        13.3057985145        2.7703489981        4.1644147186
 Si        10.9692024802        6.9797194520        3.9842181475
 Si        17.0669309434       17.6247281008        6.0576945866
 Si        19.5305863253        4.9011319433        6.0311052869
  O        17.5785145769        1.5188270555        4.7563556702
  O        15.2597172856        5.7054807180        4.7411605158
  O        17.1960761524        3.4517962013        2.8664819291
  O        14.6955012006        7.6786068680        2.9198490222
  O        18.6202741414        3.9012219884        5.1206989420
  O        16.0216201131        8.1776418854        5.1323010759
  O        15.3093453141        3.9131833885        1.1258597109
  O        17.7736547927        8.1577745986        1.1748963014
  O        14.6767279310        2.4279237273        3.1917130079
  O        17.0534729321        6.5830539323        3.0425243744
 Si        15.8514851154        2.8651351622        2.0844508699
 Si        18.2875595905        7.0842324587        2.1187160815
 Si        18.2576072510        2.7849553688        3.9629879375
 Si        15.7050403338        7.0001073725        4.0112856005
 Si        12.0661467196        9.1748007666        6.0235308264
 Si        14.5988154865       13.3044479329        6.0463139084
  O        12.5787696502        9.9397411441        4.6736027936
  O        10.6879614926       14.3527391391        5.0159095519
  O        12.2715088095       11.9299493454        2.8634534053
  O         9.8009566137       16.1727945409        2.9342796721
  O        13.9172750556       11.9470140069        5.4794889141
  O        11.0157660530       16.8328314916        5.3315173856
  O        10.4024630339       12.3861176689        1.1204577714
  O        12.8228942730       16.6269823261        1.1237594727
  O         9.6560669978       10.8118627847        3.0099354396
  O        12.2283513099       15.3093961289        3.2745811232
 Si        10.9383116737       11.3215446464        2.0635521383
 Si        13.3671334491       15.5830272442        2.0850887447
 Si        13.3454191508       11.2474918081        4.0317682054
 Si        10.9178780043       15.7412270158        4.1090014765
 Si        17.1195797295        9.0325767667        5.9004273678
 Si        19.0057007883       13.4354943416        5.8957603887
  O        17.8348844630        9.8079184904        4.6887193793
  O        14.9855870039       14.3100912540        4.8546402165
  O        17.1944140357       11.9192687836        2.8601638621
  O        14.6972621583       16.2114926135        2.8702222318
  O        18.1962278258       12.2556847778        5.2340819525
  O        16.1471833045       16.5354913596        5.3463427503
  O        15.3082093433       12.3857007544        1.1200750870
  O        17.7289836673       16.6872376294        1.1819288778
  O        14.6210284109       10.8415229940        3.1280793207
  O        17.0414390359       15.1106366005        3.2147262734
 Si        15.8472791736       11.3195425680        2.0596468744
 Si        18.2672913800       15.6077782780        2.1074787074
 Si        18.1793437748       11.2781327518        3.9279161098
 Si        15.7197633566       15.5605236298        4.1281931280
  O        11.3366522062        1.7909901430        7.1571336978
  O        13.6489348932        5.8436116271        7.1080773720
  O        12.6227987809       15.2697769785        9.2782231322
  O        10.3877623443        2.9060348150        9.4346572654
  O        12.5097630119        0.9744416149        9.4748726442
  O         9.9518355406        5.4796825475        9.5170917883
  O        10.7666846022        4.3555201462        7.1079741083
  O        13.5715696232        8.5384159881        6.5862669097
  O         9.9899881074       17.3610052218        9.0663898765
  O        12.3415117269        4.8187119129        9.2338848348
 Si        11.1113612376        1.5433322434        8.8233292593
 Si        13.5533827288        5.8381173642        8.8084603284
 Si        13.2568630564       16.6758492628        8.5761330998
 Si        10.9071064942        4.3767229405        8.7664488232
  O        16.0177515060        1.5361126535        7.1487563584
  O        18.3323077989        5.5963608544        6.9862518399
  O        17.6178074013       15.5376637165        9.4434693198
  O        15.0678529863        2.6226607535        9.3257986563
  O        17.2870216011        1.1617227540        9.4712747940
  O        14.7894985278        5.2232061178        9.5903941616
  O        15.6320978466        4.2951913821        7.1016547543
  O        18.2428329776        8.4187812745        6.8577529794
  O        14.9498983839       16.7379667579        8.9877424508
  O        17.1640264811        4.5816710672        9.2819289861
 Si        15.7585360271        1.1935025301        8.7328102063
 Si        18.2811890361        5.6448359214        8.6006568661
 Si        18.1220467049       16.9182088848        8.7898599563
 Si        15.6893457587        4.0774328126        8.7419208382
  O        11.2093674312       10.0804654612        7.0488990699
  O        13.4749395540       13.9341902429        7.1539853470
  O        13.2235695099        7.3162400834        9.3142635956
  O        10.1208005496       11.2236455903        9.3331202017
  O        12.6573737031        9.7011333633        8.9341507058
  O        10.0848199559       14.1503186063        9.3529593522
  O        10.5521257812       12.6308586744        7.2308685893
  O        13.2658806228       16.7674314549        6.9219570657
  O        10.0993436597        8.5671177489        8.8696276591
  O        12.3018378601       12.6664700532        9.2107475971
 Si        10.9885826317        9.9652025219        8.6595590918
 Si        13.3352028866       13.8879337449        8.7875849804
 Si        13.6408317832        8.5809261967        8.2773136857
 Si        10.7219552076       12.7510363191        8.8702776729
  O        16.2705492022       10.1548600848        6.7987932090
  O        18.1259316653       14.1992090873        7.0448686061
  O        17.6793652962        7.0407813735        9.2833649277
  O        15.3667513341       11.1932328818        9.1119911362
  O        17.7632560627        9.8536270997        8.9916295468
  O        14.8094227286       13.6959215488        9.5413491800
  O        15.7982242318       12.9904340402        7.1402759856
  O        18.0780400576       17.0289312310        7.1846412329
  O        15.1700483859        8.7027787242        8.8088204328
  O        17.3043264446       12.9613835229        9.4894534415
 Si        16.2146365236        9.9502556335        8.4459138801
 Si        18.2729281530       14.1405645251        8.7424181163
 Si        18.3235218793        8.4093597226        8.5180113882
 Si        15.8634406266       12.6987493538        8.7542020583
  H         0.1884502100        4.0213942600        0.5029856200
  H         5.0942002200        4.0213942600        0.5029856200
  H         9.9999502200        4.0213942600        0.5029856200
  H        14.9057002200        4.0213942600        0.5029856200
  H         2.6413252100        8.2583942600        0.5029856200
  H         7.5470752100        8.2583942600        0.5029856200
  H        12.4528252200        8.2583942600        0.5029856200
  H        17.3585752100        8.2583942600        0.5029856200
  H         0.1884502100       12.4953942600        0.5029856200
  H         5.0942002200       12.4953942600        0.5029856200
  H         9.9999502100       12.4953942600        0.5029856200
  H        14.9057002200       12.4953942600        0.5029856200
  H         2.6413252200       16.7323942600        0.5029856200
  H         7.5470752100       16.7323942600        0.5029856200
  H        12.4528252200       16.7323942600        0.5029856200
  H        17.3585752100       16.7323942600        0.5029856200
  O        10.5397467154       10.5421005258       10.4579499856
