    257
 i =       61, E =     -2915.3241363048
 Si         2.2257897786        0.6289748425        5.7622216276
 Si         4.6523932581        4.8606385219        5.7767495166
  O         2.8268220910        1.3220617766        4.4239919225
  O         0.3077622195        5.5562501322        4.4113580952
  O         2.4552003771        3.4643254317        2.9030154870
  O         0.0066058732        7.6895008941        2.8986542295
  O         3.7495026428        3.6095264267        5.2748548365
  O         1.3073342604        7.8313203574        5.2686307285
  O         0.6456881978        3.9159793968        1.1210446966
  O         3.0672886306        8.2141261374        1.1815543862
  O         0.0188051642        2.3504606265        3.1960736280
  O         2.4510115635        6.6273437720        3.2114354199
 Si         1.1455019636        2.8505524696        2.0824412660
 Si         3.5695464997        7.1119067148        2.0992223405
 Si         3.5019097394        2.7259117945        3.9387349594
 Si         1.0293545914        6.9414843165        3.9412339142
 Si         7.0780820841       17.5971264860        5.7807940157
 Si         9.5686000317        4.8761118661        5.7716906898
  O         7.6600062878        1.3456204272        4.4326474349
  O         5.2141466447        5.5753257726        4.4339594673
  O         7.3678545644        3.4652093196        2.9011447357
  O         4.9035897929        7.6952577956        2.9078989826
  O         8.6587360176        3.6194793085        5.2825392282
  O         6.2889926101        7.8357346583        5.2609351121
  O         5.5552869141        3.9122293818        1.1211052635
  O         7.9772757137        8.0877836073        1.1142278691
  O         4.9150478584        2.4148248222        3.2013316388
  O         7.3045525216        6.5579693034        3.1394753846
 Si         6.0596493909        2.8461686504        2.0790016155
 Si         8.4856619334        7.0396571048        2.0888678242
 Si         8.3915342444        2.7272249006        3.9559080785
 Si         5.9449213841        6.9485658418        3.9412127413
 Si         2.2582990067        9.0721926451        5.7154091511
 Si         4.6373214883       13.3112570978        5.7518451303
  O         2.8356642589        9.7819329802        4.3654828042
  O         0.3106579476       14.0711151251        4.3694257846
  O         2.5890454866       11.8403606513        2.7439341293
  O        -0.0039134355       16.2032083879        2.8865270046
  O         3.6181081949       12.1310002107        5.2617733284
  O         1.2968647368       16.3377718889        5.2704969247
  O         0.6489505964       12.3848644544        1.1164698074
  O         3.0729843604       16.6863433025        1.1214483825
  O         0.1331742597       10.9998397935        3.3417407949
  O         2.4546901779       15.1460630368        3.2016837867
 Si         1.1513625534       11.3198264658        2.0766694974
 Si         3.5754940473       15.6056862372        2.0654913249
 Si         3.5254092576       11.1976535125        3.9291415806
 Si         1.0314061253       15.4659859870        3.9249310374
 Si         7.2066810678        9.0882522337        5.7633550357
 Si         9.4125210801       13.4597823574        5.6899735225
  O         7.7453807882        9.8565461703        4.4310349663
  O         5.2843965347       14.0159094633        4.4321301997
  O         7.4445603131       11.9035497776        2.7458348664
  O         4.9018733691       16.1867717850        2.9053769264
  O         8.4310945664       12.2745371443        5.1951229336
  O         6.1373449088       16.3422417526        5.3326159529
  O         5.4982352145       12.3871803565        1.1189184697
  O         7.9744263315       16.6881142643        1.1800083493
  O         5.0400835977       10.9948837551        3.3555727319
  O         7.3732138511       15.2132217528        3.2840426893
 Si         6.0398172763       11.3446966603        2.0829406410
 Si         8.4769720126       15.5902904931        2.1027680157
 Si         8.3971003958       11.2630896681        3.9223726909
 Si         5.9200888774       15.4588146002        3.9777835752
  O         1.2937883934        1.5803521832        6.7098304375
  O         3.6903914036        5.7974593971        6.7112436316
  O         2.9882926609       15.5898335150        8.8673640402
  O         0.5336872019        2.8845652263        8.8633057268
  O         2.5979472354        1.2191624378        9.0144329814
  O         0.1622061301        5.4927507671        8.9377809922
  O         1.0001713380        4.3672636792        6.6722002778
  O         3.5169380809        8.5952502154        6.6467744016
  O         0.1674002002       17.1951043074        8.7697077527
  O         2.6162822033        4.5145127081        8.7884296937
 Si         1.1384297208        1.4820416917        8.3441058009
 Si         3.5816298136        5.7426113554        8.3512990213
 Si         3.5419785224       17.0263406087        8.3502608275
 Si         1.0873932912        4.3124793678        8.3120878603
  O         6.1326159183        1.5914503231        6.7247409823
  O         8.5953009498        5.8000898600        6.7085652164
  O         7.8891439884       15.6712419905        8.9295222766
  O         5.4357606570        2.9252359072        8.9278347329
  O         7.5053654630        1.2952359800        9.0127362458
  O         5.0536371727        5.5039160605        9.0072344823
  O         5.8957236591        4.3786724737        6.7217545275
  O         8.4442349493        8.6059132445        6.7143195014
  O         5.0755264047       17.2400587365        8.7997186060
  O         7.5310323395        4.5199930212        8.7952525289
 Si         6.0281337573        1.5322052254        8.3662461324
 Si         8.4985888111        5.7451817572        8.3492538960
 Si         8.4407192261       17.0942256390        8.3564987111
 Si         5.9892538230        4.3440815766        8.3608434732
  O         1.3076108242       10.0180011780        6.6515644305
  O         3.7487547137       14.3130250619        6.6885401784
  O         2.9908340912        7.1548075949        8.8595057784
  O         0.5373121815       11.3165682403        8.7993582762
  O         2.6840430535        9.7320008723        8.9293878133
  O         0.1476877180       13.9307310647        8.9323200536
  O         0.9221296302       12.8142716793        6.6361940276
  O         3.4551578188       17.0974153152        6.7175667839
  O         0.2875777790        8.6679575331        8.7737001327
  O         2.6094491787       12.9564720096        8.7062345545
 Si         1.1971323102        9.9335424094        8.2935417812
 Si         3.5866454543       14.1961821019        8.3207721632
 Si         3.6023355593        8.5509355629        8.2895607398
 Si         1.0639257795       12.7608296789        8.2687515171
  O         6.2701267908       10.0252997819        6.7179573420
  O         8.5166101635       14.3869343729        6.6975395709
  O         7.8993590969        7.1492564314        8.8652067411
  O         5.5130903242       11.3089985893        8.9337657914
  O         7.5996956578        9.7127679600        9.0086620953
  O         5.0445374576       13.9240850354        9.0019360012
  O         5.8266137612       12.7450010323        6.7212071893
  O         8.3472671400       17.1673898092        6.7214344845
  O         5.1506463155        8.6835265396        8.7252995347
  O         7.5151695308       13.0307166900        8.7824005384
 Si         6.1287921562        9.9304738316        8.3527684160
 Si         8.4427686990       14.2813273866        8.3396738690
 Si         8.5498149216        8.5549865610        8.3581280321
 Si         5.9761115993       12.7549406239        8.3563346025
 Si        12.0090065263        0.6695324254        5.8064263741
 Si        14.5003437651        4.8718674459        5.7735174348
  O        12.7131655467        1.3336220823        4.5027945718
  O        10.1835958731        5.5770260260        4.4429840414
  O        12.2804619583        3.4022322911        2.8980192480
  O         9.7448567068        7.6928548559        2.9744423671
  O        13.4960196746        3.6934987541        5.2786314961
  O        11.1042345233        7.9041249128        5.3406883282
  O        10.3994843669        3.9086844011        1.1835459784
  O        12.8815934367        8.0893990809        1.1172290199
  O         9.8294887913        2.4072412140        3.2674884890
  O        12.2657955314        6.7089007188        3.2720181333
 Si        10.9409723671        2.8281001796        2.1064813669
 Si        13.3898739345        7.0409469315        2.0916908353
 Si        13.3280835878        2.7461830740        3.9749499801
 Si        10.8433835537        7.0103882462        4.0024149034
 Si        16.8954258773       17.5337436364        5.7154138232
 Si        19.3631549866        4.8118472739        5.7356282502
  O        17.4721837355        1.2832838730        4.3582174457
  O        15.0986913472        5.5719888580        4.4370913637
  O        17.2336457189        3.4549180763        2.8281287902
  O        14.7155760022        7.6860187938        2.8963370845
  O        18.4711462332        3.5369427490        5.2611789814
  O        16.0178383229        7.9089260765        5.2784728441
  O        15.3093453141        3.9131833885        1.1258597109
  O        17.7736547927        8.1577745986        1.1748963014
  O        14.7829687268        2.4867313483        3.2877642192
  O        17.1863522336        6.6947983518        3.2771506548
 Si        15.8514851154        2.8651351622        2.0844508699
 Si        18.2875595905        7.0842324587        2.1187160815
 Si        18.2096891745        2.6760890066        3.9055021919
 Si        15.7463525112        6.9928805109        3.9645257199
 Si        12.0490130206        9.1323077599        5.8684798799
 Si        14.4251947452       13.3582557022        5.7278839905
  O        12.5722615684        9.8606737267        4.4987380080
  O        10.1113512767       14.1623860191        4.4138512959
  O        12.3499765177       11.8924283125        2.7686935666
  O         9.8546707596       16.2025461985        2.8195709718
  O        13.4849293887       12.1271773798        5.2615396800
  O        10.9667917914       16.4875929896        5.2727064811
  O        10.4024630339       12.3861176689        1.1204577714
  O        12.8228942730       16.6269823261        1.1237594727
  O         9.8997362849       11.0667348310        3.3496133073
  O        12.3333554254       15.2903338986        3.3561006335
 Si        10.9383116737       11.3215446464        2.0635521383
 Si        13.3671334491       15.5830272442        2.0850887447
 Si        13.3021952387       11.2049760585        3.9301007767
 Si        10.8380692647       15.5497781346        3.9526917726
 Si        17.0227255467        9.0932340849        5.7586977230
 Si        19.3242552386       13.3656788042        5.6999680855
  O        17.6282685182        9.7864080805        4.4195492392
  O        15.0216099943       14.0166248858        4.3620354774
  O        17.2610228595       11.8335214859        2.7523774282
  O        14.7926737076       16.1263471447        2.7639252494
  O        18.3195892858       12.1934337254        5.1980705434
  O        15.9465370173       16.2835401645        5.2678214679
  O        15.3082093433       12.3857007544        1.1200750870
  O        17.7289836673       16.6872376294        1.1819288778
  O        14.7881433599       10.9261330021        3.2825891674
  O        17.2084045130       15.1337912835        3.2787008561
 Si        15.8472791736       11.3195425680        2.0596468744
 Si        18.2672913800       15.6077782780        2.1074787074
 Si        18.2430463571       11.2063839784        3.9159488786
 Si        15.7361670219       15.4146303575        3.9097937054
  O        11.1185537291        1.6601258629        6.7527862944
  O        13.6311743667        5.8670740728        6.7299846491
  O        12.7465634900       15.5275048492        8.9298917616
  O        10.4145542218        2.9383853628        8.9389404140
  O        12.4176397663        1.2026714042        9.0794165435
  O         9.9691273381        5.5030085758        9.0102152770
  O        10.8155408409        4.4364064590        6.7283522177
  O        13.3436398663        8.5959443375        6.7164114361
  O         9.9848075205       17.2577798424        8.7880888732
  O        12.4878430456        4.5297057720        8.7825605699
 Si        10.9770775915        1.5348326150        8.3892529055
 Si        13.4854615925        5.7423617651        8.3654422952
 Si        13.3113937229       16.9710506165        8.4066005665
 Si        10.9339485448        4.3674982496        8.3608835098
  O        15.9381311161        1.5122660452        6.6627296429
  O        18.3908066796        5.7387197284        6.6630078527
  O        17.7039399201       15.5926523875        8.8545356915
  O        15.2507748327        2.8421768080        8.8640415148
  O        17.3136193783        1.2155031577        8.9375889595
  O        14.9449939877        5.4297012614        9.0138573601
  O        15.7175909887        4.3041255683        6.7063685355
  O        18.2476125875        8.5796652638        6.7107813303
  O        14.8724543660       17.1656476998        8.7868167787
  O        17.3884339776        4.4432852323        8.7808276731
 Si        15.8288519871        1.4422037536        8.3065173870
 Si        18.3020110514        5.6997957783        8.3073111315
 Si        18.2572872953       17.0153965769        8.2914851757
 Si        15.8408682598        4.2593167752        8.3412348857
  O        11.1989458768       10.0265131452        6.9347881731
  O        13.4933655625       14.3119340014        6.6846012011
  O        12.9442552825        7.1451463755        8.9367487991
  O        10.0277075038       11.4414797648        8.5840611078
  O        12.6399936831        9.7028166704        9.0794607426
  O         9.9545458901       14.0256440018        8.9259911661
  O        10.6612518453       12.8812503684        6.5768308504
  O        13.1821363951       17.0269036376        6.7747940391
  O        10.0830345241        8.6604816689        8.8525196333
  O        12.3574490615       12.8935482196        8.6351087690
 Si        11.0818332429        9.9449294865        8.6232172283
 Si        13.3555550435       14.1576451976        8.3180884705
 Si        13.5116471465        8.5496510984        8.3450992741
 Si        10.8192073318       12.8816510507        8.1845575045
  O        16.1597212392       10.1000020994        6.7079879075
  O        18.4013101178       14.3175716246        6.6541115246
  O        17.7170458215        7.1008691847        8.8575115666
  O        15.3214635807       11.3080939550        8.8677217553
  O        17.4727558664        9.7158545941        9.0088079753
  O        14.7961739789       13.8604614286        9.0080578405
  O        15.6504670211       12.8760157885        6.6873565797
  O        18.1654942803       17.0955840201        6.6507237552
  O        15.0879558976        8.6668859578        8.7095823853
  O        17.3306271947       12.9677054837        8.7166757777
 Si        16.0062587366        9.9506975723        8.3364114767
 Si        18.2956404863       14.2011679772        8.2919019978
 Si        18.3525870869        8.5137092121        8.3494293823
 Si        15.7804086838       12.7620880419        8.3144246400
  H         0.1884502100        4.0213942600        0.5029856200
  H         5.0942002200        4.0213942600        0.5029856200
  H         9.9999502200        4.0213942600        0.5029856200
  H        14.9057002200        4.0213942600        0.5029856200
  H         2.6413252100        8.2583942600        0.5029856200
  H         7.5470752100        8.2583942600        0.5029856200
  H        12.4528252200        8.2583942600        0.5029856200
  H        17.3585752100        8.2583942600        0.5029856200
  H         0.1884502100       12.4953942600        0.5029856200
  H         5.0942002200       12.4953942600        0.5029856200
  H         9.9999502100       12.4953942600        0.5029856200
  H        14.9057002200       12.4953942600        0.5029856200
  H         2.6413252200       16.7323942600        0.5029856200
  H         7.5470752100       16.7323942600        0.5029856200
  H        12.4528252200       16.7323942600        0.5029856200
  H        17.3585752100       16.7323942600        0.5029856200
  O        10.6558425727       10.9984175663        9.9292908170
