241
Lattice="19.6230000000 0.0000000000 0.0000000000 0.0000000000 16.9480000000 0.0000000000 0.0000000000 0.0000000000 22.0000000000" Properties=species:S:1:pos:R:3 pbc="T T T"
Si       2.2201986467    0.6292825821    5.7795672103
Si       4.6576953217    4.8554031534    5.7936391516
O        2.8088873890    1.3336472083    4.4416668254
O        0.3306149095    5.5614242119    4.4390920360
O        2.4559006163    3.4637282867    2.9029855388
O        0.0069303668    7.6870266489    2.9011863919
O        3.7518405019    3.6125517444    5.2759918426
O        1.3054233433    7.8518911481    5.2672485141
O        0.6456881978    3.9159793968    1.1210446966
O        3.0672886306    8.2141261374    1.1815543862
O        0.0240031462    2.3473373762    3.1974751229
O        2.4514215913    6.6283778250    3.2124462403
Si       1.1455019636    2.8505524696    2.0824412660
Si       3.5695464997    7.1119067148    2.0992223405
Si       3.4999839231    2.7255915578    3.9425321514
Si       1.0329388212    6.9487090910    3.9480825927
Si       7.0743544950   17.5938850347    5.7992209397
Si       9.5621398268    4.8746522963    5.7964016228
O        7.6615948565    1.3480143320    4.4560790380
O        5.2355290660    5.5757969664    4.4594790965
O        7.3680017915    3.4624681255    2.9061791694
O        4.9036142007    7.6911807529    2.9075361831
O        8.6571149925    3.6167018042    5.3022804754
O        6.2861702131    7.8583857864    5.2437663726
O        5.5552869141    3.9122293818    1.1211052635
O        7.9772757137    8.0877836073    1.1142278691
O        4.9132214515    2.4138326050    3.2025717277
O        7.3047829033    6.5566333588    3.1387429756
Si       6.0596493909    2.8461686504    2.0790016155
Si       8.4856619334    7.0396571048    2.0888678242
Si       8.3914543618    2.7285806503    3.9686499631
Si       5.9472431918    6.9488136403    3.9421865908
Si       2.2602539563    9.0801094398    5.7347219033
Si       4.6373848329   13.3180127011    5.7570766759
O        2.8582238090    9.7847723688    4.3910192384
O        0.3324502445   14.0723488800    4.4096670167
O        2.5907846360   11.8363557183    2.7448145761
O       -0.0232108115   16.2034825758    2.9108244463
O        3.6149539343   12.1464674562    5.2588709193
O        1.2996436084   16.3396582208    5.2735535703
O        0.6489505964   12.3848644544    1.1164698074
O        3.0729843604   16.6863433025    1.1214483825
O        0.1311413419   11.0234756613    3.3477255805
O        2.4329842252   15.1445390881    3.1789652152
Si       1.1513625534   11.3198264658    2.0766694974
Si       3.5754940473   15.6056862372    2.0654913249
Si       3.5286660056   11.2022003047    3.9338899539
Si       1.0285253394   15.4658211757    3.9325731577
Si       7.1964544645    9.0983705013    5.7780211793
Si       9.4524518854   13.4387645726    5.7331556268
O        7.7662608124    9.8603448936    4.4564873661
O        5.2851826007   14.0166442152    4.4344640240
O        7.4457983693   11.9013904630    2.7503122238
O        4.8830100138   16.1893166201    2.9282945843
O        8.4594650225   12.2773282298    5.1976318417
O        6.1360537494   16.3431527013    5.3361226237
O        5.4982352145   12.3871803565    1.1189184697
O        7.9744263315   16.6881142643    1.1800083493
O        5.0420813132   10.9949571841    3.3570779027
O        7.3702991207   15.2148733158    3.2827940989
Si       6.0398172763   11.3446966603    2.0829406410
Si       8.4769720126   15.5902904931    2.1027680157
Si       8.4036078926   11.2649111226    3.9276425714
Si       5.9184400748   15.4604578150    3.9819973946
O        1.2733126539    1.5597167402    6.7336615557
O        3.6885080913    5.7760306076    6.7371035358
O        2.9875873425   15.5864286104    8.8886896203
O        0.5319274999    2.8762768410    8.8891870451
O        2.5974316861    1.2161242512    9.0362765830
O        0.1545428648    5.4784853401    8.9663655223
O        1.0013424035    4.3659978408    6.7053189897
O        3.5025336350    8.5815908348    6.6757322383
O        0.1618723621   17.1907515229    8.8005787590
O        2.6156637499    4.4982215169    8.8240716048
Si       1.1340317833    1.4730924938    8.3689727604
Si       3.5815146991    5.7245929111    8.3775114075
Si       3.5402222448   17.0224618811    8.3692613413
Si       1.0861562448    4.3040853603    8.3430765988
O        6.1317804858    1.5882875680    6.7478702455
O        8.5927469466    5.7997018670    6.7372542196
O        7.8925970512   15.6505390766    8.9541818400
O        5.4355712552    2.9083212622    8.9518468217
O        7.5061184305    1.2862068316    9.0363642284
O        5.0530463093    5.4853247357    9.0333221091
O        5.8967186624    4.3745007784    6.7456254322
O        8.4184724617    8.5995393240    6.7397053413
O        5.0760564983   17.2220520474    8.8206966857
O        7.5302906291    4.5110858210    8.8205012984
Si       6.0286308437    1.5165445925    8.3889433172
Si       8.4943615383    5.7403082924    8.3785882730
Si       8.4365412428   17.0772094100    8.3814488679
Si       5.9891010737    4.3279111811    8.3842086597
O        1.3076130794   10.0205759741    6.6751602364
O        3.7478090587   14.3136898576    6.7000616948
O        2.9911786341    7.1380358328    8.8848919794
O        0.5400685897   11.3111530077    8.8419936930
O        2.6781599186    9.7239377954    8.9548661087
O        0.1456487617   13.9129177470    8.9818580159
O        0.9217887392   12.8108588427    6.6705823515
O        3.4524546374   17.0994604702    6.7359248089
O        0.2678870825    8.6684238502    8.7767861343
O        2.6120155875   12.9561875580    8.7305230879
Si       1.1914499368    9.9302131350    8.3167625237
Si       3.5862531222   14.1949142055    8.3330849741
Si       3.5963041814    8.5394916904    8.3186614562
Si       1.0642127275   12.7544164639    8.3036456039
O        6.2497719221   10.0219014096    6.7390543484
O        8.5619449767   14.3845038460    6.7278105490
O        7.8975320405    7.1418500647    8.9079791756
O        5.5051796975   11.3134318126    8.9440432673
O        7.5908565405    9.7131371192    9.0317922635
O        5.0487483473   13.9258095178    9.0038639127
O        5.8265181671   12.7442156359    6.7224001850
O        8.3287123831   17.1446311156    6.7469920525
O        5.1439772549    8.6825972639    8.7648766513
O        7.5184541319   13.0098647924    8.7818094314
Si       6.1173140841    9.9298484191    8.3765541203
Si       8.4594658989   14.2619050494    8.3666804794
Si       8.5284675224    8.5478965185    8.3816464872
Si       5.9767791581   12.7537829079    8.3585117205
Si      12.0098236046    0.6790483488    5.8130086943
Si      14.4921512534    4.8835221417    5.7957391375
O       12.7146515426    1.3424545704    4.5073424015
O       10.1622336963    5.5751468594    4.4617322087
O       12.2789666205    3.4050214293    2.8979885912
O        9.7439669414    7.6903509369    2.9729646775
O       13.4924666429    3.7142109723    5.2762571686
O       11.1130894316    7.8843177813    5.3175870804
O       10.3994843669    3.9086844011    1.1835459784
O       12.8815934367    8.0893990809    1.1172290199
O        9.8266759763    2.4087261200    3.2706487469
O       12.2407006221    6.6605232502    3.2285253441
Si      10.9409723671    2.8281001796    2.1064813669
Si      13.3898739345    7.0409469315    2.0916908353
Si      13.3267332026    2.7570277545    3.9790061999
Si      10.8380391492    6.9864542269    3.9876832365
Si      16.8954521096   17.5372994653    5.7486475545
Si      19.3741233094    4.8158440336    5.7573126794
O       17.4964450766    1.2857847928    4.4031712815
O       15.1203970012    5.5935005352    4.4825780030
O       17.2381729904    3.4333823318    2.8306311972
O       14.6917144391    7.6867361545    2.9215360870
O       18.4936090354    3.5413649159    5.2638241196
O       15.9937632087    7.9542118729    5.2755352438
O       15.3093453141    3.9131833885    1.1258597109
O       17.7736547927    8.1577745986    1.1748963014
O       14.7825188535    2.5067775261    3.2917186156
O       17.1800516382    6.7008189446    3.2799248034
Si      15.8514851154    2.8651351622    2.0844508699
Si      18.2875595905    7.0842324587    2.1187160815
Si      18.2196665787    2.6719273820    3.9171639230
Si      15.7470807167    7.0096635445    3.9789073020
Si      12.0373278264    9.1280550498    5.8366349568
Si      14.4125118524   13.3673919124    5.7429687156
O       12.5722407526    9.8596021586    4.4756794351
O       10.1621538525   14.1493529797    4.4645302867
O       12.3478362515   11.8954733196    2.7662119542
O        9.8596269726   16.1753971195    2.8241396461
O       13.4849732417   12.1280321207    5.2643207408
O       10.9664274325   16.5026168466    5.2714084105
O       10.4024630339   12.3861176689    1.1204577714
O       12.8228942730   16.6269823261    1.1237594727
O        9.8957425737   11.0427128283    3.3319550149
O       12.3360313695   15.2898315181    3.3563604946
Si      10.9383116737   11.3215446464    2.0635521383
Si      13.3671334491   15.5830272442    2.0850887447
Si      13.3028659071   11.2138178882    3.9283428206
Si      10.8467576778   15.5414327537    3.9680868129
Si      17.0055868457    9.1233082025    5.7739622423
Si      19.3300538992   13.3765682160    5.7353394134
O       17.6287663926    9.8139611608    4.4436919837
O       15.0002757636   14.0405012602    4.3823918225
O       17.2603872055   11.8382073583    2.7555640030
O       14.7912379420   16.1284993250    2.7630314598
O       18.3180919639   12.2161169178    5.2178692922
O       15.9445226551   16.3039948208    5.2683212886
O       15.3082093433   12.3857007544    1.1200750870
O       17.7289836673   16.6872376294    1.1819288778
O       14.7883257789   10.9452574008    3.2849248919
O       17.1982691618   15.1330289298    3.2764134024
Si      15.8472791736   11.3195425680    2.0596468744
Si      18.2672913800   15.6077782780    2.1074787074
Si      18.2432479508   11.2313937221    3.9294122628
Si      15.7322592856   15.4247000420    3.9167223340
O       11.1160039515    1.6605275790    6.7675206402
O       13.6092758598    5.8685316141    6.7506286872
O       12.7399876760   15.5465199286    8.9337680628
O       10.3945002474    2.9352649652    8.9580826331
O       12.4158462015    1.2138689411    9.0820953683
O        9.9669710194    5.5024786530    9.0360716891
O       10.8127129475    4.4375144060    6.7512607019
O       13.3187196105    8.6171804104    6.7163626466
O        9.9810764412   17.2555638956    8.8099455826
O       12.4771026167    4.5297928298    8.8087816665
Si      10.9676997242    1.5346978400    8.4036252546
Si      13.4653436412    5.7477743004    8.3851854235
Si      13.3110570932   16.9829844637    8.4116455465
Si      10.9246482307    4.3629682315    8.3847235091
O       15.9393793645    1.5156526876    6.6986852023
O       18.3921091748    5.7346665182    6.6858723111
O       17.7047014755   15.5884179863    8.9070881751
O       15.2300723165    2.8468145237    8.8911877393
O       17.3016825664    1.2152867889    8.9850423990
O       14.9255613535    5.4461941992    9.0375721923
O       15.6950763160    4.3039642672    6.7363552967
O       18.2209551588    8.5814643979    6.7214446126
O       14.8687842371   17.1675154237    8.8103861680
O       17.3682004097    4.4464949997    8.8056999118
Si      15.8233309800    1.4488494319    8.3410724618
Si      18.2964037438    5.6942842648    8.3308977348
Si      18.2457545181   17.0130016459    8.3383146285
Si      15.8187240690    4.2671429106    8.3709143507
O       11.1466298643   10.0227862745    6.8713672789
O       13.4688442572   14.3103293285    6.6967135426
O       12.9158968259    7.1536102777    8.9379352323
O       10.1347585273   11.3948554639    8.7222781815
O       12.5832401911    9.7132907386    9.0559828267
O        9.9547663107   13.9936330100    8.9779492570
O       10.6619566448   12.8334539333    6.6486360572
O       13.1840153805   17.0323255133    6.7786857242
O       10.0693579093    8.6652655850    8.8526061568
O       12.3739914937   12.9113009958    8.6861731005
Si      11.0454136476    9.9411720056    8.5478339956
Si      13.3482206615   14.1726711826    8.3335138981
Si      13.4760943674    8.5612020121    8.3465137163
Si      10.8279905377   12.8336706060    8.2637809282
O       16.1381839969   10.1217093250    6.7303726509
O       18.4244285116   14.3357538589    6.6998309973
O       17.7144245577    7.0984311140    8.8794876938
O       15.3007039588   11.3308028293    8.8894225322
O       17.4456639028    9.7133690085    9.0257853569
O       14.7994340323   13.8903728597    9.0097640329
O       15.6471452140   12.8975742659    6.6991375118
O       18.1425362592   17.0750162059    6.6992753000
O       15.0439976177    8.6935975411    8.7324238955
O       17.3266715198   12.9671312267    8.7385962151
Si      15.9785600596    9.9676892431    8.3588761269
Si      18.3001590094   14.2013910296    8.3349508996
Si      18.3303759338    8.5159208659    8.3604833879
Si      15.7747511577   12.7798185812    8.3279835866
O       10.6171439536   10.8463118861   11.9528605447
