241
Lattice="19.6230000000 0.0000000000 0.0000000000 0.0000000000 16.9480000000 0.0000000000 0.0000000000 0.0000000000 22.0000000000" Properties=species:S:1:pos:R:3 pbc="T T T"
Si       2.2229942126    0.6291287123    5.7708944189
Si       4.6550442899    4.8580208377    5.7851943341
O        2.8178547400    1.3278544924    4.4328293740
O        0.3191885645    5.5588371720    4.4252250656
O        2.4555504967    3.4640268592    2.9030005129
O        0.0067681200    7.6882637715    2.8999203107
O        3.7506715724    3.6110390855    5.2754233396
O        1.3063788018    7.8416057528    5.2679396213
O        0.6456881978    3.9159793968    1.1210446966
O        3.0672886306    8.2141261374    1.1815543862
O        0.0214041552    2.3488990013    3.1967743754
O        2.4512165774    6.6278607985    3.2119408301
Si       1.1455019636    2.8505524696    2.0824412660
Si       3.5695464997    7.1119067148    2.0992223405
Si       3.5009468313    2.7257516761    3.9406335554
Si       1.0311467063    6.9450967037    3.9446582535
Si       7.0762182895   17.5955057604    5.7900074777
Si       9.5653699292    4.8753820812    5.7840461563
O        7.6608005722    1.3468173796    4.4443632364
O        5.2248378554    5.5755613695    4.4467192819
O        7.3679281779    3.4638387226    2.9036619526
O        4.9036019968    7.6932192743    2.9077175828
O        8.6579255051    3.6180905564    5.2924098518
O        6.2875814116    7.8470602223    5.2523507423
O        5.5552869141    3.9122293818    1.1211052635
O        7.9772757137    8.0877836073    1.1142278691
O        4.9141346550    2.4143287136    3.2019516833
O        7.3046677124    6.5573013311    3.1391091801
Si       6.0596493909    2.8461686504    2.0790016155
Si       8.4856619334    7.0396571048    2.0888678242
Si       8.3914943031    2.7279027754    3.9622790208
Si       5.9460822879    6.9486897410    3.9416996661
Si       2.2592764815    9.0761510424    5.7250655272
Si       4.6373531606   13.3146348995    5.7544609031
O        2.8469440340    9.7833526745    4.3782510213
O        0.3215540961   14.0717320025    4.3895464006
O        2.5899150613   11.8383581848    2.7443743527
O       -0.0135621235   16.2033454818    2.8986757254
O        3.6165310646   12.1387338335    5.2603221239
O        1.2982541726   16.3387150548    5.2720252475
O        0.6489505964   12.3848644544    1.1164698074
O        3.0729843604   16.6863433025    1.1214483825
O        0.1321578008   11.0116577274    3.3447331877
O        2.4438372016   15.1453010624    3.1903245010
Si       1.1513625534   11.3198264658    2.0766694974
Si       3.5754940473   15.6056862372    2.0654913249
Si       3.5270376316   11.1999269086    3.9315157673
Si       1.0299657323   15.4659035814    3.9287520975
Si       7.2015677662    9.0933113675    5.7706881075
Si       9.4324864827   13.4492734650    5.7115645746
O        7.7558208003    9.8584455320    4.4437611662
O        5.2847895677   14.0162768393    4.4332971118
O        7.4451793412   11.9024701203    2.7480735451
O        4.8924416915   16.1880442025    2.9168357553
O        8.4452797945   12.2759326871    5.1963773877
O        6.1366993291   16.3426972269    5.3343692883
O        5.4982352145   12.3871803565    1.1189184697
O        7.9744263315   16.6881142643    1.1800083493
O        5.0410824554   10.9949204696    3.3563253173
O        7.3717564859   15.2140475343    3.2834183941
Si       6.0398172763   11.3446966603    2.0829406410
Si       8.4769720126   15.5902904931    2.1027680157
Si       8.4003541442   11.2640003953    3.9250076311
Si       5.9192644761   15.4596362076    3.9798904849
O        1.2835505237    1.5700344617    6.7217459966
O        3.6894497474    5.7867450024    6.7241735837
O        2.9879400017   15.5881310627    8.8780268303
O        0.5328073509    2.8804210336    8.8762463860
O        2.5976894607    1.2176433445    9.0253547822
O        0.1583744975    5.4856180536    8.9520732572
O        1.0007568707    4.3666307600    6.6887596338
O        3.5097358580    8.5884205251    6.6612533200
O        0.1646362811   17.1929279151    8.7851432559
O        2.6159729766    4.5063671125    8.8062506492
Si       1.1362307521    1.4775670928    8.3565392806
Si       3.5815722564    5.7336021333    8.3644052144
Si       3.5411003836   17.0244012449    8.3597610844
Si       1.0867747680    4.3082823640    8.3275822296
O        6.1321982020    1.5898689455    6.7363056139
O        8.5940239482    5.7998958635    6.7229097180
O        7.8908705198   15.6608905335    8.9418520583
O        5.4356659561    2.9167785847    8.9398407773
O        7.5057419468    1.2907214058    9.0245502371
O        5.0533417410    5.4946203981    9.0202782957
O        5.8962211608    4.3765866260    6.7336899799
O        8.4313537055    8.6027262843    6.7270124214
O        5.0757914515   17.2310553920    8.8102076459
O        7.5306614843    4.5155394211    8.8078769137
Si       6.0283823005    1.5243749090    8.3775947248
Si       8.4964751747    5.7427450248    8.3639210845
Si       8.4386302344   17.0857175245    8.3689737895
Si       5.9891774484    4.3359963788    8.3725260664
O        1.3076119518   10.0192885760    6.6633623335
O        3.7482818862   14.3133574598    6.6943009366
O        2.9910063626    7.1464217139    8.8721988789
O        0.5386903856   11.3138606240    8.8206759846
O        2.6811014861    9.7279693338    8.9421269610
O        0.1466682398   13.9218244059    8.9570890348
O        0.9219591847   12.8125652610    6.6533881895
O        3.4538062281   17.0984378927    6.7267457964
O        0.2777324308    8.6681906916    8.7752431335
O        2.6107323831   12.9563297838    8.7183788212
Si       1.1942911235    9.9318777722    8.3051521524
Si       3.5864492882   14.1955481537    8.3269285686
Si       3.5993198703    8.5452136267    8.3041110980
Si       1.0640692535   12.7576230714    8.2861985605
O        6.2599493564   10.0236005957    6.7285058452
O        8.5392775701   14.3857191095    6.7126750599
O        7.8984455687    7.1455532480    8.8865929584
O        5.5091350109   11.3112152010    8.9389045294
O        7.5952760991    9.7129525396    9.0202271794
O        5.0466429024   13.9249472766    9.0028999569
O        5.8265659641   12.7446083341    6.7218036872
O        8.3379897616   17.1560104624    6.7342132685
O        5.1473117852    8.6830619018    8.7450880930
O        7.5168118313   13.0202907412    8.7821049849
Si       6.1230531201    9.9301611254    8.3646612682
Si       8.4511172989   14.2716162180    8.3531771742
Si       8.5391412220    8.5514415397    8.3698872597
Si       5.9764453787   12.7543617659    8.3574231615
Si      12.0094150654    0.6742903871    5.8097175342
Si      14.4962475093    4.8776947938    5.7846282861
O       12.7139085446    1.3380383263    4.5050684866
O       10.1729147847    5.5760864427    4.4523581250
O       12.2797142894    3.4036268602    2.8980039196
O        9.7444118241    7.6916028964    2.9737035223
O       13.4942431587    3.7038548632    5.2774443323
O       11.1086619774    7.8942213471    5.3291377043
O       10.3994843669    3.9086844011    1.1835459784
O       12.8815934367    8.0893990809    1.1172290199
O        9.8280823838    2.4079836670    3.2690686180
O       12.2532480767    6.6847119845    3.2502717387
Si      10.9409723671    2.8281001796    2.1064813669
Si      13.3898739345    7.0409469315    2.0916908353
Si      13.3274083952    2.7516054143    3.9769780900
Si      10.8407113514    6.9984212366    3.9950490699
Si      16.8954389935   17.5355215509    5.7320306888
Si      19.3686391480    4.8138456538    5.7464704648
O       17.4843144060    1.2845343329    4.3806943636
O       15.1095441742    5.5827446966    4.4598346833
O       17.2359093546    3.4441502041    2.8293799937
O       14.7036452206    7.6863774741    2.9089365857
O       18.4823776343    3.5391538325    5.2625015505
O       16.0058007658    7.9315689747    5.2770040440
O       15.3093453141    3.9131833885    1.1258597109
O       17.7736547927    8.1577745986    1.1748963014
O       14.7827437901    2.4967544372    3.2897414174
O       17.1832019359    6.6978086482    3.2785377291
Si      15.8514851154    2.8651351622    2.0844508699
Si      18.2875595905    7.0842324587    2.1187160815
Si      18.2146778766    2.6740081943    3.9113330574
Si      15.7467166140    7.0012720277    3.9717165109
Si      12.0431704235    9.1301814048    5.8525574183
Si      14.4188532988   13.3628238073    5.7354263530
O       12.5722511605    9.8601379426    4.4872087216
O       10.1367525646   14.1558694994    4.4391907913
O       12.3489063846   11.8939508160    2.7674527604
O        9.8571488661   16.1889716590    2.8218553089
O       13.4849513152   12.1276047503    5.2629302104
O       10.9666096119   16.4951049181    5.2720574458
O       10.4024630339   12.3861176689    1.1204577714
O       12.8228942730   16.6269823261    1.1237594727
O        9.8977394293   11.0547238296    3.3407841611
O       12.3346933974   15.2900827084    3.3562305641
Si      10.9383116737   11.3215446464    2.0635521383
Si      13.3671334491   15.5830272442    2.0850887447
Si      13.3025305729   11.2093969733    3.9292217986
Si      10.8424134712   15.5456054442    3.9603892928
Si      17.0141561962    9.1082711437    5.7663299827
Si      19.3271545689   13.3711235101    5.7176537495
O       17.6285174554    9.8001846206    4.4316206115
O       15.0109428790   14.0285630730    4.3722136499
O       17.2607050325   11.8358644221    2.7539707156
O       14.7919558248   16.1274232348    2.7634783546
O       18.3188406248   12.2047753216    5.2079699178
O       15.9455298362   16.2937674926    5.2680713783
O       15.3082093433   12.3857007544    1.1200750870
O       17.7289836673   16.6872376294    1.1819288778
O       14.7882345694   10.9356952014    3.2837570296
O       17.2033368374   15.1334101067    3.2775571292
Si      15.8472791736   11.3195425680    2.0596468744
Si      18.2672913800   15.6077782780    2.1074787074
Si      18.2431471540   11.2188888502    3.9226805707
Si      15.7342131538   15.4196651997    3.9132580197
O       11.1172788403    1.6603267210    6.7601534673
O       13.6202251133    5.8678028435    6.7403066682
O       12.7432755830   15.5370123889    8.9318299122
O       10.4045272346    2.9368251640    8.9485115235
O       12.4167429839    1.2082701727    9.0807559559
O        9.9680491787    5.5027436144    9.0231434831
O       10.8141268942    4.4369604325    6.7398064598
O       13.3311797384    8.6065623739    6.7163870413
O        9.9829419809   17.2566718690    8.7990172279
O       12.4824728312    4.5297493009    8.7956711182
Si      10.9723886579    1.5347652275    8.3964390800
Si      13.4754026168    5.7450680327    8.3753138593
Si      13.3112254081   16.9770175401    8.4091230565
Si      10.9292983877    4.3652332405    8.3728035095
O       15.9387552403    1.5139593664    6.6807074226
O       18.3914579272    5.7366931233    6.6744400819
O       17.7043206978   15.5905351869    8.8808119333
O       15.2404235746    2.8444956659    8.8776146270
O       17.3076509724    1.2153949733    8.9613156792
O       14.9352776706    5.4379477303    9.0257147762
O       15.7063336523    4.3040449177    6.7213619161
O       18.2342838732    8.5805648309    6.7161129714
O       14.8706193016   17.1665815618    8.7986014733
O       17.3783171936    4.4448901160    8.7932637924
Si      15.8260914835    1.4455265928    8.3237949244
Si      18.2992073976    5.6970400216    8.3191044332
Si      18.2515209067   17.0141991114    8.3148999021
Si      15.8297961644    4.2632298429    8.3560746182
O       11.1727878705   10.0246497098    6.9030777260
O       13.4811049098   14.3111316650    6.6906573718
O       12.9300760542    7.1493783266    8.9373420157
O       10.0812330155   11.4181676144    8.6531696446
O       12.6116169371    9.7080537045    9.0677217847
O        9.9546561004   14.0096385059    8.9519702116
O       10.6616042451   12.8573521508    6.6127334538
O       13.1830758878   17.0296145755    6.7767398816
O       10.0761962167    8.6628736270    8.8525628951
O       12.3657202776   12.9024246077    8.6606409348
Si      11.0636234453    9.9430507460    8.5855256119
Si      13.3518878525   14.1651581901    8.3258011843
Si      13.4938707569    8.5554265553    8.3458064952
Si      10.8235989348   12.8576608284    8.2241692164
O       16.1489526181   10.1108557122    6.7191802792
O       18.4128693147   14.3266627418    6.6769712609
O       17.7157351896    7.0996501494    8.8684996302
O       15.3110837697   11.3194483921    8.8785721438
O       17.4592098846    9.7146118013    9.0172966661
O       14.7978040056   13.8754171441    9.0089109367
O       15.6488061175   12.8867950272    6.6932470457
O       18.1540152698   17.0853001130    6.6749995276
O       15.0659767576    8.6802417494    8.7210031404
O       17.3286493572   12.9674183552    8.7276359964
Si      15.9924093981    9.9591934077    8.3476438018
Si      18.2978997478   14.2012795034    8.3134264487
Si      18.3414815104    8.5148150390    8.3549563851
Si      15.7775799208   12.7709533116    8.3212041133
O       10.6364932631   10.9223647262   10.9410756808
