Atoms  # charge
 
         241  atoms
           2  atom types
 
      0.000000000000      19.623000000000  xlo xhi
      0.000000000000      16.948000000000  ylo yhi
      -20.0      40.000000000000  zlo zhi
 
Masses
 
            1   28.08500000             # Si
            2   15.99900000             # O
 
Atoms  # charge
 
1	1	0.0	2.209016382900	0.629898061400	5.814258375600
2	1	0.0	4.668299448900	4.844932416400	5.827418421600
3	2	0.0	2.773017985000	1.356818071700	4.477016631300
4	2	0.0	0.376320289500	5.571772371200	4.494559917500
5	2	0.0	2.457301094800	3.462533996600	2.902925642500
6	2	0.0	0.007579354000	7.682078158600	2.906250716800
7	2	0.0	3.756516220200	3.618602379800	5.278265854800
8	2	0.0	1.301601509000	7.893032729500	5.264484085200
9	2	0.0	0.645688197800	3.915979396800	1.121044696600
10	2	0.0	3.067288630600	8.214126137400	1.181554386200
11	2	0.0	0.034399110300	2.341090875500	3.200278112700
12	2	0.0	2.452241646900	6.630445931100	3.214467881200
13	1	0.0	1.145501963600	2.850552469600	2.082441266000
14	1	0.0	3.569546499700	7.111906714800	2.099222340500
15	1	0.0	3.496132290600	2.724951084300	3.950126535300
16	1	0.0	1.040107280700	6.963158640000	3.961779949700
17	1	0.0	7.066899316800	17.587402132100	5.836074787600
18	1	0.0	9.549219416900	4.871733156800	5.845823488900
19	2	0.0	7.664771994000	1.352802141500	4.502942244100
20	2	0.0	5.278293908700	5.576739354000	4.510518355000
21	2	0.0	7.368296245700	3.456985737400	2.916248036900
22	2	0.0	4.903663016400	7.683026667600	2.906810584000
23	2	0.0	8.653872942300	3.611146795700	5.341762969800
24	2	0.0	6.280525419000	7.903688042600	5.209428893600
25	2	0.0	5.555286914100	3.912229381800	1.121105263500
26	2	0.0	7.977275713700	8.087783607300	1.114227869100
27	2	0.0	4.909568637800	2.411848170700	3.205051905600
28	2	0.0	7.305243666700	6.553961469700	3.137278157500
29	1	0.0	6.059649390900	2.846168650400	2.079001615500
30	1	0.0	8.485661933400	7.039657104800	2.088867824200
31	1	0.0	8.391294596700	2.731292149600	3.994133732300
32	1	0.0	5.951886807200	6.949309237300	3.944134289900
33	1	0.0	2.264163855400	9.095943029100	5.773347407800
34	1	0.0	4.637511522100	13.331523907800	5.767539767200
35	2	0.0	2.903342909300	9.790451145900	4.442092106700
36	2	0.0	0.376034838400	14.074816389700	4.490149480800
37	2	0.0	2.594262934900	11.828345852300	2.746575469800
38	2	0.0	-0.061805563500	16.204030951500	2.959419329700
39	2	0.0	3.608645413100	12.177401947200	5.253066101200
40	2	0.0	1.305201351500	16.343430884500	5.279666861600
41	2	0.0	0.648950596400	12.384864454400	1.116469807400
42	2	0.0	3.072984360400	16.686343302500	1.121448382500
43	2	0.0	0.127075506200	11.070747397000	3.359695151600
44	2	0.0	2.389572319900	15.141491190700	3.133528072200
45	1	0.0	1.151362553400	11.319826465800	2.076669497400
46	1	0.0	3.575494047300	15.605686237200	2.065491324900
47	1	0.0	3.535179501700	11.211293889100	3.943386700600
48	1	0.0	1.022763767500	15.465491553200	3.947857398300
49	1	0.0	7.176001258000	9.118607036400	5.807353466600
50	1	0.0	9.532313495900	13.396729002900	5.819519835300
51	2	0.0	7.808020860900	9.867942340200	4.507392165600
52	2	0.0	5.286754732600	14.018113719000	4.439131672500
53	2	0.0	7.448274481800	11.897071833800	2.759266938700
54	2	0.0	4.845283303300	16.194406290200	2.974129900100
55	2	0.0	8.516205934700	12.282910400900	5.202649658000
56	2	0.0	6.133471430700	16.344974598600	5.343135965400
57	2	0.0	5.498235214500	12.387180356500	1.118918469700
58	2	0.0	7.974426331500	16.688114264300	1.180008349300
59	2	0.0	5.046076744200	10.995104042000	3.360088244200
60	2	0.0	7.364469659800	15.218176441700	3.280296918100
61	1	0.0	6.039817276300	11.344696660300	2.082940641000
62	1	0.0	8.476972012600	15.590290493100	2.102768015700
63	1	0.0	8.416622886100	11.268554031500	3.938182332300
64	1	0.0	5.915142469500	15.463744244500	3.990425033300
65	2	0.0	1.232361175000	1.518445854200	6.781323792200
66	2	0.0	3.684741466600	5.733173028700	6.788823344100
67	2	0.0	2.986176705800	15.579618801300	8.931340780600
68	2	0.0	0.528408096000	2.859700070300	8.940949681700
69	2	0.0	2.596400587500	1.210047877900	9.079963786100
70	2	0.0	0.139216334200	5.449954486100	9.023534582400
71	2	0.0	1.003684534500	4.363466163900	6.771556413600
72	2	0.0	3.473724743300	8.554272073500	6.733647911700
73	2	0.0	0.150816685900	17.182045953800	8.862320771700
74	2	0.0	2.614426843100	4.465639134400	8.895355427000
75	1	0.0	1.125235908400	1.455194098100	8.418706679400
76	1	0.0	3.581284470100	5.688556022600	8.429936180000
77	1	0.0	3.536709689600	17.014704426000	8.407262368900
78	1	0.0	1.083682151900	4.287297345200	8.405054075900
79	2	0.0	6.130109620700	1.581962057700	6.794128771900
80	2	0.0	8.587638940300	5.798925881000	6.794632226000
81	2	0.0	7.899503176700	15.609133248700	9.003500966900
82	2	0.0	5.435192451500	2.874491972100	8.999870999200
83	2	0.0	7.507624365500	1.268148534800	9.083620193600
84	2	0.0	5.051864582600	5.448142086000	9.085497362800
85	2	0.0	5.898708669100	4.366157387700	6.793367241600
86	2	0.0	8.366947486400	8.586791483000	6.790477021100
87	2	0.0	5.077116685500	17.186038669200	8.862652845100
88	2	0.0	7.528807208200	4.493271420500	8.870998837500
89	1	0.0	6.029625016400	1.485223326700	8.434337686800
90	1	0.0	8.485906992800	5.730561362800	8.437257027100
91	1	0.0	8.428185276100	17.043176951900	8.431349181500
92	1	0.0	5.988795575100	4.295570390100	8.430939032600
93	2	0.0	1.307617589800	10.025725566200	6.722351848300
94	2	0.0	3.745917748700	14.315019449100	6.723104727700
95	2	0.0	2.991867719800	7.104492308700	8.935664381300
96	2	0.0	0.545581406000	11.300322542500	8.927264526500
97	2	0.0	2.666393648800	9.707811641500	9.005822699500
98	2	0.0	0.141570849100	13.877291111700	9.080933940600
99	2	0.0	0.921106957100	12.804033169400	6.739358999200
100	2	0.0	3.447048274600	17.103550780200	6.772640858900
101	2	0.0	0.228505689600	8.669356484300	8.782958137600
102	2	0.0	2.617148405200	12.955618654800	8.779100154700
103	1	0.0	1.180085190000	9.923554586300	8.363204008600
104	1	0.0	3.585468458000	14.192378412800	8.357710595900
105	1	0.0	3.584241425500	8.516603945500	8.376862889000
106	1	0.0	1.064786623600	12.741590033800	8.373433777400
107	2	0.0	6.209062184700	10.015104664900	6.781248361200
108	2	0.0	8.652614603000	14.379642792300	6.788352505100
109	2	0.0	7.893877927800	7.127037331300	8.993524044700
110	2	0.0	5.489358444200	11.322298259200	8.964598219200
111	2	0.0	7.573178305800	9.713875437600	9.078052599800
112	2	0.0	5.057170126600	13.929258482500	9.007719735600
113	2	0.0	5.826326978800	12.742644843000	6.724786176400
114	2	0.0	8.291602869300	17.099113728400	6.798107188400
115	2	0.0	5.130639133700	8.680738712500	8.844030884600
116	2	0.0	7.525023334000	12.968160997200	8.780627217400
117	1	0.0	6.094357939800	9.928597594100	8.424125529000
118	1	0.0	8.492860298600	14.223060375000	8.420693700100
119	1	0.0	8.485772723900	8.533716433500	8.428683397500
120	1	0.0	5.978114275800	12.751467475800	8.362865956500
121	1	0.0	12.011457761200	0.698080195600	5.826173334600
122	1	0.0	14.475766230100	4.906831533300	5.840182542900
123	2	0.0	12.717623534400	1.360119546500	4.516438060900
124	2	0.0	10.119509342800	5.571388526200	4.499228543300
125	2	0.0	12.275975944800	3.410599705700	2.897927277700
126	2	0.0	9.742187410500	7.685343099000	2.970009298300
127	2	0.0	13.485360579400	3.755635408700	5.271508513500
128	2	0.0	11.130799248100	7.844703518300	5.271384584800
129	2	0.0	10.399484366900	3.908684401100	1.183545978400
130	2	0.0	12.881593436700	8.089399080900	1.117229019900
131	2	0.0	9.821050346400	2.411695932100	3.276969262700
132	2	0.0	12.190510803400	6.563768312900	3.141539765800
133	1	0.0	10.940972367100	2.828100179600	2.106481366900
134	1	0.0	13.389873934500	7.040946931500	2.091690835300
135	1	0.0	13.324032432100	2.778717115500	3.987118639600
136	1	0.0	10.827350340100	6.938586188400	3.958219902700
137	1	0.0	16.895504574300	17.544411123200	5.815115017000
138	1	0.0	19.396059954900	4.823837553100	5.800681537700
139	2	0.0	17.544967758700	1.290786632500	4.493078953100
140	2	0.0	15.163808309300	5.636523889500	4.573551281500
141	2	0.0	17.247227533300	3.390310842900	2.835636011200
142	2	0.0	14.643991312800	7.688170875800	2.971934091900
143	2	0.0	18.538534639800	3.550209249700	5.269114396000
144	2	0.0	15.945612980300	8.044783465700	5.269660043200
145	2	0.0	15.309345314100	3.913183388500	1.125859710900
146	2	0.0	17.773654792700	8.157774598600	1.174896301400
147	2	0.0	14.781619106800	2.546869881700	3.299627408400
148	2	0.0	17.167450447300	6.712860130200	3.285473100600
149	1	0.0	15.851485115400	2.865135162200	2.084450869900
150	1	0.0	18.287559590500	7.084232458700	2.118716081500
151	1	0.0	18.239621387000	2.663604132700	3.940487385100
152	1	0.0	15.748537127800	7.043229611600	4.007670466100
153	1	0.0	12.013957437900	9.119549629600	5.772945110500
154	1	0.0	14.387146066900	13.385664332700	5.773138165700
155	2	0.0	12.572199121100	9.857459022300	4.429562289400
156	2	0.0	10.263759004000	14.123286900800	4.565888268300
157	2	0.0	12.343555719000	11.901563333700	2.761248729300
158	2	0.0	9.869539398600	16.121098961400	2.833276994600
159	2	0.0	13.485060947800	12.129741602500	5.269882862500
160	2	0.0	10.965698714600	16.532664560500	5.268812269200
161	2	0.0	10.402463033900	12.386117668900	1.120457771400
162	2	0.0	12.822894273000	16.626982326100	1.123759472700
163	2	0.0	9.887755151200	10.994668822900	3.296638430200
164	2	0.0	12.341383257600	15.288826757100	3.356880216800
165	1	0.0	10.938311673700	11.321544646400	2.063552138300
166	1	0.0	13.367133449100	15.583027244200	2.085088744700
167	1	0.0	13.304207243800	11.231501547600	3.924826908400
168	1	0.0	10.864134504000	15.524741991900	3.998876893600
169	1	0.0	16.971309443600	9.183456437600	5.804491280900
170	1	0.0	19.341651220400	13.398347039700	5.806082069200
171	2	0.0	17.629762141400	9.869067321400	4.491977472700
172	2	0.0	14.957607302300	14.088254008900	4.423104512600
173	2	0.0	17.259115897600	11.847579103200	2.761937152700
174	2	0.0	14.788366410800	16.132803685500	2.761243880500
175	2	0.0	18.315097320000	12.261483302600	5.257466789900
176	2	0.0	15.940493930600	16.344904133300	5.269320930100
177	2	0.0	15.308209343300	12.385700754400	1.120075087000
178	2	0.0	17.728983667300	16.687237629400	1.181928877800
179	2	0.0	14.788690616800	10.983506198100	3.289596340900
180	2	0.0	17.177998459400	15.131504222400	3.271838495000
181	1	0.0	15.847279173600	11.319542568000	2.059646874400
182	1	0.0	18.267291380000	15.607778278000	2.107478707400
183	1	0.0	18.243651138300	11.281413209400	3.956339031300
184	1	0.0	15.724443813100	15.444839410900	3.930579591200
185	2	0.0	11.110904396400	1.661331011300	6.796989331700
186	2	0.0	13.565478846100	5.871446696700	6.791916763500
187	2	0.0	12.726836047900	15.584550087400	8.941520665200
188	2	0.0	10.354392298600	2.929024170000	8.996367071300
189	2	0.0	12.412259071900	1.236264015000	9.087453017800
190	2	0.0	9.962658381900	5.501418807300	9.087784513400
191	2	0.0	10.807057160700	4.439730300000	6.797077670300
192	2	0.0	13.268879098900	8.659652556100	6.716265067600
193	2	0.0	9.973614282600	17.251132001900	8.853659001400
194	2	0.0	12.455621759000	4.529966945500	8.861223859800
195	1	0.0	10.948943989600	1.534428289900	8.432369952800
196	1	0.0	13.425107738500	5.758599370900	8.424671680000
197	1	0.0	13.310383833900	17.006852158100	8.421735506400
198	1	0.0	10.906047602400	4.353908195200	8.432403507800
199	2	0.0	15.941875861300	1.522425972400	6.770596321000
200	2	0.0	18.394714165100	5.726560097900	6.731601227800
201	2	0.0	17.706224586200	15.579949184000	9.012193142200
202	2	0.0	15.188667284000	2.856089955100	8.945480188200
203	2	0.0	17.277808942600	1.214854051400	9.079949277900
204	2	0.0	14.886696085100	5.479180074900	9.085001856700
205	2	0.0	15.650046970500	4.303641664900	6.796328819000
206	2	0.0	18.167640301400	8.585062666100	6.742771177100
207	2	0.0	14.861443979300	17.171250871600	8.857524946500
208	2	0.0	17.327733273900	4.452914534400	8.855444389200
209	1	0.0	15.812288965700	1.462140788600	8.410182611300
210	1	0.0	18.285189128700	5.683261237900	8.378070941500
211	1	0.0	18.222688963600	17.008211783800	8.431973534000
212	1	0.0	15.774435687300	4.282795181500	8.430273280800
213	2	0.0	11.041997839200	10.015332533000	6.744525490500
214	2	0.0	13.419801646500	14.307119982800	6.720938225600
215	2	0.0	12.859179912700	7.170538082100	8.940308098800
216	2	0.0	10.348860574300	11.301606862100	8.998712328800
217	2	0.0	12.469733207100	9.734238875000	9.009026994900
218	2	0.0	9.955207151800	13.929611026400	9.081865438900
219	2	0.0	10.663366243800	12.737861063100	6.792246470800
220	2	0.0	13.187773351200	17.043169264800	6.786469094300
221	2	0.0	10.042004679800	8.674833417300	8.852779203900
222	2	0.0	12.407076358000	12.946806548300	8.788301763500
223	1	0.0	10.972574457000	9.933657043700	8.397067530100
224	1	0.0	13.333551897400	14.202723152600	8.364364753300
225	1	0.0	13.404988809100	8.584303839600	8.349342600700
226	1	0.0	10.845556949600	12.737709716700	8.422227775600
227	2	0.0	16.095109512400	10.165123776100	6.775142137600
228	2	0.0	18.470665299300	14.372118327600	6.791269942600
229	2	0.0	17.709182030100	7.093554972700	8.923439948300
230	2	0.0	15.259184714900	11.376220577800	8.932824086100
231	2	0.0	17.391479975600	9.708397837400	9.059740120100
232	2	0.0	14.805954139200	13.950195721800	9.013176417800
233	2	0.0	15.640501599700	12.940691220800	6.722699375900
234	2	0.0	18.096620217100	17.033880577600	6.796378389600
235	2	0.0	14.956081057800	8.747020707600	8.778106916000
236	2	0.0	17.318760169900	12.965982712600	8.782437089900
237	1	0.0	15.923162705600	10.001672584600	8.403805427200
238	1	0.0	18.309196055500	14.201837134300	8.421048703100
239	1	0.0	18.285953627700	8.520344173400	8.382591399000
240	1	0.0	15.763436105600	12.815279659900	8.355101479800
241	2	0.0	10.539746715400	10.542100525800	16.000000000000
