Atoms  # charge
 
         241  atoms
           2  atom types
 
      0.000000000000      19.623000000000  xlo xhi
      0.000000000000      16.948000000000  ylo yhi
      -20.0      40.000000000000  zlo zhi
 
Masses
 
            1   28.08500000             # Si
            2   15.99900000             # O
 
Atoms  # charge
 
1	1	0.0	2.220198646700	0.629282582100	5.779567210300
2	1	0.0	4.657695321700	4.855403153400	5.793639151600
3	2	0.0	2.808887389000	1.333647208300	4.441666825400
4	2	0.0	0.330614909500	5.561424211900	4.439092036000
5	2	0.0	2.455900616300	3.463728286700	2.902985538800
6	2	0.0	0.006930366800	7.687026648900	2.901186391900
7	2	0.0	3.751840501900	3.612551744400	5.275991842600
8	2	0.0	1.305423343300	7.851891148100	5.267248514100
9	2	0.0	0.645688197800	3.915979396800	1.121044696600
10	2	0.0	3.067288630600	8.214126137400	1.181554386200
11	2	0.0	0.024003146200	2.347337376200	3.197475122900
12	2	0.0	2.451421591300	6.628377825000	3.212446240300
13	1	0.0	1.145501963600	2.850552469600	2.082441266000
14	1	0.0	3.569546499700	7.111906714800	2.099222340500
15	1	0.0	3.499983923100	2.725591557800	3.942532151400
16	1	0.0	1.032938821200	6.948709091000	3.948082592700
17	1	0.0	7.074354495000	17.593885034700	5.799220939700
18	1	0.0	9.562139826800	4.874652296300	5.796401622800
19	2	0.0	7.661594856500	1.348014332000	4.456079038000
20	2	0.0	5.235529066000	5.575796966400	4.459479096500
21	2	0.0	7.368001791500	3.462468125500	2.906179169400
22	2	0.0	4.903614200700	7.691180752900	2.907536183100
23	2	0.0	8.657114992500	3.616701804200	5.302280475400
24	2	0.0	6.286170213100	7.858385786400	5.243766372600
25	2	0.0	5.555286914100	3.912229381800	1.121105263500
26	2	0.0	7.977275713700	8.087783607300	1.114227869100
27	2	0.0	4.913221451500	2.413832605000	3.202571727700
28	2	0.0	7.304782903300	6.556633358800	3.138742975600
29	1	0.0	6.059649390900	2.846168650400	2.079001615500
30	1	0.0	8.485661933400	7.039657104800	2.088867824200
31	1	0.0	8.391454361800	2.728580650300	3.968649963100
32	1	0.0	5.947243191800	6.948813640300	3.942186590800
33	1	0.0	2.260253956300	9.080109439800	5.734721903300
34	1	0.0	4.637384832900	13.318012701100	5.757076675900
35	2	0.0	2.858223809000	9.784772368800	4.391019238400
36	2	0.0	0.332450244500	14.072348880000	4.409667016700
37	2	0.0	2.590784636000	11.836355718300	2.744814576100
38	2	0.0	-0.023210811500	16.203482575800	2.910824446300
39	2	0.0	3.614953934300	12.146467456200	5.258870919300
40	2	0.0	1.299643608400	16.339658220800	5.273553570300
41	2	0.0	0.648950596400	12.384864454400	1.116469807400
42	2	0.0	3.072984360400	16.686343302500	1.121448382500
43	2	0.0	0.131141341900	11.023475661300	3.347725580500
44	2	0.0	2.432984225200	15.144539088100	3.178965215200
45	1	0.0	1.151362553400	11.319826465800	2.076669497400
46	1	0.0	3.575494047300	15.605686237200	2.065491324900
47	1	0.0	3.528666005600	11.202200304700	3.933889953900
48	1	0.0	1.028525339400	15.465821175700	3.932573157700
49	1	0.0	7.196454464500	9.098370501300	5.778021179300
50	1	0.0	9.452451885400	13.438764572600	5.733155626800
51	2	0.0	7.766260812400	9.860344893600	4.456487366100
52	2	0.0	5.285182600700	14.016644215200	4.434464024000
53	2	0.0	7.445798369300	11.901390463000	2.750312223800
54	2	0.0	4.883010013800	16.189316620100	2.928294584300
55	2	0.0	8.459465022500	12.277328229800	5.197631841700
56	2	0.0	6.136053749400	16.343152701300	5.336122623700
57	2	0.0	5.498235214500	12.387180356500	1.118918469700
58	2	0.0	7.974426331500	16.688114264300	1.180008349300
59	2	0.0	5.042081313200	10.994957184100	3.357077902700
60	2	0.0	7.370299120700	15.214873315800	3.282794098900
61	1	0.0	6.039817276300	11.344696660300	2.082940641000
62	1	0.0	8.476972012600	15.590290493100	2.102768015700
63	1	0.0	8.403607892600	11.264911122600	3.927642571400
64	1	0.0	5.918440074800	15.460457815000	3.981997394600
65	2	0.0	1.273312653900	1.559716740200	6.733661555700
66	2	0.0	3.688508091300	5.776030607600	6.737103535800
67	2	0.0	2.987587342500	15.586428610400	8.888689620300
68	2	0.0	0.531927499900	2.876276841000	8.889187045100
69	2	0.0	2.597431686100	1.216124251200	9.036276583000
70	2	0.0	0.154542864800	5.478485340100	8.966365522300
71	2	0.0	1.001342403500	4.365997840800	6.705318989700
72	2	0.0	3.502533635000	8.581590834800	6.675732238300
73	2	0.0	0.161872362100	17.190751522900	8.800578759000
74	2	0.0	2.615663749900	4.498221516900	8.824071604800
75	1	0.0	1.134031783300	1.473092493800	8.368972760400
76	1	0.0	3.581514699100	5.724592911100	8.377511407500
77	1	0.0	3.540222244800	17.022461881100	8.369261341300
78	1	0.0	1.086156244800	4.304085360300	8.343076598800
79	2	0.0	6.131780485800	1.588287568000	6.747870245500
80	2	0.0	8.592746946600	5.799701867000	6.737254219600
81	2	0.0	7.892597051200	15.650539076600	8.954181840000
82	2	0.0	5.435571255200	2.908321262200	8.951846821700
83	2	0.0	7.506118430500	1.286206831600	9.036364228400
84	2	0.0	5.053046309300	5.485324735700	9.033322109100
85	2	0.0	5.896718662400	4.374500778400	6.745625432200
86	2	0.0	8.418472461700	8.599539324000	6.739705341300
87	2	0.0	5.076056498300	17.222052047400	8.820696685700
88	2	0.0	7.530290629100	4.511085821000	8.820501298400
89	1	0.0	6.028630843700	1.516544592500	8.388943317200
90	1	0.0	8.494361538300	5.740308292400	8.378588273000
91	1	0.0	8.436541242800	17.077209410000	8.381448867900
92	1	0.0	5.989101073700	4.327911181100	8.384208659700
93	2	0.0	1.307613079400	10.020575974100	6.675160236400
94	2	0.0	3.747809058700	14.313689857600	6.700061694800
95	2	0.0	2.991178634100	7.138035832800	8.884891979400
96	2	0.0	0.540068589700	11.311153007700	8.841993693000
97	2	0.0	2.678159918600	9.723937795400	8.954866108700
98	2	0.0	0.145648761700	13.912917747000	8.981858015900
99	2	0.0	0.921788739200	12.810858842700	6.670582351500
100	2	0.0	3.452454637400	17.099460470200	6.735924808900
101	2	0.0	0.267887082500	8.668423850200	8.776786134300
102	2	0.0	2.612015587500	12.956187558000	8.730523087900
103	1	0.0	1.191449936800	9.930213135000	8.316762523700
104	1	0.0	3.586253122200	14.194914205500	8.333084974100
105	1	0.0	3.596304181400	8.539491690400	8.318661456200
106	1	0.0	1.064212727500	12.754416463900	8.303645603900
107	2	0.0	6.249771922100	10.021901409600	6.739054348400
108	2	0.0	8.561944976700	14.384503846000	6.727810549000
109	2	0.0	7.897532040500	7.141850064700	8.907979175600
110	2	0.0	5.505179697500	11.313431812600	8.944043267300
111	2	0.0	7.590856540500	9.713137119200	9.031792263500
112	2	0.0	5.048748347300	13.925809517800	9.003863912700
113	2	0.0	5.826518167100	12.744215635900	6.722400185000
114	2	0.0	8.328712383100	17.144631115600	6.746992052500
115	2	0.0	5.143977254900	8.682597263900	8.764876651300
116	2	0.0	7.518454131900	13.009864792400	8.781809431400
117	1	0.0	6.117314084100	9.929848419100	8.376554120300
118	1	0.0	8.459465898900	14.261905049400	8.366680479400
119	1	0.0	8.528467522400	8.547896518500	8.381646487200
120	1	0.0	5.976779158100	12.753782907900	8.358511720500
121	1	0.0	12.009823604600	0.679048348800	5.813008694300
122	1	0.0	14.492151253400	4.883522141700	5.795739137500
123	2	0.0	12.714651542600	1.342454570400	4.507342401500
124	2	0.0	10.162233696300	5.575146859400	4.461732208700
125	2	0.0	12.278966620500	3.405021429300	2.897988591200
126	2	0.0	9.743966941400	7.690350936900	2.972964677500
127	2	0.0	13.492466642900	3.714210972300	5.276257168600
128	2	0.0	11.113089431600	7.884317781300	5.317587080400
129	2	0.0	10.399484366900	3.908684401100	1.183545978400
130	2	0.0	12.881593436700	8.089399080900	1.117229019900
131	2	0.0	9.826675976300	2.408726120000	3.270648746900
132	2	0.0	12.240700622100	6.660523250200	3.228525344100
133	1	0.0	10.940972367100	2.828100179600	2.106481366900
134	1	0.0	13.389873934500	7.040946931500	2.091690835300
135	1	0.0	13.326733202600	2.757027754500	3.979006199900
136	1	0.0	10.838039149200	6.986454226900	3.987683236500
137	1	0.0	16.895452109600	17.537299465300	5.748647554500
138	1	0.0	19.374123309400	4.815844033600	5.757312679400
139	2	0.0	17.496445076600	1.285784792800	4.403171281500
140	2	0.0	15.120397001200	5.593500535200	4.482578003000
141	2	0.0	17.238172990400	3.433382331800	2.830631197200
142	2	0.0	14.691714439100	7.686736154500	2.921536087000
143	2	0.0	18.493609035400	3.541364915900	5.263824119600
144	2	0.0	15.993763208700	7.954211872900	5.275535243800
145	2	0.0	15.309345314100	3.913183388500	1.125859710900
146	2	0.0	17.773654792700	8.157774598600	1.174896301400
147	2	0.0	14.782518853500	2.506777526100	3.291718615600
148	2	0.0	17.180051638200	6.700818944600	3.279924803400
149	1	0.0	15.851485115400	2.865135162200	2.084450869900
150	1	0.0	18.287559590500	7.084232458700	2.118716081500
151	1	0.0	18.219666578700	2.671927382000	3.917163923000
152	1	0.0	15.747080716700	7.009663544500	3.978907302000
153	1	0.0	12.037327826400	9.128055049800	5.836634956800
154	1	0.0	14.412511852400	13.367391912400	5.742968715600
155	2	0.0	12.572240752600	9.859602158600	4.475679435100
156	2	0.0	10.162153852500	14.149352979700	4.464530286700
157	2	0.0	12.347836251500	11.895473319600	2.766211954200
158	2	0.0	9.859626972600	16.175397119500	2.824139646100
159	2	0.0	13.484973241700	12.128032120700	5.264320740800
160	2	0.0	10.966427432500	16.502616846600	5.271408410500
161	2	0.0	10.402463033900	12.386117668900	1.120457771400
162	2	0.0	12.822894273000	16.626982326100	1.123759472700
163	2	0.0	9.895742573700	11.042712828300	3.331955014900
164	2	0.0	12.336031369500	15.289831518100	3.356360494600
165	1	0.0	10.938311673700	11.321544646400	2.063552138300
166	1	0.0	13.367133449100	15.583027244200	2.085088744700
167	1	0.0	13.302865907100	11.213817888200	3.928342820600
168	1	0.0	10.846757677800	15.541432753700	3.968086812900
169	1	0.0	17.005586845700	9.123308202500	5.773962242300
170	1	0.0	19.330053899200	13.376568216000	5.735339413400
171	2	0.0	17.628766392600	9.813961160800	4.443691983700
172	2	0.0	15.000275763600	14.040501260200	4.382391822500
173	2	0.0	17.260387205500	11.838207358300	2.755564003000
174	2	0.0	14.791237942000	16.128499325000	2.763031459800
175	2	0.0	18.318091963900	12.216116917800	5.217869292200
176	2	0.0	15.944522655100	16.303994820800	5.268321288600
177	2	0.0	15.308209343300	12.385700754400	1.120075087000
178	2	0.0	17.728983667300	16.687237629400	1.181928877800
179	2	0.0	14.788325778900	10.945257400800	3.284924891900
180	2	0.0	17.198269161800	15.133028929800	3.276413402400
181	1	0.0	15.847279173600	11.319542568000	2.059646874400
182	1	0.0	18.267291380000	15.607778278000	2.107478707400
183	1	0.0	18.243247950800	11.231393722100	3.929412262800
184	1	0.0	15.732259285600	15.424700042000	3.916722334000
185	2	0.0	11.116003951500	1.660527579000	6.767520640200
186	2	0.0	13.609275859800	5.868531614100	6.750628687200
187	2	0.0	12.739987676000	15.546519928600	8.933768062800
188	2	0.0	10.394500247400	2.935264965200	8.958082633100
189	2	0.0	12.415846201500	1.213868941100	9.082095368300
190	2	0.0	9.966971019400	5.502478653000	9.036071689100
191	2	0.0	10.812712947500	4.437514406000	6.751260701900
192	2	0.0	13.318719610500	8.617180410400	6.716362646600
193	2	0.0	9.981076441200	17.255563895600	8.809945582600
194	2	0.0	12.477102616700	4.529792829800	8.808781666500
195	1	0.0	10.967699724200	1.534697840000	8.403625254600
196	1	0.0	13.465343641200	5.747774300400	8.385185423500
197	1	0.0	13.311057093200	16.982984463700	8.411645546500
198	1	0.0	10.924648230700	4.362968231500	8.384723509100
199	2	0.0	15.939379364500	1.515652687600	6.698685202300
200	2	0.0	18.392109174800	5.734666518200	6.685872311100
201	2	0.0	17.704701475500	15.588417986300	8.907088175100
202	2	0.0	15.230072316500	2.846814523700	8.891187739300
203	2	0.0	17.301682566400	1.215286788900	8.985042399000
204	2	0.0	14.925561353500	5.446194199200	9.037572192300
205	2	0.0	15.695076316000	4.303964267200	6.736355296700
206	2	0.0	18.220955158800	8.581464397900	6.721444612600
207	2	0.0	14.868784237100	17.167515423700	8.810386168000
208	2	0.0	17.368200409700	4.446494999700	8.805699911800
209	1	0.0	15.823330980000	1.448849431900	8.341072461800
210	1	0.0	18.296403743800	5.694284264800	8.330897734800
211	1	0.0	18.245754518100	17.013001645900	8.338314628500
212	1	0.0	15.818724069000	4.267142910600	8.370914350700
213	2	0.0	11.146629864300	10.022786274500	6.871367278900
214	2	0.0	13.468844257200	14.310329328500	6.696713542600
215	2	0.0	12.915896825900	7.153610277700	8.937935232300
216	2	0.0	10.134758527300	11.394855463900	8.722278181500
217	2	0.0	12.583240191100	9.713290738600	9.055982826700
218	2	0.0	9.954766310700	13.993633010000	8.977949257000
219	2	0.0	10.661956644800	12.833453933300	6.648636057200
220	2	0.0	13.184015380500	17.032325513300	6.778685724200
221	2	0.0	10.069357909300	8.665265585000	8.852606156800
222	2	0.0	12.373991493700	12.911300995800	8.686173100500
223	1	0.0	11.045413647600	9.941172005600	8.547833995600
224	1	0.0	13.348220661500	14.172671182600	8.333513898100
225	1	0.0	13.476094367400	8.561202012100	8.346513716300
226	1	0.0	10.827990537700	12.833670606000	8.263780928200
227	2	0.0	16.138183996900	10.121709325000	6.730372650900
228	2	0.0	18.424428511600	14.335753858900	6.699830997300
229	2	0.0	17.714424557700	7.098431114000	8.879487693800
230	2	0.0	15.300703958800	11.330802829300	8.889422532200
231	2	0.0	17.445663902800	9.713369008500	9.025785356900
232	2	0.0	14.799434032300	13.890372859700	9.009764032900
233	2	0.0	15.647145214000	12.897574265900	6.699137511800
234	2	0.0	18.142536259200	17.075016205900	6.699275300000
235	2	0.0	15.043997617700	8.693597541100	8.732423895500
236	2	0.0	17.326671519800	12.967131226700	8.738596215100
237	1	0.0	15.978560059600	9.967689243100	8.358876126900
238	1	0.0	18.300159009400	14.201391029600	8.334950899600
239	1	0.0	18.330375933800	8.515920865900	8.360483387900
240	1	0.0	15.774751157700	12.779818581200	8.327983586600
241	2	0.0	10.617143953600	10.846311886100	11.952860544700
