241
Lattice="19.6230000000 0.0000000000 0.0000000000 0.0000000000 16.9480000000 0.0000000000 0.0000000000 0.0000000000 22.0000000000" Properties=species:S:1:pos:R:3 pbc="T T T"
Si       2.2174030807    0.6294364519    5.7882400016
Si       4.6603463535    4.8527854691    5.8020839691
O        2.7999200380    1.3394399242    4.4505042769
O        0.3420412545    5.5640112517    4.4529590063
O        2.4562507360    3.4634297142    2.9029705647
O        0.0070926136    7.6857895263    2.9024524731
O        3.7530094315    3.6140644033    5.2765603457
O        1.3044678847    7.8621765434    5.2665574068
O        0.6456881978    3.9159793968    1.1210446966
O        3.0672886306    8.2141261374    1.1815543862
O        0.0266021372    2.3457757510    3.1981758704
O        2.4516266052    6.6288948515    3.2129516505
Si       1.1455019636    2.8505524696    2.0824412660
Si       3.5695464997    7.1119067148    2.0992223405
Si       3.4990210150    2.7254314394    3.9444307474
Si       1.0347309360    6.9523214783    3.9515069320
Si       7.0724907005   17.5922643091    5.8084344017
Si       9.5589097243    4.8739225114    5.8087570893
O        7.6623891409    1.3492112843    4.4677948395
O        5.2462202767    5.5760325633    4.4722389112
O        7.3680754050    3.4610975285    2.9086963863
O        4.9036264046    7.6891422316    2.9073547833
O        8.6563044800    3.6153130521    5.3121510990
O        6.2847590145    7.8697113505    5.2351820029
O        5.5552869141    3.9122293818    1.1211052635
O        7.9772757137    8.0877836073    1.1142278691
O        4.9123082481    2.4133364964    3.2031917722
O        7.3048980941    6.5559653865    3.1383767710
Si       6.0596493909    2.8461686504    2.0790016155
Si       8.4856619334    7.0396571048    2.0888678242
Si       8.3914144205    2.7292585251    3.9750209054
Si       5.9484040956    6.9489375396    3.9426735156
Si       2.2612314311    9.0840678371    5.7443782795
Si       4.6374165052   13.3213905028    5.7596924488
O        2.8695035841    9.7861920631    4.4037874554
O        0.3433463930   14.0729657574    4.4297876327
O        2.5916542107   11.8343532518    2.7452547995
O       -0.0328594995   16.2036196697    2.9229731672
O        3.6133768040   12.1542010789    5.2574197148
O        1.3010330441   16.3406013867    5.2750818932
O        0.6489505964   12.3848644544    1.1164698074
O        3.0729843604   16.6863433025    1.1214483825
O        0.1301248829   11.0352935952    3.3507179733
O        2.4221312489   15.1437771137    3.1676059294
Si       1.1513625534   11.3198264658    2.0766694974
Si       3.5754940473   15.6056862372    2.0654913249
Si       3.5302943796   11.2044737008    3.9362641406
Si       1.0270849464   15.4657387701    3.9363942179
Si       7.1913411629    9.1034296351    5.7853542512
Si       9.4724172880   13.4282556802    5.7547466789
O        7.7767008245    9.8622442553    4.4692135659
O        5.2855756336   14.0170115912    4.4356309361
O        7.4464173975   11.9003108057    2.7525509026
O        4.8735783362   16.1905890376    2.9397534133
O        8.4736502506   12.2787237726    5.1988862958
O        6.1354081698   16.3436081756    5.3378759592
O        5.4982352145   12.3871803565    1.1189184697
O        7.9744263315   16.6881142643    1.1800083493
O        5.0430801709   10.9949938985    3.3578304881
O        7.3688417555   15.2156990973    3.2821698037
Si       6.0398172763   11.3446966603    2.0829406410
Si       8.4769720126   15.5902904931    2.1027680157
Si       8.4068616410   11.2658218498    3.9302775116
Si       5.9176156734   15.4612794223    3.9841043043
O        1.2630747842    1.5493990187    6.7455771149
O        3.6875664351    5.7653162129    6.7500334879
O        2.9872346834   15.5847261582    8.8993524104
O        0.5310476490    2.8721326483    8.9021277042
O        2.5971739114    1.2146051578    9.0471983838
O        0.1507112322    5.4713526266    8.9806577873
O        1.0019279362    4.3653649216    6.7218783457
O        3.4953314121    8.5747611445    6.6902111567
O        0.1591084430   17.1885751306    8.8160142622
O        2.6153545232    4.4900759212    8.8418925604
Si       1.1318328146    1.4686178949    8.3814062401
Si       3.5814571419    5.7155836890    8.3906176006
Si       3.5393441060   17.0205225174    8.3787615982
Si       1.0855377215    4.2998883565    8.3585709681
O        6.1313627695    1.5867061904    6.7594348771
O        8.5914699451    5.7995078705    6.7515987212
O        7.8943235825   15.6401876196    8.9665116218
O        5.4354765543    2.8998639396    8.9638528661
O        7.5064949143    1.2816922574    9.0481782197
O        5.0527508777    5.4760290733    9.0463659225
O        5.8972161641    4.3724149307    6.7575608846
O        8.4055912179    8.5963523638    6.7523982613
O        5.0763215451   17.2130487028    8.8311857256
O        7.5299197739    4.5066322209    8.8331256832
Si       6.0288793868    1.5087142761    8.4002919096
Si       8.4922479019    5.7378715600    8.3932554615
Si       8.4344522511   17.0687012955    8.3939239463
Si       5.9890246991    4.3198259834    8.3958912529
O        1.3076142070   10.0218633721    6.6869581394
O        3.7473362312   14.3140222555    6.7058224531
O        2.9913509055    7.1296499518    8.8975850798
O        0.5414467938   11.3084453914    8.8633114013
O        2.6752183511    9.7199062569    8.9676052564
O        0.1446292835   13.9040110882    9.0066269971
O        0.9216182937   12.8091524243    6.6877765134
O        3.4511030467   17.1004830477    6.7451038214
O        0.2580417343    8.6686570087    8.7783291351
O        2.6132987920   12.9560453322    8.7426673546
Si       1.1886087501    9.9285484978    8.3283728949
Si       3.5860569562   14.1942802573    8.3392413795
Si       3.5932884924    8.5337697542    8.3332118144
Si       1.0643562015   12.7512098564    8.3210926473
O        6.2395944877   10.0202022234    6.7496028516
O        8.5846123833   14.3832885826    6.7429460380
O        7.8966185123    7.1381468813    8.9293653929
O        5.5012243842   11.3156484242    8.9491820053
O        7.5864369818    9.7133216988    9.0433573475
O        5.0508537921   13.9266717590    9.0048278684
O        5.8264703700   12.7438229377    6.7229966829
O        8.3194350046   17.1332517688    6.7597708365
O        5.1406427246    8.6821326261    8.7846652097
O        7.5200964324   12.9994388436    8.7815138779
Si       6.1115750480    9.9295357129    8.3884469725
Si       8.4678144988   14.2521938808    8.3801837845
Si       8.5177938228    8.5443514973    8.3934057148
Si       5.9771129376   12.7532040498    8.3596002795
Si      12.0102321438    0.6838063105    5.8162998543
Si      14.4880549976    4.8893494896    5.8068499888
O       12.7153945406    1.3468708144    4.5096163163
O       10.1515526080    5.5742072761    4.4711062924
O       12.2782189516    3.4064159984    2.8979732628
O        9.7435220587    7.6890989774    2.9722258327
O       13.4906901270    3.7245670814    5.2750700048
O       11.1175168857    7.8744142156    5.3060364565
O       10.3994843669    3.9086844011    1.1835459784
O       12.8815934367    8.0893990809    1.1172290199
O        9.8252695689    2.4094685730    3.2722288759
O       12.2281531674    6.6363345158    3.2067789496
Si      10.9409723671    2.8281001796    2.1064813669
Si      13.3898739345    7.0409469315    2.0916908353
Si      13.3260580099    2.7624500948    3.9810343099
Si      10.8353669469    6.9744872173    3.9803174030
Si      16.8954652258   17.5390773798    5.7652644201
Si      19.3796074708    4.8178424135    5.7681548939
O       17.5085757471    1.2870352527    4.4256481994
O       15.1312498283    5.6042563738    4.5053213226
O       17.2404366261    3.4226144596    2.8318824007
O       14.6797836575    7.6870948348    2.9341355882
O       18.5048404365    3.5435759993    5.2651466887
O       15.9817256516    7.9768547711    5.2740664436
O       15.3093453141    3.9131833885    1.1258597109
O       17.7736547927    8.1577745986    1.1748963014
O       14.7822939168    2.5168006150    3.2936958138
O       17.1769013405    6.7038292410    3.2813118777
Si      15.8514851154    2.8651351622    2.0844508699
Si      18.2875595905    7.0842324587    2.1187160815
Si      18.2246552807    2.6698465696    3.9229947885
Si      15.7474448195    7.0180550613    3.9860980930
Si      12.0314852293    9.1259286947    5.8207124952
Si      14.4061704061   13.3719600175    5.7505110781
O       12.5722303448    9.8590663745    4.4641501487
O       10.1875551403   14.1428364600    4.4898697821
O       12.3467661184   11.8969958231    2.7649711479
O        9.8621050791   16.1618225799    2.8264239832
O       13.4849951682   12.1284594912    5.2657112712
O       10.9662452530   16.5101287750    5.2707593751
O       10.4024630339   12.3861176689    1.1204577714
O       12.8228942730   16.6269823261    1.1237594727
O        9.8937457180   11.0307018270    3.3231258688
O       12.3373693415   15.2895803279    3.3564904252
Si      10.9383116737   11.3215446464    2.0635521383
Si      13.3671334491   15.5830272442    2.0850887447
Si      13.3032012413   11.2182388030    3.9274638425
Si      10.8511018844   15.5372600632    3.9757843331
Si      16.9970174951    9.1383452613    5.7815945019
Si      19.3329532295   13.3820129220    5.7530250774
O       17.6290153298    9.8277377009    4.4557633560
O       14.9896086483   14.0524394474    4.3925699950
O       17.2600693785   11.8405502945    2.7571572904
O       14.7905200592   16.1295754151    2.7625845650
O       18.3173433029   12.2274585140    5.2277686667
O       15.9435154740   16.3142221489    5.2685711990
O       15.3082093433   12.3857007544    1.1200750870
O       17.7289836673   16.6872376294    1.1819288778
O       14.7884169884   10.9548196001    3.2860927542
O       17.1932014862   15.1326477529    3.2752696755
Si      15.8472791736   11.3195425680    2.0596468744
Si      18.2672913800   15.6077782780    2.1074787074
Si      18.2433487477   11.2438985939    3.9361439550
Si      15.7303054175   15.4297348842    3.9201866483
O       11.1147290628    1.6607284371    6.7748878131
O       13.5983266064    5.8692603847    6.7609507063
O       12.7366997690   15.5560274683    8.9357062134
O       10.3844732602    2.9337047664    8.9676537427
O       12.4149494191    1.2194677096    9.0834347807
O        9.9658928600    5.5022136916    9.0489998952
O       10.8112990008    4.4380683795    6.7627149440
O       13.3062594826    8.6277984468    6.7163382518
O        9.9792109016   17.2544559222    8.8208739373
O       12.4717324023    4.5298363587    8.8218922148
Si      10.9630107906    1.5346304525    8.4108114291
Si      13.4552846655    5.7504805680    8.3950569876
Si      13.3108887784   16.9889513873    8.4141680365
Si      10.9199980736    4.3607032224    8.3966435088
O       15.9400034887    1.5173460088    6.7166629819
O       18.3927604224    5.7326399132    6.6973045403
O       17.7050822532   15.5863007857    8.9333644169
O       15.2197210584    2.8491333815    8.9047608515
O       17.2957141605    1.2151786045    9.0087691187
O       14.9158450364    5.4544406682    9.0494296084
O       15.6838189796    4.3038836166    6.7513486773
O       18.2076264444    8.5823639650    6.7267762537
O       14.8669491726   17.1684492857    8.8221708626
O       17.3580836257    4.4480998834    8.8181360312
Si      15.8205704764    1.4521722711    8.3583499992
Si      18.2936000900    5.6915285081    8.3426910365
Si      18.2399881294   17.0118041803    8.3617293549
Si      15.8076519736    4.2710559784    8.3857540832
O       11.1204718580   10.0209228391    6.8396568318
O       13.4565836045   14.3095269921    6.7027697133
O       12.9017175976    7.1578422288    8.9385284489
O       10.1882840391   11.3715433135    8.7913867183
O       12.5548634451    9.7185277727    9.0442438687
O        9.9548765210   13.9776275141    9.0039283025
O       10.6623090445   12.8095557158    6.6845386606
O       13.1849548732   17.0350364512    6.7806315667
O       10.0625196020    8.6676575431    8.8526494186
O       12.3822627097   12.9201773839    8.7117052663
Si      11.0272038500    9.9392932651    8.5101423792
Si      13.3445534705   14.1801841751    8.3412266119
Si      13.4583179778    8.5669774690    8.3472209374
Si      10.8323821407   12.8096803837    8.3033926400
O       16.1274153758   10.1325629377    6.7415650225
O       18.4359877086   14.3448449761    6.7226907336
O       17.7131139258    7.0972120787    8.8904757574
O       15.2903241478   11.3421572664    8.9002729207
O       17.4321179210    9.7121262158    9.0342740477
O       14.8010640591   13.9053285752    9.0106171291
O       15.6454843104   12.9083535046    6.7050279778
O       18.1310572487   17.0647322989    6.7235510724
O       15.0220184777    8.7069533327    8.7438446507
O       17.3246936823   12.9668440982    8.7495564338
Si      15.9647107211    9.9761850784    8.3701084519
Si      18.3024182709   14.2015025558    8.3564753505
Si      18.3192703573    8.5170266928    8.3660103907
Si      15.7719223947   12.7886838509    8.3347630599
O       10.5977946440   10.7702590461   12.9646454085
