241
Lattice="19.6230000000 0.0000000000 0.0000000000 0.0000000000 16.9480000000 0.0000000000 0.0000000000 0.0000000000 22.0000000000" Properties=species:S:1:pos:R:3 pbc="T T T"
Si       2.2090163829    0.6298980614    5.8142583756
Si       4.6682994489    4.8449324164    5.8274184216
O        2.7730179850    1.3568180717    4.4770166313
O        0.3763202895    5.5717723712    4.4945599175
O        2.4573010948    3.4625339966    2.9029256425
O        0.0075793540    7.6820781586    2.9062507168
O        3.7565162202    3.6186023798    5.2782658548
O        1.3016015090    7.8930327295    5.2644840852
O        0.6456881978    3.9159793968    1.1210446966
O        3.0672886306    8.2141261374    1.1815543862
O        0.0343991103    2.3410908755    3.2002781127
O        2.4522416469    6.6304459311    3.2144678812
Si       1.1455019636    2.8505524696    2.0824412660
Si       3.5695464997    7.1119067148    2.0992223405
Si       3.4961322906    2.7249510843    3.9501265353
Si       1.0401072807    6.9631586400    3.9617799497
Si       7.0668993168   17.5874021321    5.8360747876
Si       9.5492194169    4.8717331568    5.8458234889
O        7.6647719940    1.3528021415    4.5029422441
O        5.2782939087    5.5767393540    4.5105183550
O        7.3682962457    3.4569857374    2.9162480369
O        4.9036630164    7.6830266676    2.9068105840
O        8.6538729423    3.6111467957    5.3417629698
O        6.2805254190    7.9036880426    5.2094288936
O        5.5552869141    3.9122293818    1.1211052635
O        7.9772757137    8.0877836073    1.1142278691
O        4.9095686378    2.4118481707    3.2050519056
O        7.3052436667    6.5539614697    3.1372781575
Si       6.0596493909    2.8461686504    2.0790016155
Si       8.4856619334    7.0396571048    2.0888678242
Si       8.3912945967    2.7312921496    3.9941337323
Si       5.9518868072    6.9493092373    3.9441342899
Si       2.2641638554    9.0959430291    5.7733474078
Si       4.6375115221   13.3315239078    5.7675397672
O        2.9033429093    9.7904511459    4.4420921067
O        0.3760348384   14.0748163897    4.4901494808
O        2.5942629349   11.8283458523    2.7465754698
O       -0.0618055635   16.2040309515    2.9594193297
O        3.6086454131   12.1774019472    5.2530661012
O        1.3052013515   16.3434308845    5.2796668616
O        0.6489505964   12.3848644544    1.1164698074
O        3.0729843604   16.6863433025    1.1214483825
O        0.1270755062   11.0707473970    3.3596951516
O        2.3895723199   15.1414911907    3.1335280722
Si       1.1513625534   11.3198264658    2.0766694974
Si       3.5754940473   15.6056862372    2.0654913249
Si       3.5351795017   11.2112938891    3.9433867006
Si       1.0227637675   15.4654915532    3.9478573983
Si       7.1760012580    9.1186070364    5.8073534666
Si       9.5323134959   13.3967290029    5.8195198353
O        7.8080208609    9.8679423402    4.5073921656
O        5.2867547326   14.0181137190    4.4391316725
O        7.4482744818   11.8970718338    2.7592669387
O        4.8452833033   16.1944062902    2.9741299001
O        8.5162059347   12.2829104009    5.2026496580
O        6.1334714307   16.3449745986    5.3431359654
O        5.4982352145   12.3871803565    1.1189184697
O        7.9744263315   16.6881142643    1.1800083493
O        5.0460767442   10.9951040420    3.3600882442
O        7.3644696598   15.2181764417    3.2802969181
Si       6.0398172763   11.3446966603    2.0829406410
Si       8.4769720126   15.5902904931    2.1027680157
Si       8.4166228861   11.2685540315    3.9381823323
Si       5.9151424695   15.4637442445    3.9904250333
O        1.2323611750    1.5184458542    6.7813237922
O        3.6847414666    5.7331730287    6.7888233441
O        2.9861767058   15.5796188013    8.9313407806
O        0.5284080960    2.8597000703    8.9409496817
O        2.5964005875    1.2100478779    9.0799637861
O        0.1392163342    5.4499544861    9.0235345824
O        1.0036845345    4.3634661639    6.7715564136
O        3.4737247433    8.5542720735    6.7336479117
O        0.1508166859   17.1820459538    8.8623207717
O        2.6144268431    4.4656391344    8.8953554270
Si       1.1252359084    1.4551940981    8.4187066794
Si       3.5812844701    5.6885560226    8.4299361800
Si       3.5367096896   17.0147044260    8.4072623689
Si       1.0836821519    4.2872973452    8.4050540759
O        6.1301096207    1.5819620577    6.7941287719
O        8.5876389403    5.7989258810    6.7946322260
O        7.8995031767   15.6091332487    9.0035009669
O        5.4351924515    2.8744919721    8.9998709992
O        7.5076243655    1.2681485348    9.0836201936
O        5.0518645826    5.4481420860    9.0854973628
O        5.8987086691    4.3661573877    6.7933672416
O        8.3669474864    8.5867914830    6.7904770211
O        5.0771166855   17.1860386692    8.8626528451
O        7.5288072082    4.4932714205    8.8709988375
Si       6.0296250164    1.4852233267    8.4343376868
Si       8.4859069928    5.7305613628    8.4372570271
Si       8.4281852761   17.0431769519    8.4313491815
Si       5.9887955751    4.2955703901    8.4309390326
O        1.3076175898   10.0257255662    6.7223518483
O        3.7459177487   14.3150194491    6.7231047277
O        2.9918677198    7.1044923087    8.9356643813
O        0.5455814060   11.3003225425    8.9272645265
O        2.6663936488    9.7078116415    9.0058226995
O        0.1415708491   13.8772911117    9.0809339406
O        0.9211069571   12.8040331694    6.7393589992
O        3.4470482746   17.1035507802    6.7726408589
O        0.2285056896    8.6693564843    8.7829581376
O        2.6171484052   12.9556186548    8.7791001547
Si       1.1800851900    9.9235545863    8.3632040086
Si       3.5854684580   14.1923784128    8.3577105959
Si       3.5842414255    8.5166039455    8.3768628890
Si       1.0647866236   12.7415900338    8.3734337774
O        6.2090621847   10.0151046649    6.7812483612
O        8.6526146030   14.3796427923    6.7883525051
O        7.8938779278    7.1270373313    8.9935240447
O        5.4893584442   11.3222982592    8.9645982192
O        7.5731783058    9.7138754376    9.0780525998
O        5.0571701266   13.9292584825    9.0077197356
O        5.8263269788   12.7426448430    6.7247861764
O        8.2916028693   17.0991137284    6.7981071884
O        5.1306391337    8.6807387125    8.8440308846
O        7.5250233340   12.9681609972    8.7806272174
Si       6.0943579398    9.9285975941    8.4241255290
Si       8.4928602986   14.2230603750    8.4206937001
Si       8.4857727239    8.5337164335    8.4286833975
Si       5.9781142758   12.7514674758    8.3628659565
Si      12.0114577612    0.6980801956    5.8261733346
Si      14.4757662301    4.9068315333    5.8401825429
O       12.7176235344    1.3601195465    4.5164380609
O       10.1195093428    5.5713885262    4.4992285433
O       12.2759759448    3.4105997057    2.8979272777
O        9.7421874105    7.6853430990    2.9700092983
O       13.4853605794    3.7556354087    5.2715085135
O       11.1307992481    7.8447035183    5.2713845848
O       10.3994843669    3.9086844011    1.1835459784
O       12.8815934367    8.0893990809    1.1172290199
O        9.8210503464    2.4116959321    3.2769692627
O       12.1905108034    6.5637683129    3.1415397658
Si      10.9409723671    2.8281001796    2.1064813669
Si      13.3898739345    7.0409469315    2.0916908353
Si      13.3240324321    2.7787171155    3.9871186396
Si      10.8273503401    6.9385861884    3.9582199027
Si      16.8955045743   17.5444111232    5.8151150170
Si      19.3960599549    4.8238375531    5.8006815377
O       17.5449677587    1.2907866325    4.4930789531
O       15.1638083093    5.6365238895    4.5735512815
O       17.2472275333    3.3903108429    2.8356360112
O       14.6439913128    7.6881708758    2.9719340919
O       18.5385346398    3.5502092497    5.2691143960
O       15.9456129803    8.0447834657    5.2696600432
O       15.3093453141    3.9131833885    1.1258597109
O       17.7736547927    8.1577745986    1.1748963014
O       14.7816191068    2.5468698817    3.2996274084
O       17.1674504473    6.7128601302    3.2854731006
Si      15.8514851154    2.8651351622    2.0844508699
Si      18.2875595905    7.0842324587    2.1187160815
Si      18.2396213870    2.6636041327    3.9404873851
Si      15.7485371278    7.0432296116    4.0076704661
Si      12.0139574379    9.1195496296    5.7729451105
Si      14.3871460669   13.3856643327    5.7731381657
O       12.5721991211    9.8574590223    4.4295622894
O       10.2637590040   14.1232869008    4.5658882683
O       12.3435557190   11.9015633337    2.7612487293
O        9.8695393986   16.1210989614    2.8332769946
O       13.4850609478   12.1297416025    5.2698828625
O       10.9656987146   16.5326645605    5.2688122692
O       10.4024630339   12.3861176689    1.1204577714
O       12.8228942730   16.6269823261    1.1237594727
O        9.8877551512   10.9946688229    3.2966384302
O       12.3413832576   15.2888267571    3.3568802168
Si      10.9383116737   11.3215446464    2.0635521383
Si      13.3671334491   15.5830272442    2.0850887447
Si      13.3042072438   11.2315015476    3.9248269084
Si      10.8641345040   15.5247419919    3.9988768936
Si      16.9713094436    9.1834564376    5.8044912809
Si      19.3416512204   13.3983470397    5.8060820692
O       17.6297621414    9.8690673214    4.4919774727
O       14.9576073023   14.0882540089    4.4231045126
O       17.2591158976   11.8475791032    2.7619371527
O       14.7883664108   16.1328036855    2.7612438805
O       18.3150973200   12.2614833026    5.2574667899
O       15.9404939306   16.3449041333    5.2693209301
O       15.3082093433   12.3857007544    1.1200750870
O       17.7289836673   16.6872376294    1.1819288778
O       14.7886906168   10.9835061981    3.2895963409
O       17.1779984594   15.1315042224    3.2718384950
Si      15.8472791736   11.3195425680    2.0596468744
Si      18.2672913800   15.6077782780    2.1074787074
Si      18.2436511383   11.2814132094    3.9563390313
Si      15.7244438131   15.4448394109    3.9305795912
O       11.1109043964    1.6613310113    6.7969893317
O       13.5654788461    5.8714466967    6.7919167635
O       12.7268360479   15.5845500874    8.9415206652
O       10.3543922986    2.9290241700    8.9963670713
O       12.4122590719    1.2362640150    9.0874530178
O        9.9626583819    5.5014188073    9.0877845134
O       10.8070571607    4.4397303000    6.7970776703
O       13.2688790989    8.6596525561    6.7162650676
O        9.9736142826   17.2511320019    8.8536590014
O       12.4556217590    4.5299669455    8.8612238598
Si      10.9489439896    1.5344282899    8.4323699528
Si      13.4251077385    5.7585993709    8.4246716800
Si      13.3103838339   17.0068521581    8.4217355064
Si      10.9060476024    4.3539081952    8.4324035078
O       15.9418758613    1.5224259724    6.7705963210
O       18.3947141651    5.7265600979    6.7316012278
O       17.7062245862   15.5799491840    9.0121931422
O       15.1886672840    2.8560899551    8.9454801882
O       17.2778089426    1.2148540514    9.0799492779
O       14.8866960851    5.4791800749    9.0850018567
O       15.6500469705    4.3036416649    6.7963288190
O       18.1676403014    8.5850626661    6.7427711771
O       14.8614439793   17.1712508716    8.8575249465
O       17.3277332739    4.4529145344    8.8554443892
Si      15.8122889657    1.4621407886    8.4101826113
Si      18.2851891287    5.6832612379    8.3780709415
Si      18.2226889636   17.0082117838    8.4319735340
Si      15.7744356873    4.2827951815    8.4302732808
O       11.0419978392   10.0153325330    6.7445254905
O       13.4198016465   14.3071199828    6.7209382256
O       12.8591799127    7.1705380821    8.9403080988
O       10.3488605743   11.3016068621    8.9987123288
O       12.4697332071    9.7342388750    9.0090269949
O        9.9552071518   13.9296110264    9.0818654389
O       10.6633662438   12.7378610631    6.7922464708
O       13.1877733512   17.0431692648    6.7864690943
O       10.0420046798    8.6748334173    8.8527792039
O       12.4070763580   12.9468065483    8.7883017635
Si      10.9725744570    9.9336570437    8.3970675301
Si      13.3335518974   14.2027231526    8.3643647533
Si      13.4049888091    8.5843038396    8.3493426007
Si      10.8455569496   12.7377097167    8.4222277756
O       16.0951095124   10.1651237761    6.7751421376
O       18.4706652993   14.3721183276    6.7912699426
O       17.7091820301    7.0935549727    8.9234399483
O       15.2591847149   11.3762205778    8.9328240861
O       17.3914799756    9.7083978374    9.0597401201
O       14.8059541392   13.9501957218    9.0131764178
O       15.6405015997   12.9406912208    6.7226993759
O       18.0966202171   17.0338805776    6.7963783896
O       14.9560810578    8.7470207076    8.7781069160
O       17.3187601699   12.9659827126    8.7824370899
Si      15.9231627056   10.0016725846    8.4038054272
Si      18.3091960555   14.2018371343    8.4210487031
Si      18.2859536277    8.5203441734    8.3825913990
Si      15.7634361056   12.8152796599    8.3551014798
O       10.5397467154   10.5421005258   16.0000000000
