Atoms  # charge
 
         241  atoms
           2  atom types
 
      0.000000000000      19.623000000000  xlo xhi
      0.000000000000      16.948000000000  ylo yhi
      -20.0      40.000000000000  zlo zhi
 
Masses
 
            1   28.08500000             # Si
            2   15.99900000             # O
 
Atoms  # charge
 
1	1	0.0	2.211811948800	0.629744191600	5.805585584300
2	1	0.0	4.665648417100	4.847550100700	5.818973604100
3	2	0.0	2.781985336000	1.351025355900	4.468179179800
4	2	0.0	0.364893944500	5.569185331400	4.480692947100
5	2	0.0	2.456950975200	3.462832569100	2.902940616600
6	2	0.0	0.007417107200	7.683315281200	2.904984635600
7	2	0.0	3.755347290600	3.617089721000	5.277697351700
8	2	0.0	1.302556967600	7.882747334200	5.265175192400
9	2	0.0	0.645688197800	3.915979396800	1.121044696600
10	2	0.0	3.067288630600	8.214126137400	1.181554386200
11	2	0.0	0.031800119300	2.342652500700	3.199577365300
12	2	0.0	2.452036633000	6.629928904600	3.213962471000
13	1	0.0	1.145501963600	2.850552469600	2.082441266000
14	1	0.0	3.569546499700	7.111906714800	2.099222340500
15	1	0.0	3.497095198700	2.725111202700	3.948227939300
16	1	0.0	1.038315165800	6.959546252800	3.958355610400
17	1	0.0	7.068763111400	17.589022857700	5.826861325600
18	1	0.0	9.552449519400	4.872462941700	5.833468022400
19	2	0.0	7.663977709600	1.351605189100	4.491226442600
20	2	0.0	5.267602698000	5.576503757100	4.497758540400
21	2	0.0	7.368222632200	3.458356334400	2.913730820000
22	2	0.0	4.903650812500	7.685065188900	2.906991983800
23	2	0.0	8.654683454800	3.612535547800	5.331892346200
24	2	0.0	6.281936617500	7.892362478500	5.218013263400
25	2	0.0	5.555286914100	3.912229381800	1.121105263500
26	2	0.0	7.977275713700	8.087783607300	1.114227869100
27	2	0.0	4.910481841200	2.412344279300	3.204431861100
28	2	0.0	7.305128475900	6.554629442000	3.137644362000
29	1	0.0	6.059649390900	2.846168650400	2.079001615500
30	1	0.0	8.485661933400	7.039657104800	2.088867824200
31	1	0.0	8.391334538000	2.730614274800	3.987762790000
32	1	0.0	5.950725903400	6.949185338000	3.943647365100
33	1	0.0	2.263186380600	9.091984631800	5.763691031700
34	1	0.0	4.637479849800	13.328146106100	5.764923994400
35	2	0.0	2.892063134200	9.789031451600	4.429323889600
36	2	0.0	0.365138689900	14.074199512300	4.470028864800
37	2	0.0	2.593393360200	11.830348318800	2.746135246400
38	2	0.0	-0.052156875500	16.203893857600	2.947270608900
39	2	0.0	3.610222543400	12.169668324500	5.254517305700
40	2	0.0	1.303811915700	16.342487718600	5.278138538800
41	2	0.0	0.648950596400	12.384864454400	1.116469807400
42	2	0.0	3.072984360400	16.686343302500	1.121448382500
43	2	0.0	0.128091965100	11.058929463100	3.356702758800
44	2	0.0	2.400425296200	15.142253165100	3.144887358000
45	1	0.0	1.151362553400	11.319826465800	2.076669497400
46	1	0.0	3.575494047300	15.605686237200	2.065491324900
47	1	0.0	3.533551127700	11.209020493000	3.941012513900
48	1	0.0	1.024204160500	15.465573958800	3.944036338200
49	1	0.0	7.181114559600	9.113547902600	5.800020394800
50	1	0.0	9.512348093300	13.407237895300	5.797928783200
51	2	0.0	7.797580848800	9.866042978600	4.494665965700
52	2	0.0	5.286361699600	14.017746343000	4.437964760400
53	2	0.0	7.447655453700	11.898151491100	2.757028260000
54	2	0.0	4.854714980900	16.193133872700	2.962671071100
55	2	0.0	8.502020706700	12.281514858100	5.201395203900
56	2	0.0	6.134117010400	16.344519124300	5.341382630000
57	2	0.0	5.498235214500	12.387180356500	1.118918469700
58	2	0.0	7.974426331500	16.688114264300	1.180008349300
59	2	0.0	5.045077886400	10.995067327500	3.359335658800
60	2	0.0	7.365927025000	15.217350660200	3.280921213300
61	1	0.0	6.039817276300	11.344696660300	2.082940641000
62	1	0.0	8.476972012600	15.590290493100	2.102768015700
63	1	0.0	8.413369137700	11.267643304300	3.935547392100
64	1	0.0	5.915966870800	15.462922637100	3.988318123600
65	2	0.0	1.242599044700	1.528763575700	6.769408233100
66	2	0.0	3.685683122800	5.743887423400	6.775893392000
67	2	0.0	2.986529365000	15.581321253600	8.920677990500
68	2	0.0	0.529287947000	2.863844263000	8.928009022600
69	2	0.0	2.596658362100	1.211566971200	9.069041985300
70	2	0.0	0.143047966900	5.457087199600	9.009242317400
71	2	0.0	1.003099001800	4.364099083100	6.754997057600
72	2	0.0	3.480926966200	8.561101763800	6.719168993400
73	2	0.0	0.153580605000	17.184222346100	8.846885268500
74	2	0.0	2.614736069800	4.473784730000	8.877534471400
75	1	0.0	1.127434877100	1.459668697000	8.406273199700
76	1	0.0	3.581342027300	5.697565244700	8.416829986900
77	1	0.0	3.537587828400	17.016643789800	8.397762112000
78	1	0.0	1.084300675100	4.291494349000	8.389559706600
79	2	0.0	6.130527337000	1.583543435300	6.782564140300
80	2	0.0	8.588915941900	5.799119877500	6.780287724400
81	2	0.0	7.897776645300	15.619484705700	8.991171185200
82	2	0.0	5.435287152400	2.882949294600	8.987864954800
83	2	0.0	7.507247881700	1.272663109000	9.071806202300
84	2	0.0	5.052160014300	5.457437748400	9.072453549400
85	2	0.0	5.898211167400	4.368243235400	6.781431789300
86	2	0.0	8.379828730200	8.589978443300	6.777784101100
87	2	0.0	5.076851638700	17.195042013700	8.852163805200
88	2	0.0	7.529178063400	4.497725020600	8.858374452700
89	1	0.0	6.029376473200	1.493053643100	8.422989094400
90	1	0.0	8.488020629200	5.732998095200	8.422589838600
91	1	0.0	8.430274267800	17.051685066400	8.418874103100
92	1	0.0	5.988871949800	4.303655587800	8.419256439400
93	2	0.0	1.307616462200	10.024438168200	6.710553945300
94	2	0.0	3.746390576200	14.314687051200	6.717343969500
95	2	0.0	2.991695448400	7.112878189700	8.922971280800
96	2	0.0	0.544203201900	11.303030158800	8.905946818100
97	2	0.0	2.669335216300	9.711843180000	8.993083551800
98	2	0.0	0.142590327300	13.886197770500	9.056164959400
99	2	0.0	0.921277402600	12.805739587700	6.722164837300
100	2	0.0	3.448399865300	17.102528202700	6.763461846400
101	2	0.0	0.238351037800	8.669123325800	8.781415136800
102	2	0.0	2.615865200800	12.955760880600	8.766955888000
103	1	0.0	1.182926376700	9.925219223500	8.351593637400
104	1	0.0	3.585664624000	14.193012361000	8.351554190500
105	1	0.0	3.587257114500	8.522325881700	8.362312530800
106	1	0.0	1.064643149600	12.744796641300	8.355986734000
107	2	0.0	6.219239619000	10.016803851100	6.770699858000
108	2	0.0	8.629947196400	14.380858055700	6.773217016100
109	2	0.0	7.894791456000	7.130740514700	8.972137827400
110	2	0.0	5.493313757500	11.320081647500	8.959459481200
111	2	0.0	7.577597864500	9.713690858000	9.066487515700
112	2	0.0	5.055064681800	13.928396241300	9.006755779900
113	2	0.0	5.826374775900	12.743037541200	6.724189678600
114	2	0.0	8.300880247700	17.110493075200	6.785328404400
115	2	0.0	5.133973664000	8.681203350300	8.824242326300
116	2	0.0	7.523381033500	12.978586946000	8.780922770900
117	1	0.0	6.100096975900	9.928910300300	8.412232676800
118	1	0.0	8.484511698700	14.232771543600	8.407190394900
119	1	0.0	8.496446423500	8.537261454800	8.416924169900
120	1	0.0	5.977780496400	12.752046333800	8.361777397500
121	1	0.0	12.011049222100	0.693322233900	5.822882174500
122	1	0.0	14.479862485900	4.901004185400	5.829071691600
123	2	0.0	12.716880536400	1.355703302500	4.514164146000
124	2	0.0	10.130190431200	5.572328109500	4.489854459700
125	2	0.0	12.276723613700	3.409205136600	2.897942606100
126	2	0.0	9.742632293200	7.686595058500	2.970748143100
127	2	0.0	13.487137095300	3.745279299600	5.272695677300
128	2	0.0	11.126371794000	7.854607084100	5.282935208700
129	2	0.0	10.399484366900	3.908684401100	1.183545978400
130	2	0.0	12.881593436700	8.089399080900	1.117229019900
131	2	0.0	9.822456753900	2.410953479100	3.275389133800
132	2	0.0	12.203058258100	6.587957047200	3.163286160400
133	1	0.0	10.940972367100	2.828100179600	2.106481366900
134	1	0.0	13.389873934500	7.040946931500	2.091690835300
135	1	0.0	13.324707624700	2.773294775300	3.985090529700
136	1	0.0	10.830022542400	6.950553198000	3.965585736100
137	1	0.0	16.895491458100	17.542633208700	5.798498151400
138	1	0.0	19.390575793500	4.821839173200	5.789839323100
139	2	0.0	17.532837088200	1.289536172600	4.470602035200
140	2	0.0	15.152955482300	5.625768050900	4.550807961900
141	2	0.0	17.244963897600	3.401078715100	2.834384807700
142	2	0.0	14.655922094400	7.687812195500	2.959334590700
143	2	0.0	18.527303238700	3.547998166300	5.267791826900
144	2	0.0	15.957650537400	8.022140567500	5.271128843400
145	2	0.0	15.309345314100	3.913183388500	1.125859710900
146	2	0.0	17.773654792700	8.157774598600	1.174896301400
147	2	0.0	14.781844043500	2.536846792800	3.297650210200
148	2	0.0	17.170600745000	6.709849833800	3.284086026300
149	1	0.0	15.851485115400	2.865135162200	2.084450869900
150	1	0.0	18.287559590500	7.084232458700	2.118716081500
151	1	0.0	18.234632684900	2.665684945000	3.934656519600
152	1	0.0	15.748173025000	7.034838094800	4.000479675100
153	1	0.0	12.019800035000	9.121675984700	5.788867572100
154	1	0.0	14.393487513300	13.381096227600	5.765595803200
155	2	0.0	12.572209529000	9.857994806400	4.441091575800
156	2	0.0	10.238357716100	14.129803420500	4.540548772900
157	2	0.0	12.344625852100	11.900040830200	2.762489535500
158	2	0.0	9.867061292100	16.134673500900	2.830992657500
159	2	0.0	13.485039021300	12.129314232000	5.268492332100
160	2	0.0	10.965880894100	16.525152632000	5.269461304500
161	2	0.0	10.402463033900	12.386117668900	1.120457771400
162	2	0.0	12.822894273000	16.626982326100	1.123759472700
163	2	0.0	9.889752006800	11.006679824200	3.305467576400
164	2	0.0	12.340045285600	15.289077947400	3.356750286300
165	1	0.0	10.938311673700	11.321544646400	2.063552138300
166	1	0.0	13.367133449100	15.583027244200	2.085088744700
167	1	0.0	13.303871909600	11.227080632800	3.925705886400
168	1	0.0	10.859790297500	15.528914682300	3.991179373400
169	1	0.0	16.979878794100	9.168419378800	5.796859021200
170	1	0.0	19.338751890100	13.392902333800	5.788396405300
171	2	0.0	17.629513204200	9.855290781200	4.479906100500
172	2	0.0	14.968274417600	14.076315821700	4.412926340100
173	2	0.0	17.259433724600	11.845236167000	2.760343865300
174	2	0.0	14.789084293600	16.131727595400	2.761690775300
175	2	0.0	18.315845981000	12.250141706400	5.247567415500
176	2	0.0	15.941501111700	16.334676805200	5.269071019700
177	2	0.0	15.308209343300	12.385700754400	1.120075087000
178	2	0.0	17.728983667300	16.687237629400	1.181928877800
179	2	0.0	14.788599407300	10.973943998800	3.288428478700
180	2	0.0	17.183066135000	15.131885399300	3.272982221800
181	1	0.0	15.847279173600	11.319542568000	2.059646874400
182	1	0.0	18.267291380000	15.607778278000	2.107478707400
183	1	0.0	18.243550341400	11.268908337600	3.949607339200
184	1	0.0	15.726397681200	15.439804568700	3.927115276900
185	2	0.0	11.112179285200	1.661130153200	6.789622158800
186	2	0.0	13.576428099500	5.870717926100	6.781594744400
187	2	0.0	12.730123954900	15.575042547700	8.939582514600
188	2	0.0	10.364419285800	2.930584368800	8.986795961700
189	2	0.0	12.413155854300	1.230665246500	9.086113605400
190	2	0.0	9.963736541300	5.501683768700	9.074856307300
191	2	0.0	10.808471107400	4.439176326500	6.785623428200
192	2	0.0	13.281339226800	8.649034519700	6.716289462300
193	2	0.0	9.975479822200	17.252239975300	8.842730646700
194	2	0.0	12.460991973400	4.529923416600	8.848113311500
195	1	0.0	10.953632923200	1.534495677400	8.425183778300
196	1	0.0	13.435166714200	5.755893103300	8.414800115900
197	1	0.0	13.310552148700	17.000885234500	8.419213016400
198	1	0.0	10.910697759500	4.356173204300	8.420483508100
199	2	0.0	15.941251737100	1.520732651200	6.752618541300
200	2	0.0	18.394062917500	5.728586703000	6.720168998600
201	2	0.0	17.705843808500	15.582066384600	8.985916900400
202	2	0.0	15.199018542100	2.853771097300	8.931907076000
203	2	0.0	17.283777348600	1.214962235800	9.056222558200
204	2	0.0	14.896412402200	5.470933606000	9.073144440600
205	2	0.0	15.661304306900	4.303722315500	6.781335438400
206	2	0.0	18.180969015700	8.584163099100	6.737439536000
207	2	0.0	14.863279043800	17.170317009600	8.845740251900
208	2	0.0	17.337850057900	4.451309650700	8.843008269800
209	1	0.0	15.815049469300	1.458817949400	8.392905073900
210	1	0.0	18.287992782500	5.686016994600	8.366277639800
211	1	0.0	18.228455352200	17.009409249300	8.408558807600
212	1	0.0	15.785507782700	4.278882113800	8.415433548300
213	2	0.0	11.068155845500	10.017195968400	6.776235937600
214	2	0.0	13.432062299200	14.307922319200	6.714882054900
215	2	0.0	12.873359141000	7.166306131000	8.939714882200
216	2	0.0	10.295335062600	11.324919012500	8.929603792000
217	2	0.0	12.498109953100	9.729001840900	9.020765952800
218	2	0.0	9.955096941500	13.945616522300	9.055886393400
219	2	0.0	10.663013844100	12.761759280700	6.756343867400
220	2	0.0	13.186833858500	17.040458326900	6.784523251800
221	2	0.0	10.048842987200	8.672441459200	8.852735942100
222	2	0.0	12.398805141900	12.937930160200	8.762769597700
223	1	0.0	10.990784254700	9.935535784200	8.434759146500
224	1	0.0	13.337219088400	14.195210160100	8.356652039500
225	1	0.0	13.422765198700	8.578528382700	8.348635379600
226	1	0.0	10.841165346600	12.761699939000	8.382616063700
227	2	0.0	16.105878133500	10.154270163300	6.763949765900
228	2	0.0	18.459106102400	14.363027210400	6.768410206300
229	2	0.0	17.710492662000	7.094774008000	8.912451884700
230	2	0.0	15.269564525900	11.364866140700	8.921973697600
231	2	0.0	17.405025957400	9.709640630200	9.051251429300
232	2	0.0	14.804324112500	13.935240006300	9.012323321600
233	2	0.0	15.642162503300	12.929911982100	6.716808909900
234	2	0.0	18.108099227600	17.044164484700	6.772102617200
235	2	0.0	14.978060197800	8.733664916000	8.766686160900
236	2	0.0	17.320738007400	12.966269841100	8.771476871200
237	1	0.0	15.937012044100	9.993176749200	8.392573102100
238	1	0.0	18.306936794000	14.201725608100	8.399524252200
239	1	0.0	18.297059204200	8.519238346500	8.377064396200
240	1	0.0	15.766264868600	12.806414390200	8.348322006500
241	2	0.0	10.559096024900	10.618153365900	14.988215136200
