Atoms  # charge
 
         241  atoms
           2  atom types
 
      0.000000000000      19.623000000000  xlo xhi
      0.000000000000      16.948000000000  ylo yhi
      -20.0      40.000000000000  zlo zhi
 
Masses
 
            1   28.08500000             # Si
            2   15.99900000             # O
 
Atoms  # charge
 
1	1	0.0	2.225789778600	0.628974842500	5.762221627600
2	1	0.0	4.652393258100	4.860638521900	5.776749516600
3	2	0.0	2.826822091000	1.322061776600	4.423991922500
4	2	0.0	0.307762219500	5.556250132200	4.411358095200
5	2	0.0	2.455200377100	3.464325431700	2.903015487000
6	2	0.0	0.006605873200	7.689500894100	2.898654229500
7	2	0.0	3.749502642800	3.609526426700	5.274854836500
8	2	0.0	1.307334260400	7.831320357400	5.268630728500
9	2	0.0	0.645688197800	3.915979396800	1.121044696600
10	2	0.0	3.067288630600	8.214126137400	1.181554386200
11	2	0.0	0.018805164200	2.350460626500	3.196073628000
12	2	0.0	2.451011563500	6.627343772000	3.211435419900
13	1	0.0	1.145501963600	2.850552469600	2.082441266000
14	1	0.0	3.569546499700	7.111906714800	2.099222340500
15	1	0.0	3.501909739400	2.725911794500	3.938734959400
16	1	0.0	1.029354591400	6.941484316500	3.941233914200
17	1	0.0	7.078082084100	17.597126486000	5.780794015700
18	1	0.0	9.568600031700	4.876111866100	5.771690689800
19	2	0.0	7.660006287800	1.345620427200	4.432647434900
20	2	0.0	5.214146644700	5.575325772600	4.433959467300
21	2	0.0	7.367854564400	3.465209319600	2.901144735700
22	2	0.0	4.903589792900	7.695257795600	2.907898982600
23	2	0.0	8.658736017600	3.619479308500	5.282539228200
24	2	0.0	6.288992610100	7.835734658300	5.260935112100
25	2	0.0	5.555286914100	3.912229381800	1.121105263500
26	2	0.0	7.977275713700	8.087783607300	1.114227869100
27	2	0.0	4.915047858400	2.414824822200	3.201331638800
28	2	0.0	7.304552521600	6.557969303400	3.139475384600
29	1	0.0	6.059649390900	2.846168650400	2.079001615500
30	1	0.0	8.485661933400	7.039657104800	2.088867824200
31	1	0.0	8.391534244400	2.727224900600	3.955908078500
32	1	0.0	5.944921384100	6.948565841800	3.941212741300
33	1	0.0	2.258299006700	9.072192645100	5.715409151100
34	1	0.0	4.637321488300	13.311257097800	5.751845130300
35	2	0.0	2.835664258900	9.781932980200	4.365482804200
36	2	0.0	0.310657947600	14.071115125100	4.369425784600
37	2	0.0	2.589045486600	11.840360651300	2.743934129300
38	2	0.0	-0.003913435500	16.203208387900	2.886527004600
39	2	0.0	3.618108194900	12.131000210700	5.261773328400
40	2	0.0	1.296864736800	16.337771888900	5.270496924700
41	2	0.0	0.648950596400	12.384864454400	1.116469807400
42	2	0.0	3.072984360400	16.686343302500	1.121448382500
43	2	0.0	0.133174259700	10.999839793500	3.341740794900
44	2	0.0	2.454690177900	15.146063036800	3.201683786700
45	1	0.0	1.151362553400	11.319826465800	2.076669497400
46	1	0.0	3.575494047300	15.605686237200	2.065491324900
47	1	0.0	3.525409257600	11.197653512500	3.929141580600
48	1	0.0	1.031406125300	15.465985987000	3.924931037400
49	1	0.0	7.206681067800	9.088252233700	5.763355035700
50	1	0.0	9.412521080100	13.459782357400	5.689973522500
51	2	0.0	7.745380788200	9.856546170300	4.431034966300
52	2	0.0	5.284396534700	14.015909463300	4.432130199700
53	2	0.0	7.444560313100	11.903549777600	2.745834866400
54	2	0.0	4.901873369100	16.186771785000	2.905376926400
55	2	0.0	8.431094566400	12.274537144300	5.195122933600
56	2	0.0	6.137344908800	16.342241752600	5.332615952900
57	2	0.0	5.498235214500	12.387180356500	1.118918469700
58	2	0.0	7.974426331500	16.688114264300	1.180008349300
59	2	0.0	5.040083597700	10.994883755100	3.355572731900
60	2	0.0	7.373213851100	15.213221752800	3.284042689300
61	1	0.0	6.039817276300	11.344696660300	2.082940641000
62	1	0.0	8.476972012600	15.590290493100	2.102768015700
63	1	0.0	8.397100395800	11.263089668100	3.922372690900
64	1	0.0	5.920088877400	15.458814600200	3.977783575200
65	2	0.0	1.293788393400	1.580352183200	6.709830437500
66	2	0.0	3.690391403600	5.797459397100	6.711243631600
67	2	0.0	2.988292660900	15.589833515000	8.867364040200
68	2	0.0	0.533687201900	2.884565226300	8.863305726800
69	2	0.0	2.597947235400	1.219162437800	9.014432981400
70	2	0.0	0.162206130100	5.492750767100	8.937780992200
71	2	0.0	1.000171338000	4.367263679200	6.672200277800
72	2	0.0	3.516938080900	8.595250215400	6.646774401600
73	2	0.0	0.167400200200	17.195104307400	8.769707752700
74	2	0.0	2.616282203300	4.514512708100	8.788429693700
75	1	0.0	1.138429720800	1.482041691700	8.344105800900
76	1	0.0	3.581629813600	5.742611355400	8.351299021300
77	1	0.0	3.541978522400	17.026340608700	8.350260827500
78	1	0.0	1.087393291200	4.312479367800	8.312087860300
79	2	0.0	6.132615918300	1.591450323100	6.724740982300
80	2	0.0	8.595300949800	5.800089860000	6.708565216400
81	2	0.0	7.889143988400	15.671241990500	8.929522276600
82	2	0.0	5.435760657000	2.925235907200	8.927834732900
83	2	0.0	7.505365463000	1.295235980000	9.012736245800
84	2	0.0	5.053637172700	5.503916060500	9.007234482300
85	2	0.0	5.895723659100	4.378672473700	6.721754527500
86	2	0.0	8.444234949300	8.605913244500	6.714319501400
87	2	0.0	5.075526404700	17.240058736500	8.799718606000
88	2	0.0	7.531032339500	4.519993021200	8.795252528900
89	1	0.0	6.028133757300	1.532205225400	8.366246132400
90	1	0.0	8.498588811100	5.745181757200	8.349253896000
91	1	0.0	8.440719226100	17.094225639000	8.356498711100
92	1	0.0	5.989253823000	4.344081576600	8.360843473200
93	2	0.0	1.307610824200	10.018001178000	6.651564430500
94	2	0.0	3.748754713700	14.313025061900	6.688540178400
95	2	0.0	2.990834091200	7.154807594900	8.859505778400
96	2	0.0	0.537312181500	11.316568240300	8.799358276200
97	2	0.0	2.684043053500	9.732000872300	8.929387813300
98	2	0.0	0.147687718000	13.930731064700	8.932320053600
99	2	0.0	0.922129630200	12.814271679300	6.636194027600
100	2	0.0	3.455157818800	17.097415315200	6.717566783900
101	2	0.0	0.287577779000	8.667957533100	8.773700132700
102	2	0.0	2.609449178700	12.956472009600	8.706234554500
103	1	0.0	1.197132310200	9.933542409400	8.293541781200
104	1	0.0	3.586645454300	14.196182101900	8.320772163200
105	1	0.0	3.602335559300	8.550935562900	8.289560739800
106	1	0.0	1.063925779500	12.760829678900	8.268751517100
107	2	0.0	6.270126790800	10.025299781900	6.717957342000
108	2	0.0	8.516610163500	14.386934372900	6.697539570900
109	2	0.0	7.899359096900	7.149256431400	8.865206741100
110	2	0.0	5.513090324200	11.308998589300	8.933765791400
111	2	0.0	7.599695657800	9.712767960000	9.008662095300
112	2	0.0	5.044537457600	13.924085035400	9.001936001200
113	2	0.0	5.826613761200	12.745001032300	6.721207189300
114	2	0.0	8.347267140000	17.167389809200	6.721434484500
115	2	0.0	5.150646315500	8.683526539600	8.725299534700
116	2	0.0	7.515169530800	13.030716690000	8.782400538400
117	1	0.0	6.128792156200	9.930473831600	8.352768416000
118	1	0.0	8.442768699000	14.281327386600	8.339673869000
119	1	0.0	8.549814921600	8.554986561000	8.358128032100
120	1	0.0	5.976111599300	12.754940623900	8.356334602500
121	1	0.0	12.009006526300	0.669532425400	5.806426374100
122	1	0.0	14.500343765100	4.871867445900	5.773517434800
123	2	0.0	12.713165546700	1.333622082300	4.502794571800
124	2	0.0	10.183595873100	5.577026026000	4.442984041400
125	2	0.0	12.280461958300	3.402232291100	2.898019248000
126	2	0.0	9.744856706800	7.692854855900	2.974442367100
127	2	0.0	13.496019674600	3.693498754100	5.278631496100
128	2	0.0	11.104234523300	7.904124912800	5.340688328200
129	2	0.0	10.399484366900	3.908684401100	1.183545978400
130	2	0.0	12.881593436700	8.089399080900	1.117229019900
131	2	0.0	9.829488791300	2.407241214000	3.267488489000
132	2	0.0	12.265795531400	6.708900718800	3.272018133300
133	1	0.0	10.940972367100	2.828100179600	2.106481366900
134	1	0.0	13.389873934500	7.040946931500	2.091690835300
135	1	0.0	13.328083587800	2.746183074000	3.974949980100
136	1	0.0	10.843383553700	7.010388246200	4.002414903400
137	1	0.0	16.895425877300	17.533743636400	5.715413823200
138	1	0.0	19.363154986600	4.811847273900	5.735628250200
139	2	0.0	17.472183735500	1.283283873000	4.358217445700
140	2	0.0	15.098691347200	5.571988858000	4.437091363700
141	2	0.0	17.233645718900	3.454918076300	2.828128790200
142	2	0.0	14.715576002200	7.686018793800	2.896337084500
143	2	0.0	18.471146233200	3.536942749000	5.261178981400
144	2	0.0	16.017838322900	7.908926076500	5.278472844100
145	2	0.0	15.309345314100	3.913183388500	1.125859710900
146	2	0.0	17.773654792700	8.157774598600	1.174896301400
147	2	0.0	14.782968726800	2.486731348300	3.287764219200
148	2	0.0	17.186352233600	6.694798351800	3.277150654800
149	1	0.0	15.851485115400	2.865135162200	2.084450869900
150	1	0.0	18.287559590500	7.084232458700	2.118716081500
151	1	0.0	18.209689174500	2.676089006600	3.905502191900
152	1	0.0	15.746352511200	6.992880510900	3.964525719900
153	1	0.0	12.049013020600	9.132307759900	5.868479879900
154	1	0.0	14.425194745200	13.358255702200	5.727883990500
155	2	0.0	12.572261568400	9.860673726700	4.498738008000
156	2	0.0	10.111351276700	14.162386019100	4.413851295900
157	2	0.0	12.349976517700	11.892428312500	2.768693566600
158	2	0.0	9.854670759600	16.202546198500	2.819570971800
159	2	0.0	13.484929388700	12.127177379800	5.261539680000
160	2	0.0	10.966791791400	16.487592989600	5.272706481100
161	2	0.0	10.402463033900	12.386117668900	1.120457771400
162	2	0.0	12.822894273000	16.626982326100	1.123759472700
163	2	0.0	9.899736284900	11.066734831000	3.349613307300
164	2	0.0	12.333355425400	15.290333898600	3.356100633500
165	1	0.0	10.938311673700	11.321544646400	2.063552138300
166	1	0.0	13.367133449100	15.583027244200	2.085088744700
167	1	0.0	13.302195238700	11.204976058500	3.930100776700
168	1	0.0	10.838069264700	15.549778134600	3.952691772600
169	1	0.0	17.022725546700	9.093234084900	5.758697723000
170	1	0.0	19.324255238600	13.365678804200	5.699968085500
171	2	0.0	17.628268518200	9.786408080500	4.419549239200
172	2	0.0	15.021609994300	14.016624885800	4.362035477400
173	2	0.0	17.261022859500	11.833521485900	2.752377428200
174	2	0.0	14.792673707600	16.126347144700	2.763925249400
175	2	0.0	18.319589285800	12.193433725400	5.198070543400
176	2	0.0	15.946537017300	16.283540164500	5.267821467900
177	2	0.0	15.308209343300	12.385700754400	1.120075087000
178	2	0.0	17.728983667300	16.687237629400	1.181928877800
179	2	0.0	14.788143359900	10.926133002100	3.282589167400
180	2	0.0	17.208404513000	15.133791283500	3.278700856100
181	1	0.0	15.847279173600	11.319542568000	2.059646874400
182	1	0.0	18.267291380000	15.607778278000	2.107478707400
183	1	0.0	18.243046357100	11.206383978400	3.915948878600
184	1	0.0	15.736167021900	15.414630357500	3.909793705400
185	2	0.0	11.118553729100	1.660125862900	6.752786294400
186	2	0.0	13.631174366700	5.867074072800	6.729984649100
187	2	0.0	12.746563490000	15.527504849200	8.929891761600
188	2	0.0	10.414554221800	2.938385362800	8.938940414000
189	2	0.0	12.417639766300	1.202671404200	9.079416543500
190	2	0.0	9.969127338100	5.503008575800	9.010215277000
191	2	0.0	10.815540840900	4.436406459000	6.728352217700
192	2	0.0	13.343639866300	8.595944337500	6.716411436100
193	2	0.0	9.984807520500	17.257779842400	8.788088873200
194	2	0.0	12.487843045600	4.529705772000	8.782560569900
195	1	0.0	10.977077591500	1.534832615000	8.389252905500
196	1	0.0	13.485461592500	5.742361765100	8.365442295200
197	1	0.0	13.311393722900	16.971050616500	8.406600566500
198	1	0.0	10.933948544800	4.367498249600	8.360883509800
199	2	0.0	15.938131116100	1.512266045200	6.662729642900
200	2	0.0	18.390806679600	5.738719728400	6.663007852700
201	2	0.0	17.703939920100	15.592652387500	8.854535691500
202	2	0.0	15.250774832700	2.842176808000	8.864041514800
203	2	0.0	17.313619378300	1.215503157700	8.937588959500
204	2	0.0	14.944993987700	5.429701261400	9.013857360100
205	2	0.0	15.717590988700	4.304125568300	6.706368535500
206	2	0.0	18.247612587500	8.579665263800	6.710781330300
207	2	0.0	14.872454366000	17.165647699800	8.786816778700
208	2	0.0	17.388433977600	4.443285232300	8.780827673100
209	1	0.0	15.828851987100	1.442203753600	8.306517387000
210	1	0.0	18.302011051400	5.699795778300	8.307311131500
211	1	0.0	18.257287295300	17.015396576900	8.291485175700
212	1	0.0	15.840868259800	4.259316775200	8.341234885700
213	2	0.0	11.198945876800	10.026513145200	6.934788173100
214	2	0.0	13.493365562500	14.311934001400	6.684601201100
215	2	0.0	12.944255282500	7.145146375500	8.936748799100
216	2	0.0	10.027707503800	11.441479764800	8.584061107800
217	2	0.0	12.639993683100	9.702816670400	9.079460742600
218	2	0.0	9.954545890100	14.025644001800	8.925991166100
219	2	0.0	10.661251845300	12.881250368400	6.576830850400
220	2	0.0	13.182136395100	17.026903637600	6.774794039100
221	2	0.0	10.083034524100	8.660481668900	8.852519633300
222	2	0.0	12.357449061500	12.893548219600	8.635108769000
223	1	0.0	11.081833242900	9.944929486500	8.623217228300
224	1	0.0	13.355555043500	14.157645197600	8.318088470500
225	1	0.0	13.511647146500	8.549651098400	8.345099274100
226	1	0.0	10.819207331800	12.881651050700	8.184557504500
227	2	0.0	16.159721239200	10.100002099400	6.707987907500
228	2	0.0	18.401310117800	14.317571624600	6.654111524600
229	2	0.0	17.717045821500	7.100869184700	8.857511566600
230	2	0.0	15.321463580700	11.308093955000	8.867721755300
231	2	0.0	17.472755866400	9.715854594100	9.008807975300
232	2	0.0	14.796173978900	13.860461428600	9.008057840500
233	2	0.0	15.650467021100	12.876015788500	6.687356579700
234	2	0.0	18.165494280300	17.095584020100	6.650723755200
235	2	0.0	15.087955897600	8.666885957800	8.709582385300
236	2	0.0	17.330627194700	12.967705483700	8.716675777700
237	1	0.0	16.006258736600	9.950697572300	8.336411476700
238	1	0.0	18.295640486300	14.201167977200	8.291901997800
239	1	0.0	18.352587086900	8.513709212100	8.349429382300
240	1	0.0	15.780408683800	12.762088041900	8.314424640000
241	2	0.0	10.655842572700	10.998417566300	9.929290817000
