Atoms  # charge
 
         324  atoms
           2  atom types
 
      0.000000000000      15.5674215665  xlo xhi
      0.000000000000      17.9757156059  ylo yhi
      0.000000000000      17.0882158012  zlo zhi
 
Masses
 
            1   28.08500000             # Si
            2   15.99900000             # O
 
Atoms  # charge
 
1	1	0.0	15.385971680000	4.833652140000	17.063915870000
2	1	0.0	5.374350450000	15.899772580000	15.346858710000
3	1	0.0	4.742413320000	8.169855920000	3.743649340000
4	1	0.0	3.725095240000	1.945380180000	6.654081300000
5	1	0.0	2.005991590000	0.560595820000	4.569423150000
6	1	0.0	3.798693680000	5.016323530000	3.427238480000
7	2	0.0	4.381396990000	5.633290200000	4.911716030000
8	2	0.0	4.838768630000	0.867532100000	10.314941860000
9	2	0.0	2.263779140000	1.549524060000	5.960050110000
10	2	0.0	6.178185780000	8.453123090000	16.040389080000
11	2	0.0	3.065575510000	1.056847350000	3.302080880000
12	2	0.0	2.327267350000	5.471728950000	2.590289800000
13	2	0.0	1.424566240000	5.090204740000	0.196833600000
14	2	0.0	2.866356780000	6.922615850000	16.910150080000
15	2	0.0	4.815093030000	6.922655320000	2.954714430000
16	2	0.0	4.763311170000	0.663501430000	6.286532100000
17	2	0.0	3.381420800000	9.169527710000	3.617932880000
18	2	0.0	4.454973340000	3.354818590000	6.247658110000
19	1	0.0	2.990049840000	5.510499880000	0.947092030000
20	1	0.0	8.447893230000	0.163349390000	1.374896910000
21	1	0.0	7.687588230000	5.094938260000	5.034043630000
22	1	0.0	8.873258180000	2.905493370000	3.168558860000
23	1	0.0	6.415402240000	0.659096970000	3.594576880000
24	1	0.0	8.245623960000	5.504714490000	2.373069530000
25	2	0.0	6.561413010000	4.717353830000	6.237261900000
26	2	0.0	6.853370050000	1.519529980000	4.931614650000
27	2	0.0	7.907971060000	3.617301560000	1.857353220000
28	2	0.0	11.288611600000	5.320582260000	1.088842820000
29	2	0.0	7.167330270000	17.842995920000	0.582773200000
30	2	0.0	8.538447950000	6.290174790000	0.845172900000
31	2	0.0	5.523942480000	1.391954070000	2.380532870000
32	2	0.0	8.112821940000	9.964772210000	0.436373840000
33	2	0.0	7.144879290000	5.761157240000	3.496674590000
34	2	0.0	10.443750880000	3.159329450000	2.806976720000
35	2	0.0	5.919181090000	8.904190380000	4.280134620000
36	2	0.0	9.788401020000	5.668982440000	3.062450620000
37	1	0.0	8.476824010000	5.236949060000	16.172632920000
38	1	0.0	0.644742130000	17.725574600000	16.100312110000
39	1	0.0	13.347725260000	4.562674370000	5.255993790000
40	1	0.0	15.015327340000	1.572708420000	3.151226240000
41	1	0.0	15.378656410000	2.059804700000	0.407723940000
42	1	0.0	12.584492730000	6.089958980000	0.565781730000
43	2	0.0	12.306975360000	4.660781890000	3.880218390000
44	2	0.0	13.593843670000	1.665177140000	3.818708600000
45	2	0.0	15.255338160000	2.608155470000	1.922779550000
46	2	0.0	12.463981500000	7.550476870000	1.461217470000
47	2	0.0	13.826671580000	1.472688700000	16.908156050000
48	2	0.0	15.162563820000	3.495652880000	16.281177070000
49	2	0.0	13.928309320000	5.017960860000	0.826337200000
50	2	0.0	12.828906250000	6.540198220000	16.138933410000
51	2	0.0	14.938222980000	4.808347030000	4.991485860000
52	2	0.0	0.535603990000	1.276467230000	4.263748870000
53	2	0.0	0.013836020000	7.116383990000	4.957408840000
54	2	0.0	13.426203960000	3.131537050000	6.128125080000
55	1	0.0	1.372121820000	14.174221360000	0.138102160000
56	1	0.0	1.469756870000	9.967206230000	15.946446460000
57	1	0.0	1.802875240000	15.342495670000	4.096511770000
58	1	0.0	4.007370000000	11.711674770000	2.505089610000
59	1	0.0	1.179912580000	11.327409850000	1.352242040000
60	1	0.0	4.222345820000	14.722808580000	1.099362460000
61	2	0.0	14.221271560000	13.119278550000	5.668103150000
62	2	0.0	3.367592790000	10.578121310000	6.165056050000
63	2	0.0	2.259456130000	11.675304600000	2.534165540000
64	2	0.0	4.393273020000	15.777257570000	2.352091550000
65	2	0.0	1.969312580000	10.237989430000	0.501382300000
66	2	0.0	3.894688100000	15.589849970000	14.789740770000
67	2	0.0	0.711663880000	12.705477940000	0.304453330000
68	2	0.0	4.665192560000	15.348876770000	16.737235740000
69	2	0.0	2.705801080000	14.996407370000	1.283958400000
70	2	0.0	5.447296750000	11.158535150000	2.038498450000
71	2	0.0	3.304656480000	1.837097860000	8.315534610000
72	2	0.0	4.035958200000	12.509094170000	3.869042880000
73	1	0.0	9.250570920000	13.782607530000	12.572768790000
74	1	0.0	7.055978960000	9.880283460000	16.383513580000
75	1	0.0	5.733685220000	15.541562680000	3.352804070000
76	1	0.0	9.102039510000	11.030669820000	4.469297690000
77	1	0.0	6.112435310000	12.165820630000	0.928230230000
78	1	0.0	9.551120530000	15.544792280000	2.500825650000
79	2	0.0	4.714900760000	15.042533280000	5.026736100000
80	2	0.0	8.015320700000	10.282532670000	5.551816390000
81	2	0.0	7.219136130000	13.177301330000	0.287492840000
82	2	0.0	9.566833620000	15.122440590000	4.015172600000
83	2	0.0	6.042095970000	11.026006060000	16.711409600000
84	2	0.0	8.966006360000	14.744652450000	1.166664340000
85	2	0.0	9.311531250000	12.304710720000	13.176329480000
86	2	0.0	8.494687120000	1.365802200000	2.699404180000
87	2	0.0	6.962284840000	14.539599630000	2.796097900000
88	2	0.0	8.766637790000	10.692261730000	2.984922210000
89	2	0.0	6.013417100000	17.130166790000	3.997029360000
90	2	0.0	9.341779290000	12.704002620000	4.314801890000
91	1	0.0	8.942501620000	13.404852130000	0.345863120000
92	1	0.0	12.066292550000	8.025520890000	15.255378070000
93	1	0.0	12.300381450000	16.478765530000	2.217515440000
94	1	0.0	11.854021600000	9.110671630000	0.741839350000
95	1	0.0	9.373744440000	10.617326570000	1.519913130000
96	1	0.0	15.223401770000	16.120961110000	2.193365860000
97	2	0.0	10.956091620000	11.063769690000	6.603399280000
98	2	0.0	0.354262500000	8.669613390000	7.578880630000
99	2	0.0	10.806253700000	10.039198810000	1.661477350000
100	2	0.0	0.454007280000	14.899503860000	3.154306610000
101	2	0.0	11.039404570000	8.783732270000	16.395737300000
102	2	0.0	0.247901130000	15.746129120000	0.687688920000
103	2	0.0	9.465488290000	12.341488840000	1.395223370000
104	2	0.0	15.269465970000	17.570662440000	2.711190130000
105	2	0.0	11.219626600000	15.309398820000	2.163522280000
106	2	0.0	15.178011790000	10.924781090000	1.515595510000
107	2	0.0	12.236927100000	17.258334480000	3.557887490000
108	2	0.0	13.629084350000	15.659525860000	1.937791070000
109	1	0.0	13.502055390000	2.765461310000	7.695225120000
110	1	0.0	3.225597030000	0.542464370000	9.424559700000
111	1	0.0	0.808395590000	5.950909160000	8.959543940000
112	1	0.0	6.171263450000	1.962330940000	10.573264630000
113	1	0.0	14.537804450000	0.067126730000	7.514232070000
114	1	0.0	3.567814090000	5.484039970000	9.057923330000
115	2	0.0	0.240175300000	4.852147550000	10.054206990000
116	2	0.0	6.405001460000	1.090942330000	11.894892910000
117	2	0.0	2.017295960000	0.342647520000	10.496172300000
118	2	0.0	6.844809010000	7.506058640000	8.546789530000
119	2	0.0	0.842149320000	15.336337260000	9.178789150000
120	2	0.0	4.569365500000	5.671795540000	7.588107740000
121	2	0.0	14.693784240000	1.702358950000	7.435944590000
122	2	0.0	2.221798100000	5.865541630000	8.199473590000
123	2	0.0	3.105094690000	4.307276540000	9.983186380000
124	2	0.0	7.838729410000	1.862199220000	9.922612910000
125	2	0.0	0.792722040000	7.332828150000	9.858067520000
126	2	0.0	5.033110050000	3.233817600000	10.760569550000
127	1	0.0	5.074169120000	4.777232260000	6.347018070000
128	1	0.0	6.397660610000	0.721721960000	6.488723250000
129	1	0.0	6.432004770000	8.110345630000	10.024524370000
130	1	0.0	9.355423240000	4.511637510000	9.584184000000
131	1	0.0	8.370143510000	1.848045880000	8.535164440000
132	1	0.0	7.873633910000	6.749250570000	7.368508020000
133	2	0.0	4.535399540000	5.859147270000	10.388784860000
134	2	0.0	10.852743320000	0.421058680000	12.767794640000
135	2	0.0	9.455936510000	3.255592700000	8.420479190000
136	2	0.0	9.346165980000	7.598724760000	7.987523880000
137	2	0.0	6.866345700000	1.840966860000	7.519922770000
138	2	0.0	7.832486440000	5.036648780000	9.094206470000
139	2	0.0	8.274956050000	3.637681010000	4.417592310000
140	2	0.0	8.735547330000	5.831728120000	5.889765000000
141	2	0.0	7.250779430000	7.654848580000	6.131961700000
142	2	0.0	10.862997040000	5.430838310000	9.489359810000
143	2	0.0	7.398878540000	9.633686380000	9.721249970000
144	2	0.0	9.194192260000	3.685467370000	11.122211680000
145	1	0.0	11.071764430000	4.699019560000	2.657792430000
146	1	0.0	12.659793810000	0.455014100000	4.690910030000
147	1	0.0	9.083460890000	9.067292430000	8.799610110000
148	1	0.0	1.043730370000	1.510867030000	11.598444620000
149	1	0.0	11.159499590000	1.135063690000	7.016906720000
150	1	0.0	14.936438740000	5.896688390000	6.140903670000
151	2	0.0	10.124804260000	9.580011770000	9.951662570000
152	2	0.0	11.781721020000	17.462983980000	10.686673070000
153	2	0.0	12.266089240000	1.876267500000	7.890860300000
154	2	0.0	15.380381230000	5.617963370000	7.568225820000
155	2	0.0	11.523906810000	17.558773390000	7.103536010000
156	2	0.0	13.575897010000	3.777975540000	9.084468850000
157	2	0.0	9.555728920000	1.202711160000	7.622001120000
158	2	0.0	13.668834330000	11.998398940000	8.315484600000
159	2	0.0	13.373700560000	5.958363400000	6.265495040000
160	2	0.0	13.488925910000	17.360801420000	8.484879410000
161	2	0.0	8.992476750000	10.402682350000	7.906079040000
162	2	0.0	15.506746980000	2.741257520000	11.271125060000
163	1	0.0	14.576147840000	12.633748200000	7.108694800000
164	1	0.0	2.674498200000	9.630981110000	4.967618040000
165	1	0.0	13.993465080000	13.872660060000	11.232808470000
166	1	0.0	4.276031460000	14.233140410000	10.189695220000
167	1	0.0	0.777949450000	8.941551710000	9.199278070000
168	1	0.0	1.699122270000	16.284749830000	8.118646530000
169	2	0.0	6.415916830000	14.887144260000	14.643021190000
170	2	0.0	2.434576250000	9.348069450000	9.161350330000
171	2	0.0	4.432709040000	11.228722690000	8.566439510000
172	2	0.0	2.213700120000	14.771496620000	7.277580540000
173	2	0.0	2.573003880000	8.167053500000	5.790198230000
174	2	0.0	2.161936190000	13.892759660000	5.008914070000
175	2	0.0	0.680412450000	12.683343980000	7.953685290000
176	2	0.0	3.143534680000	17.062935480000	8.461789240000
177	2	0.0	15.072862920000	14.572764990000	12.189023680000
178	2	0.0	3.038523820000	13.696845800000	9.257045090000
179	2	0.0	0.359413030000	17.202303210000	7.335194550000
180	2	0.0	3.765843500000	11.625873420000	13.212313430000
181	1	0.0	4.021248780000	13.611086440000	5.261342010000
182	1	0.0	6.849291290000	9.353197110000	5.767788760000
183	1	0.0	6.357634440000	15.505072550000	9.468110440000
184	1	0.0	9.808264240000	11.791675540000	7.660684300000
185	1	0.0	4.732361830000	11.134678630000	6.999523920000
186	1	0.0	7.710470200000	16.059436340000	6.880004490000
187	2	0.0	5.438604790000	14.082719300000	9.007792230000
188	2	0.0	7.792661370000	9.997033070000	12.423342870000
189	2	0.0	10.896615630000	10.068673810000	4.525241660000
190	2	0.0	11.347717110000	1.150884530000	5.383395600000
191	2	0.0	5.951144620000	10.084955250000	6.826857930000
192	2	0.0	7.993953800000	14.933732160000	5.922718350000
193	2	0.0	4.947881250000	12.508744700000	6.221694210000
194	2	0.0	7.524234650000	17.651404470000	6.295558100000
195	2	0.0	6.395065030000	15.861403970000	7.753681440000
196	2	0.0	9.880965790000	12.472080590000	9.039527010000
197	2	0.0	7.076957620000	16.987151680000	10.324497320000
198	2	0.0	9.458353520000	13.023531660000	6.588809830000
199	1	0.0	9.543628900000	14.107066150000	5.408905840000
200	1	0.0	0.906355570000	8.282416090000	5.929296380000
201	1	0.0	10.583346850000	16.202518530000	7.327783230000
202	1	0.0	13.910624870000	11.094909670000	9.656366020000
203	1	0.0	11.944634250000	9.858366770000	5.786601430000
204	1	0.0	12.475348450000	16.575372080000	9.505973650000
205	2	0.0	8.886466780000	16.417244200000	7.805579160000
206	2	0.0	12.487545580000	10.365572550000	9.852467910000
207	2	0.0	0.997985540000	9.623236640000	4.787629140000
208	2	0.0	13.467281940000	15.411050080000	10.360179740000
209	2	0.0	13.216210550000	9.114746430000	6.108272510000
210	2	0.0	1.548211780000	17.052095120000	4.312020090000
211	2	0.0	10.817284510000	14.847418950000	6.496102590000
212	2	0.0	13.727579880000	0.114116760000	5.922062860000
213	2	0.0	11.280255200000	15.810607120000	8.764155920000
214	2	0.0	15.063281540000	9.956287430000	9.637599350000
215	2	0.0	11.825401630000	1.652821810000	15.774209880000
216	2	0.0	13.933201950000	12.238855290000	10.818374160000
217	1	0.0	14.546404720000	3.969788150000	10.444145530000
218	1	0.0	6.661871590000	0.655530390000	16.162630660000
219	1	0.0	1.306943290000	6.911717730000	16.062336590000
220	1	0.0	3.815015990000	1.970458350000	2.461042730000
221	1	0.0	4.372525390000	2.791552340000	16.390018570000
222	1	0.0	3.675251770000	5.349146430000	14.736163980000
223	2	0.0	15.271449200000	6.442196570000	16.022812320000
224	2	0.0	5.905141550000	17.435068200000	15.594622520000
225	2	0.0	3.427835140000	2.119320240000	0.857068230000
226	2	0.0	4.858349760000	6.317264940000	15.188767740000
227	2	0.0	2.270887510000	2.289113860000	12.569945890000
228	2	0.0	3.779444990000	4.643009000000	12.934360520000
229	2	0.0	1.253348660000	1.156023010000	14.941362590000
230	2	0.0	4.953470200000	8.889363920000	9.724943060000
231	2	0.0	2.067446630000	5.568176300000	14.931445860000
232	2	0.0	6.445381140000	16.729367660000	12.721769200000
233	2	0.0	1.297975380000	8.421621490000	15.421864450000
234	2	0.0	4.378731220000	4.778233540000	1.605113490000
235	1	0.0	4.117402060000	4.559709220000	11.278409800000
236	1	0.0	5.752909550000	17.578499920000	11.517443530000
237	1	0.0	6.276572690000	7.188575550000	15.196810660000
238	1	0.0	13.196099170000	2.271970280000	15.535541830000
239	1	0.0	7.527368640000	2.893152910000	14.683745390000
240	1	0.0	7.298935560000	7.157230810000	12.657129210000
241	2	0.0	7.562507690000	6.490785500000	15.558876090000
242	2	0.0	9.830507450000	0.293516870000	0.133056830000
243	2	0.0	7.840987030000	1.175271380000	15.249804990000
244	2	0.0	8.675825200000	7.598774560000	13.243293530000
245	2	0.0	8.908584900000	3.008109700000	13.828430420000
246	2	0.0	7.541997140000	5.498360240000	12.513351760000
247	2	0.0	5.596312780000	1.748212650000	16.604506090000
248	2	0.0	6.635034420000	8.090708830000	11.526361460000
249	2	0.0	6.063698110000	7.721280440000	13.720390210000
250	2	0.0	12.624113150000	3.141810900000	14.168980000000
251	2	0.0	4.094088350000	3.287171230000	3.537701130000
252	2	0.0	8.271370290000	3.637410340000	16.099863590000
253	1	0.0	8.781379120000	4.244195240000	12.665580170000
254	1	0.0	12.262824840000	17.929533900000	12.050218550000
255	1	0.0	9.870564990000	6.491934990000	13.935464290000
256	1	0.0	15.513775190000	0.791930050000	13.998260040000
257	1	0.0	13.297632630000	2.683271550000	12.725979090000
258	1	0.0	11.617370250000	6.113021610000	10.741294570000
259	2	0.0	9.812451580000	5.806763060000	15.498405870000
260	2	0.0	0.712459180000	0.497141550000	0.343424720000
261	2	0.0	14.855705250000	17.441443620000	15.073768950000
262	2	0.0	3.905678710000	4.227047550000	16.048062110000
263	2	0.0	13.232231290000	16.905018430000	12.894095230000
264	2	0.0	13.156766080000	6.120877180000	10.883006830000
265	2	0.0	10.182834960000	5.348944700000	12.707832100000
266	2	0.0	11.073644220000	7.795829680000	11.047068000000
267	2	0.0	13.723948360000	4.198697210000	11.873626750000
268	2	0.0	14.076005510000	1.511445430000	14.058796280000
269	2	0.0	11.215412440000	7.406510100000	13.942343680000
270	2	0.0	0.536543630000	0.099688000000	12.454221230000
271	1	0.0	0.460896160000	13.602101060000	13.655997460000
272	1	0.0	3.839759150000	9.936714640000	9.431966790000
273	1	0.0	2.269649690000	15.637626080000	14.689582140000
274	1	0.0	4.288698040000	11.855024440000	11.626573630000
275	1	0.0	2.279682520000	11.042810920000	13.351207350000
276	1	0.0	3.489991620000	1.690172830000	13.481480820000
277	2	0.0	1.671947560000	14.372616170000	15.620418810000
278	2	0.0	2.386583110000	10.927209850000	14.936029880000
279	2	0.0	5.921824210000	11.648120830000	11.437022430000
280	2	0.0	4.056811480000	0.207029670000	12.926098970000
281	2	0.0	1.852717870000	9.753239170000	12.416692760000
282	2	0.0	6.017416680000	3.311344230000	14.041877210000
283	2	0.0	0.745206990000	12.078336930000	13.040672550000
284	2	0.0	4.814662570000	16.118822250000	10.400808640000
285	2	0.0	1.712934090000	14.799944480000	13.542442850000
286	2	0.0	10.016418280000	13.674737430000	11.097154290000
287	2	0.0	3.473819760000	2.446824890000	14.903249140000
288	2	0.0	4.477178970000	13.557959490000	11.635186720000
289	1	0.0	1.646193770000	13.897701840000	8.419336940000
290	1	0.0	7.261002360000	10.605160860000	11.056801850000
291	1	0.0	7.439648280000	15.908876910000	13.566340890000
292	1	0.0	9.047016310000	11.597790450000	14.531924270000
293	1	0.0	8.790959290000	13.423507040000	9.929125580000
294	1	0.0	10.110245750000	17.263733750000	13.809290160000
295	2	0.0	4.614024110000	13.032710050000	1.389372920000
296	2	0.0	10.744439870000	15.801977010000	13.048679270000
297	2	0.0	7.821873850000	14.434147840000	12.644114920000
298	2	0.0	9.198618720000	13.207810130000	15.568894930000
299	2	0.0	8.118682510000	11.977790480000	10.647766680000
300	2	0.0	7.919963460000	14.729904520000	9.629747230000
301	2	0.0	3.227489390000	11.168064960000	10.489714350000
302	2	0.0	12.821950220000	1.523158680000	11.724224400000
303	2	0.0	8.663338640000	16.902479430000	13.887043240000
304	2	0.0	10.760954910000	10.660371670000	14.606419600000
305	2	0.0	9.000996350000	16.974731310000	2.079650620000
306	2	0.0	7.645891400000	10.698566030000	15.099757840000
307	1	0.0	12.353908740000	15.370880220000	13.231455450000
308	1	0.0	11.487161510000	9.338200810000	10.843657950000
309	1	0.0	11.230133470000	0.160303220000	16.624490050000
310	1	0.0	14.313292800000	11.054657290000	16.897951970000
311	1	0.0	12.094202180000	10.690721880000	13.709871870000
312	1	0.0	13.475748730000	13.071563730000	15.346469890000
313	2	0.0	10.970613730000	17.313800020000	15.286384930000
314	2	0.0	13.211701310000	9.653714920000	0.026831940000
315	2	0.0	13.012186830000	9.091814980000	14.598546920000
316	2	0.0	1.917643210000	16.784082540000	15.730114440000
317	2	0.0	11.921153000000	10.088346880000	12.219245930000
318	2	0.0	14.840315800000	13.750985100000	15.002201130000
319	2	0.0	12.955272650000	12.011060050000	14.251088140000
320	2	0.0	12.704388670000	13.817065410000	12.182746370000
321	2	0.0	12.831403060000	14.697230860000	14.792751070000
322	2	0.0	15.480598690000	10.386482920000	15.867390330000
323	2	0.0	11.778628490000	17.368067040000	0.901742180000
324	2	0.0	13.452257900000	12.500302320000	16.794272050000
