324
 Atoms. Timestep: 0
Si 15.386 4.83365 17.0639
Si 5.37435 15.8998 15.3469
Si 4.74241 8.16986 3.74365
Si 3.7251 1.94538 6.65408
Si 2.00599 0.560596 4.56942
Si 3.79869 5.01632 3.42724
O 4.3814 5.63329 4.91172
O 4.83877 0.867532 10.3149
O 2.26378 1.54952 5.96005
O 6.17819 8.45312 16.0404
O 3.06558 1.05685 3.30208
O 2.32727 5.47173 2.59029
O 1.42457 5.0902 0.196834
O 2.86636 6.92262 16.9102
O 4.81509 6.92266 2.95471
O 4.76331 0.663501 6.28653
O 3.38142 9.16953 3.61793
O 4.45497 3.35482 6.24766
Si 2.99005 5.5105 0.947092
Si 8.44789 0.163349 1.3749
Si 7.68759 5.09494 5.03404
Si 8.87326 2.90549 3.16856
Si 6.4154 0.659097 3.59458
Si 8.24562 5.50471 2.37307
O 6.56141 4.71735 6.23726
O 6.85337 1.51953 4.93161
O 7.90797 3.6173 1.85735
O 11.2886 5.32058 1.08884
O 7.16733 17.843 0.582773
O 8.53845 6.29017 0.845173
O 5.52394 1.39195 2.38053
O 8.11282 9.96477 0.436374
O 7.14488 5.76116 3.49667
O 10.4438 3.15933 2.80698
O 5.91918 8.90419 4.28013
O 9.7884 5.66898 3.06245
Si 8.47682 5.23695 16.1726
Si 0.644742 17.7256 16.1003
Si 13.3477 4.56267 5.25599
Si 15.0153 1.57271 3.15123
Si 15.3787 2.0598 0.407724
Si 12.5845 6.08996 0.565782
O 12.307 4.66078 3.88022
O 13.5938 1.66518 3.81871
O 15.2553 2.60816 1.92278
O 12.464 7.55048 1.46122
O 13.8267 1.47269 16.9082
O 15.1626 3.49565 16.2812
O 13.9283 5.01796 0.826337
O 12.8289 6.5402 16.1389
O 14.9382 4.80835 4.99149
O 0.535604 1.27647 4.26375
O 0.013836 7.11638 4.95741
O 13.4262 3.13154 6.12813
Si 1.37212 14.1742 0.138102
Si 1.46976 9.96721 15.9464
Si 1.80288 15.3425 4.09651
Si 4.00737 11.7117 2.50509
Si 1.17991 11.3274 1.35224
Si 4.22235 14.7228 1.09936
O 14.2213 13.1193 5.6681
O 3.36759 10.5781 6.16506
O 2.25946 11.6753 2.53417
O 4.39327 15.7773 2.35209
O 1.96931 10.238 0.501382
O 3.89469 15.5898 14.7897
O 0.711664 12.7055 0.304453
O 4.66519 15.3489 16.7372
O 2.7058 14.9964 1.28396
O 5.4473 11.1585 2.0385
O 3.30466 1.8371 8.31553
O 4.03596 12.5091 3.86904
Si 9.25057 13.7826 12.5728
Si 7.05598 9.88028 16.3835
Si 5.73369 15.5416 3.3528
Si 9.10204 11.0307 4.4693
Si 6.11244 12.1658 0.92823
Si 9.55112 15.5448 2.50083
O 4.7149 15.0425 5.02674
O 8.01532 10.2825 5.55182
O 7.21914 13.1773 0.287493
O 9.56683 15.1224 4.01517
O 6.0421 11.026 16.7114
O 8.96601 14.7447 1.16666
O 9.31153 12.3047 13.1763
O 8.49469 1.3658 2.6994
O 6.96228 14.5396 2.7961
O 8.76664 10.6923 2.98492
O 6.01342 17.1302 3.99703
O 9.34178 12.704 4.3148
Si 8.9425 13.4049 0.345863
Si 12.0663 8.02552 15.2554
Si 12.3004 16.4788 2.21752
Si 11.854 9.11067 0.741839
Si 9.37374 10.6173 1.51991
Si 15.2234 16.121 2.19337
O 10.9561 11.0638 6.6034
O 0.354262 8.66961 7.57888
O 10.8063 10.0392 1.66148
O 0.454007 14.8995 3.15431
O 11.0394 8.78373 16.3957
O 0.247901 15.7461 0.687689
O 9.46549 12.3415 1.39522
O 15.2695 17.5707 2.71119
O 11.2196 15.3094 2.16352
O 15.178 10.9248 1.5156
O 12.2369 17.2583 3.55789
O 13.6291 15.6595 1.93779
Si 13.5021 2.76546 7.69523
Si 3.2256 0.542464 9.42456
Si 0.808396 5.95091 8.95954
Si 6.17126 1.96233 10.5733
Si 14.5378 0.0671267 7.51423
Si 3.56781 5.48404 9.05792
O 0.240175 4.85215 10.0542
O 6.405 1.09094 11.8949
O 2.0173 0.342648 10.4962
O 6.84481 7.50606 8.54679
O 0.842149 15.3363 9.17879
O 4.56937 5.6718 7.58811
O 14.6938 1.70236 7.43594
O 2.2218 5.86554 8.19947
O 3.10509 4.30728 9.98319
O 7.83873 1.8622 9.92261
O 0.792722 7.33283 9.85807
O 5.03311 3.23382 10.7606
Si 5.07417 4.77723 6.34702
Si 6.39766 0.721722 6.48872
Si 6.432 8.11035 10.0245
Si 9.35542 4.51164 9.58418
Si 8.37014 1.84805 8.53516
Si 7.87363 6.74925 7.36851
O 4.5354 5.85915 10.3888
O 10.8527 0.421059 12.7678
O 9.45594 3.25559 8.42048
O 9.34617 7.59872 7.98752
O 6.86635 1.84097 7.51992
O 7.83249 5.03665 9.09421
O 8.27496 3.63768 4.41759
O 8.73555 5.83173 5.88976
O 7.25078 7.65485 6.13196
O 10.863 5.43084 9.48936
O 7.39888 9.63369 9.72125
O 9.19419 3.68547 11.1222
Si 11.0718 4.69902 2.65779
Si 12.6598 0.455014 4.69091
Si 9.08346 9.06729 8.79961
Si 1.04373 1.51087 11.5984
Si 11.1595 1.13506 7.01691
Si 14.9364 5.89669 6.1409
O 10.1248 9.58001 9.95166
O 11.7817 17.463 10.6867
O 12.2661 1.87627 7.89086
O 15.3804 5.61796 7.56823
O 11.5239 17.5588 7.10354
O 13.5759 3.77798 9.08447
O 9.55573 1.20271 7.622
O 13.6688 11.9984 8.31548
O 13.3737 5.95836 6.2655
O 13.4889 17.3608 8.48488
O 8.99248 10.4027 7.90608
O 15.5067 2.74126 11.2711
Si 14.5761 12.6337 7.10869
Si 2.6745 9.63098 4.96762
Si 13.9935 13.8727 11.2328
Si 4.27603 14.2331 10.1897
Si 0.777949 8.94155 9.19928
Si 1.69912 16.2847 8.11865
O 6.41592 14.8871 14.643
O 2.43458 9.34807 9.16135
O 4.43271 11.2287 8.56644
O 2.2137 14.7715 7.27758
O 2.573 8.16705 5.7902
O 2.16194 13.8928 5.00891
O 0.680412 12.6833 7.95369
O 3.14353 17.0629 8.46179
O 15.0729 14.5728 12.189
O 3.03852 13.6968 9.25705
O 0.359413 17.2023 7.33519
O 3.76584 11.6259 13.2123
Si 4.02125 13.6111 5.26134
Si 6.84929 9.3532 5.76779
Si 6.35763 15.5051 9.46811
Si 9.80826 11.7917 7.66068
Si 4.73236 11.1347 6.99952
Si 7.71047 16.0594 6.88
O 5.4386 14.0827 9.00779
O 7.79266 9.99703 12.4233
O 10.8966 10.0687 4.52524
O 11.3477 1.15088 5.3834
O 5.95114 10.085 6.82686
O 7.99395 14.9337 5.92272
O 4.94788 12.5087 6.22169
O 7.52423 17.6514 6.29556
O 6.39507 15.8614 7.75368
O 9.88097 12.4721 9.03953
O 7.07696 16.9872 10.3245
O 9.45835 13.0235 6.58881
Si 9.54363 14.1071 5.40891
Si 0.906356 8.28242 5.9293
Si 10.5833 16.2025 7.32778
Si 13.9106 11.0949 9.65637
Si 11.9446 9.85837 5.7866
Si 12.4753 16.5754 9.50597
O 8.88647 16.4172 7.80558
O 12.4875 10.3656 9.85247
O 0.997986 9.62324 4.78763
O 13.4673 15.4111 10.3602
O 13.2162 9.11475 6.10827
O 1.54821 17.0521 4.31202
O 10.8173 14.8474 6.4961
O 13.7276 0.114117 5.92206
O 11.2803 15.8106 8.76416
O 15.0633 9.95629 9.6376
O 11.8254 1.65282 15.7742
O 13.9332 12.2389 10.8184
Si 14.5464 3.96979 10.4441
Si 6.66187 0.65553 16.1626
Si 1.30694 6.91172 16.0623
Si 3.81502 1.97046 2.46104
Si 4.37253 2.79155 16.39
Si 3.67525 5.34915 14.7362
O 15.2714 6.4422 16.0228
O 5.90514 17.4351 15.5946
O 3.42784 2.11932 0.857068
O 4.85835 6.31726 15.1888
O 2.27089 2.28911 12.5699
O 3.77944 4.64301 12.9344
O 1.25335 1.15602 14.9414
O 4.95347 8.88936 9.72494
O 2.06745 5.56818 14.9314
O 6.44538 16.7294 12.7218
O 1.29798 8.42162 15.4219
O 4.37873 4.77823 1.60511
Si 4.1174 4.55971 11.2784
Si 5.75291 17.5785 11.5174
Si 6.27657 7.18858 15.1968
Si 13.1961 2.27197 15.5355
Si 7.52737 2.89315 14.6837
Si 7.29894 7.15723 12.6571
O 7.56251 6.49079 15.5589
O 9.83051 0.293517 0.133057
O 7.84099 1.17527 15.2498
O 8.67583 7.59877 13.2433
O 8.90858 3.00811 13.8284
O 7.542 5.49836 12.5134
O 5.59631 1.74821 16.6045
O 6.63503 8.09071 11.5264
O 6.0637 7.72128 13.7204
O 12.6241 3.14181 14.169
O 4.09409 3.28717 3.5377
O 8.27137 3.63741 16.0999
Si 8.78138 4.2442 12.6656
Si 12.2628 17.9295 12.0502
Si 9.87056 6.49193 13.9355
Si 15.5138 0.79193 13.9983
Si 13.2976 2.68327 12.726
Si 11.6174 6.11302 10.7413
O 9.81245 5.80676 15.4984
O 0.712459 0.497142 0.343425
O 14.8557 17.4414 15.0738
O 3.90568 4.22705 16.0481
O 13.2322 16.905 12.8941
O 13.1568 6.12088 10.883
O 10.1828 5.34894 12.7078
O 11.0736 7.79583 11.0471
O 13.7239 4.1987 11.8736
O 14.076 1.51145 14.0588
O 11.2154 7.40651 13.9423
O 0.536544 0.099688 12.4542
Si 0.460896 13.6021 13.656
Si 3.83976 9.93671 9.43197
Si 2.26965 15.6376 14.6896
Si 4.2887 11.855 11.6266
Si 2.27968 11.0428 13.3512
Si 3.48999 1.69017 13.4815
O 1.67195 14.3726 15.6204
O 2.38658 10.9272 14.936
O 5.92182 11.6481 11.437
O 4.05681 0.20703 12.9261
O 1.85272 9.75324 12.4167
O 6.01742 3.31134 14.0419
O 0.745207 12.0783 13.0407
O 4.81466 16.1188 10.4008
O 1.71293 14.7999 13.5424
O 10.0164 13.6747 11.0972
O 3.47382 2.44682 14.9032
O 4.47718 13.558 11.6352
Si 1.64619 13.8977 8.41934
Si 7.261 10.6052 11.0568
Si 7.43965 15.9089 13.5663
Si 9.04702 11.5978 14.5319
Si 8.79096 13.4235 9.92913
Si 10.1102 17.2637 13.8093
O 4.61402 13.0327 1.38937
O 10.7444 15.802 13.0487
O 7.82187 14.4341 12.6441
O 9.19862 13.2078 15.5689
O 8.11868 11.9778 10.6478
O 7.91996 14.7299 9.62975
O 3.22749 11.1681 10.4897
O 12.822 1.52316 11.7242
O 8.66334 16.9025 13.887
O 10.761 10.6604 14.6064
O 9.001 16.9747 2.07965
O 7.64589 10.6986 15.0998
Si 12.3539 15.3709 13.2315
Si 11.4872 9.3382 10.8437
Si 11.2301 0.160303 16.6245
Si 14.3133 11.0547 16.898
Si 12.0942 10.6907 13.7099
Si 13.4757 13.0716 15.3465
O 10.9706 17.3138 15.2864
O 13.2117 9.65371 0.0268319
O 13.0122 9.09181 14.5985
O 1.91764 16.7841 15.7301
O 11.9212 10.0883 12.2192
O 14.8403 13.751 15.0022
O 12.9553 12.0111 14.2511
O 12.7044 13.8171 12.1827
O 12.8314 14.6972 14.7928
O 15.4806 10.3865 15.8674
O 11.7786 17.3681 0.901742
O 13.4523 12.5003 16.7943
324
 Atoms. Timestep: 14
Si 0.03785 4.92829 0.0837857
Si 5.27225 15.9415 15.4797
Si 4.82547 8.21176 3.66216
Si 3.80687 1.70916 6.74903
Si 2.09667 0.698977 4.38656
Si 3.95386 5.24021 3.2088
O 4.09069 5.47141 4.92452
O 4.83091 0.701363 10.0449
O 2.57263 1.18637 5.84744
O 6.34183 8.63576 15.9847
O 2.97645 1.03061 3.06967
O 2.39816 5.82458 2.92029
O 1.3929 4.5405 0.908841
O 2.55615 6.82238 0.166553
O 4.89195 6.82416 2.98197
O 5.01868 0.599146 6.60701
O 3.54529 9.21355 3.66552
O 4.20272 3.17026 6.2511
Si 2.59723 5.59329 1.27495
Si 8.55209 0.170035 1.39878
Si 7.78051 5.02131 5.18881
Si 8.81195 2.92627 3.19892
Si 6.46844 0.809694 3.32933
Si 8.41129 5.43949 2.36046
O 6.36176 4.60474 5.84999
O 6.60865 1.58601 4.71953
O 7.99496 3.85727 2.13562
O 11.804 4.96123 1.21789
O 7.20713 0.0629627 0.496889
O 8.36788 5.99602 0.82288
O 5.41416 1.45426 2.31935
O 8.17447 9.86733 0.416139
O 7.5569 5.85019 3.71918
O 10.3937 3.02673 2.783
O 6.10018 8.91655 4.26306
O 9.95901 5.62352 2.92372
Si 8.35317 5.44906 16.3238
Si 0.982577 17.897 15.8218
Si 13.2132 4.53462 5.27328
Si 15.0282 1.18427 3.05852
Si 15.2376 2.05092 0.238547
Si 12.8112 6.15925 0.616311
O 12.2851 4.48029 3.92171
O 13.5893 1.46924 3.77099
O 15.1062 2.26897 1.84033
O 12.4427 7.56042 1.40413
O 13.8016 1.58555 16.6506
O 15.37 3.45427 16.4776
O 14.2684 5.44631 0.903227
O 12.7958 6.62645 16.0965
O 14.866 4.69328 5.03147
O 0.602094 1.33828 4.19515
O 15.5355 7.29481 5.35929
O 13.0213 3.3604 6.39728
Si 1.42254 14.4207 0.322363
Si 1.26962 9.92693 15.9
Si 1.74287 15.5116 4.27331
Si 4.0106 12.0066 2.49789
Si 1.21172 11.454 1.26183
Si 4.24372 14.8507 1.21777
O 14.6416 13.1939 5.90073
O 3.4145 10.7584 5.79591
O 2.43534 11.6339 2.37825
O 4.47409 15.8299 2.48025
O 1.85022 10.2677 0.329659
O 4.0258 15.52 14.5052
O 0.896286 12.9478 0.664711
O 4.94107 15.2918 16.9403
O 2.62779 14.8058 1.34279
O 5.25468 11.0432 2.02872
O 3.32341 1.82538 8.28851
O 4.33382 12.6119 3.92416
Si 9.48225 14.0621 12.7064
Si 7.15504 10.0187 16.2252
Si 5.82244 15.6268 3.49153
Si 9.16715 11.0111 4.32778
Si 5.87898 11.9904 0.789433
Si 9.5318 15.3281 2.3958
O 5.05592 15.1357 4.92026
O 8.11556 10.3255 5.30215
O 7.15134 12.9197 0.664939
O 9.42821 14.9182 3.91261
O 5.87827 11.0312 16.5749
O 8.98954 14.6351 1.00169
O 9.46333 12.6387 13.4402
O 8.10114 1.31886 2.6946
O 6.71658 14.5884 2.73711
O 8.59809 10.4898 2.89927
O 6.33513 17.2145 3.59178
O 9.44494 12.5999 4.33281
Si 8.75914 13.1793 0.378937
Si 12.084 7.90633 15.272
Si 12.2609 16.5515 2.10768
Si 11.8403 8.95188 0.737346
Si 9.29734 10.5041 1.44713
Si 15.227 16.072 2.05964
O 11.313 11.3793 7.06329
O 0.254675 8.93873 7.43752
O 10.7006 9.69888 1.59759
O 0.522954 15.2967 3.27911
O 11.0798 8.5135 16.4269
O 0.300905 15.5873 0.621586
O 9.68756 12.0528 1.08142
O 15.2877 17.6673 2.42769
O 11.1258 15.4229 2.00433
O 15.1894 11.0183 1.4283
O 12.1448 17.3372 3.55737
O 13.6756 15.7132 1.99854
Si 13.3266 2.58128 7.82636
Si 3.31576 0.61099 9.36653
Si 0.622368 6.07324 9.01242
Si 6.11118 1.8219 10.6458
Si 14.4368 17.9077 7.27435
Si 3.63026 5.31955 9.13894
O 0.180783 4.94544 10.0868
O 6.42325 0.69588 11.7573
O 2.09884 0.775101 10.4004
O 6.4678 7.3574 8.44646
O 0.86025 15.504 9.25241
O 4.48385 5.23858 7.73244
O 14.5681 1.52488 7.62535
O 2.2423 6.06549 8.71595
O 3.20661 4.02878 10.1835
O 7.40171 1.95796 9.64727
O 0.334465 7.56482 9.62321
O 5.52292 3.2683 11.1371
Si 4.74912 4.68446 6.18053
Si 6.5739 0.910132 6.21897
Si 6.25693 8.23369 9.77471
Si 9.26586 4.7312 9.42583
Si 8.33992 2.11807 8.2772
Si 7.94924 6.9266 7.60583
O 4.63479 5.88788 10.4038
O 10.6474 17.8898 12.9535
O 9.33014 3.39147 8.48704
O 9.07709 8.01381 8.34242
O 7.14049 2.08534 7.17157
O 8.21995 5.72055 8.78342
O 8.56582 3.55179 4.703
O 8.55772 5.84258 6.36807
O 7.40359 7.96258 6.29618
O 10.7028 5.57628 9.69199
O 7.37183 9.60858 9.74805
O 8.90289 4.04857 10.8803
Si 11.1844 4.54392 2.7058
Si 12.6838 0.434028 4.67322
Si 8.94438 9.46575 8.99925
Si 1.23022 1.56983 11.4965
Si 10.9593 0.885742 6.98935
Si 14.8495 5.99958 6.07357
O 10.0613 9.85979 10.13
O 12.1072 17.2351 10.6008
O 11.9387 1.70653 8.03403
O 15.483 5.77293 7.5503
O 11.2926 17.2661 6.99063
O 13.666 3.3928 9.20395
O 9.43535 1.11702 7.53314
O 13.8724 11.7189 8.15356
O 13.1812 6.01307 6.067
O 13.7168 17.1325 8.50322
O 8.94209 10.5869 7.84581
O 0.112841 2.45869 10.7383
Si 14.9147 12.6104 7.2788
Si 2.69776 9.52147 5.06719
Si 13.8337 13.9026 11.1903
Si 4.28567 14.4717 10.2968
Si 0.694321 9.04358 9.03385
Si 1.48985 16.4992 8.05126
O 6.63356 15.2213 14.9286
O 2.26833 9.4126 9.0548
O 4.25926 11.0798 8.33301
O 1.97937 15.161 7.15834
O 2.51585 8.12124 5.96231
O 2.5916 14.2707 4.76421
O 0.735887 12.9016 8.14576
O 2.8486 17.264 8.52274
O 15.1635 14.237 12.0696
O 2.98339 13.9033 9.40274
O 0.427674 17.3795 7.2141
O 3.76063 11.5757 13.2224
Si 4.19123 13.7596 5.0849
Si 6.89487 9.34717 5.67672
Si 6.7484 15.3094 9.31843
Si 9.8371 11.9327 7.56697
Si 4.6114 11.3021 6.77555
Si 7.73136 16.098 6.84102
O 5.61666 14.1175 9.4205
O 8.01222 9.90359 12.3334
O 10.6265 10.2583 4.69225
O 11.4093 1.20117 5.39674
O 5.89598 10.3392 6.50996
O 7.88451 14.8844 5.8066
O 4.52703 12.9351 6.4618
O 7.47557 17.5507 6.13486
O 6.44687 15.9355 7.83904
O 10.1265 12.716 8.95962
O 6.91964 16.6169 10.3039
O 8.93968 12.8187 6.62831
Si 9.24175 13.9779 5.34083
Si 0.856297 8.46663 6.02659
Si 10.5972 15.8289 7.37376
Si 13.9601 11.0622 9.67657
Si 11.7028 10.2892 5.9065
Si 12.7271 16.2251 9.43419
O 9.068 16.2518 7.78309
O 12.7074 10.063 9.98772
O 1.06776 9.78033 5.00498
O 13.6666 15.0565 10.0764
O 12.8842 9.34226 5.94257
O 2.07389 17.0118 4.64672
O 10.5634 14.7189 6.1937
O 13.7351 17.7611 5.78193
O 11.5174 15.425 8.67918
O 15.3572 10.2291 9.72859
O 11.4938 1.38844 15.8072
O 13.8774 12.3547 10.6742
Si 14.6785 3.77052 10.457
Si 6.51621 0.750335 16.23
Si 1.74564 6.8189 15.8047
Si 3.92735 2.21008 2.31648
Si 4.14262 2.62765 16.3661
Si 3.90401 5.22331 14.5291
O 0.301251 6.11464 16.0915
O 5.57826 17.5506 15.6135
O 3.39491 2.36074 0.751135
O 4.67234 6.55208 15.0971
O 2.27949 2.26905 12.6001
O 4.04986 4.71261 12.9428
O 1.16445 1.12289 14.6463
O 4.79121 8.93551 9.87302
O 2.38239 5.87899 14.6219
O 6.01209 16.4503 12.7627
O 1.44005 8.37016 15.4623
O 4.12677 5.05666 1.457
Si 4.37705 4.47364 11.3281
Si 5.70851 17.156 11.3267
Si 6.09118 7.31409 15.0766
Si 12.9004 2.06162 15.4138
Si 7.50738 3.04191 14.7442
Si 7.44836 7.14848 12.5448
O 7.11959 6.20436 15.6261
O 9.76178 0.705238 0.482059
O 7.63723 1.43506 15.2599
O 8.84563 7.53287 13.3244
O 8.64972 3.22527 13.5119
O 7.48323 5.50214 12.5006
O 5.60066 1.98024 16.768
O 6.92393 7.50227 11.0639
O 6.27286 7.71701 13.5248
O 12.545 3.25299 14.3111
O 4.04687 3.49649 3.32442
O 8.17103 3.84479 16.1223
Si 8.75241 4.46028 12.4577
Si 12.0803 17.7982 12.1207
Si 9.95497 6.48871 13.942
Si 15.4251 0.541396 13.8311
Si 13.2432 2.64972 12.9193
Si 11.8587 6.39456 10.4713
O 9.69206 5.93579 15.482
O 0.722877 0.791971 0.0712752
O 15.2133 17.3156 14.9552
O 3.93725 4.13351 15.7747
O 12.8059 16.6138 13.0932
O 13.2633 5.79509 10.6028
O 10.1645 5.27396 12.8444
O 11.4428 7.87061 10.9886
O 13.9167 3.72865 11.9633
O 14.1441 1.59837 14.0645
O 11.3673 7.26857 13.9651
O 0.268413 0.427159 12.2894
Si 0.499806 13.7423 13.3066
Si 3.66893 10.1048 9.50564
Si 2.44595 15.4209 14.8452
Si 4.36015 11.8738 11.7611
Si 2.16796 11.0067 13.3397
Si 3.29854 1.37458 13.5699
O 2.11771 14.2671 15.9517
O 2.1829 10.9071 15.0018
O 5.81531 11.224 11.4037
O 3.93741 0.14223 12.8351
O 1.76406 9.70263 12.5621
O 6.07816 3.48878 14.2843
O 1.2325 12.3602 12.962
O 4.48569 16.0865 10.653
O 1.46663 15.0615 13.5773
O 9.99756 13.874 11.2143
O 3.50577 1.72079 15.1181
O 4.32903 13.5115 11.6102
Si 1.65334 14.2178 8.52897
Si 7.36838 10.7669 11.2449
Si 7.2539 15.8326 13.5602
Si 9.27494 11.7444 14.7838
Si 9.03575 13.2738 10.0255
Si 10.0209 16.9073 14.0738
O 4.5146 13.113 1.18391
O 10.5274 15.2469 13.481
O 8.03752 14.6927 12.7019
O 9.12624 12.985 15.8761
O 8.08464 12.0515 10.5202
O 8.1219 14.4525 9.45919
O 3.36266 11.1668 10.6777
O 12.6435 1.36596 12.1086
O 8.41976 16.8833 14.0457
O 10.6326 10.8481 14.8338
O 8.96252 16.899 2.29132
O 8.01605 10.7146 15.0264
Si 12.3019 15.0922 13.4159
Si 11.4723 9.52064 10.9133
Si 11.0567 0.102254 16.7527
Si 14.2784 10.9806 0.0526855
Si 11.989 10.5126 13.9534
Si 13.5851 13.0018 15.0353
O 10.7085 16.9681 15.5527
O 13.0431 9.99294 0.417723
O 12.7857 9.25144 14.629
O 2.16203 16.8127 15.7437
O 11.5773 10.2032 12.3855
O 15.0666 13.5638 14.6056
O 12.9349 11.8825 14.0179
O 12.5185 14.1001 12.1776
O 12.6506 14.3975 14.8374
O 15.2437 10.3974 15.9296
O 12.138 17.5391 0.752641
O 13.6347 12.3919 16.559
324
 Atoms. Timestep: 500
Si 0.170244 4.94237 0.0648034
Si 5.0851 16.3191 15.7417
Si 5.29431 8.005 3.90539
Si 3.98948 1.88349 6.46095
Si 2.0514 0.676669 4.2864
Si 3.7815 5.25718 3.51606
O 3.41262 5.22541 5.18272
O 4.7835 0.925492 9.44841
O 2.81979 1.21759 5.60451
O 6.39374 8.62175 15.6993
O 2.5962 0.97865 2.78716
O 2.55163 6.36321 3.19348
O 1.27502 4.98117 1.30425
O 2.23053 7.16597 0.289501
O 5.12138 6.43909 3.55406
O 5.01362 0.587233 6.35354
O 3.7895 8.403 3.90511
O 4.82686 3.32294 6.45129
Si 2.46414 6.06059 1.55409
Si 8.42528 0.502003 1.44886
Si 7.59936 5.49429 5.17089
Si 8.47141 3.20483 3.37924
Si 6.15481 1.08386 3.35771
Si 8.61493 5.71484 2.37278
O 6.12068 5.4676 6.14332
O 6.93163 1.51541 4.70948
O 8.09679 4.17596 2.17907
O 11.8229 4.51609 1.27375
O 7.26548 0.543776 0.412649
O 8.34253 6.21871 0.857682
O 4.98747 1.66357 2.34273
O 8.36686 9.64578 0.0865409
O 8.02164 6.27454 3.83918
O 10.1741 3.10233 3.28418
O 6.29947 9.19734 3.70178
O 10.2844 5.78722 2.82176
Si 8.30458 5.42146 16.4274
Si 0.591762 17.7605 15.4493
Si 12.9632 4.63602 5.67597
Si 14.9086 1.07367 3.04841
Si 14.9721 2.30285 0.185514
Si 12.8142 5.72936 0.548754
O 12.4292 4.41943 4.12906
O 13.2898 1.32625 3.39732
O 15.2968 2.16974 1.8223
O 12.5269 7.11954 1.34652
O 13.3715 2.72858 16.9359
O 0.215478 3.40496 16.3697
O 14.2702 5.00488 0.767545
O 12.9286 6.28451 15.9128
O 14.8031 4.58063 5.83878
O 0.401878 1.18547 4.33634
O 0.344281 7.1525 6.28665
O 12.4239 3.526 6.71777
Si 1.50086 14.3399 0.419466
Si 1.57012 10.1255 15.8978
Si 2.15937 15.5235 3.8456
Si 4.16681 12.173 2.36656
Si 1.48573 11.4408 1.43916
Si 4.27497 14.9029 1.46996
O 14.1401 14.0014 6.7597
O 3.73355 10.7456 4.98127
O 2.65706 11.6942 2.58213
O 4.37774 16.1022 2.84805
O 2.28207 10.5193 0.379977
O 4.00435 15.8778 14.6765
O 0.972389 12.7979 0.706086
O 4.50516 15.9647 0.126865
O 2.66048 14.7717 1.57161
O 5.11054 11.1359 1.61434
O 3.29339 1.90574 7.93971
O 5.03871 12.9633 3.68381
Si 9.39791 13.6821 13.0064
Si 7.14344 9.93545 15.9783
Si 5.9259 15.8656 3.398
Si 9.3192 10.9997 4.26909
Si 5.89707 12.0786 0.486867
Si 9.77526 15.5832 2.2454
O 5.52958 15.1689 4.82718
O 8.33549 10.5286 5.37912
O 7.38014 12.7737 0.99077
O 10.0678 14.9796 3.67675
O 5.93974 11.2508 16.2643
O 9.33277 14.3625 1.18713
O 10.1513 12.3394 13.4343
O 7.92449 1.6243 2.60854
O 6.34299 14.8704 2.31684
O 8.9037 10.2048 2.87061
O 6.32659 17.4399 3.54178
O 9.2776 12.68 3.95745
Si 8.97505 12.9337 0.657928
Si 12.1839 7.63262 15.283
Si 12.3196 16.6096 1.95652
Si 12.082 8.63628 0.829609
Si 9.49468 10.1439 1.30566
Si 15.182 15.9205 2.17932
O 11.6572 11.876 6.76836
O 0.403648 9.531 7.40648
O 10.7995 9.15325 1.7345
O 0.689675 15.1079 3.35481
O 11.4003 8.36009 16.3993
O 0.290859 15.3439 0.738958
O 10.0055 11.7149 1.12317
O 15.3829 17.4652 2.2071
O 11.0137 15.9523 1.34268
O 15.4993 11.1092 2.00511
O 11.8761 17.2925 3.51456
O 13.6034 15.5769 2.20355
Si 13.0172 2.56941 7.92193
Si 3.26145 0.75333 8.95112
Si 0.604204 6.33024 9.33081
Si 5.89604 1.49494 10.5698
Si 14.3059 17.8939 7.0071
Si 3.56862 5.233 9.41911
O 15.546 5.44349 10.5633
O 5.87854 0.378443 11.6975
O 2.06171 0.854072 10.1245
O 6.47203 7.2638 8.23236
O 0.797479 15.674 8.98026
O 4.10415 5.38195 7.89174
O 14.0815 1.54776 7.02479
O 2.24133 6.08595 9.46465
O 3.26375 3.81351 10.2038
O 7.46648 1.51931 9.73495
O 0.0838412 7.84374 9.2975
O 5.65473 2.96609 11.1778
Si 4.49242 4.88489 6.31927
Si 6.65747 0.781656 6.10371
Si 6.52956 8.23102 9.46345
Si 9.20049 4.49737 9.56545
Si 8.26701 1.91426 8.30161
Si 7.9954 6.61462 8.0312
O 4.88955 5.58314 10.5063
O 10.1267 17.2963 12.8897
O 9.16981 3.32795 8.3522
O 9.02075 7.8397 8.37498
O 7.22197 1.9487 7.03731
O 8.15875 5.52877 9.13797
O 7.97414 3.96448 4.75542
O 8.31201 5.74162 6.57902
O 7.3778 8.0394 5.63018
O 10.56 5.66657 9.95098
O 7.53791 9.50877 9.23846
O 8.91029 3.6395 10.8879
Si 11.2217 4.40306 2.85876
Si 12.4244 0.397155 4.63888
Si 9.2408 9.37045 8.89412
Si 1.09737 1.88336 11.0097
Si 11.0424 0.831957 6.98358
Si 14.8054 6.02136 6.59816
O 10.4141 9.64654 10.0931
O 12.096 16.7014 10.8476
O 11.8372 1.46122 8.19285
O 15.211 5.65531 8.08618
O 11.1846 17.2486 6.68718
O 13.7004 3.41301 9.02307
O 9.47503 0.98454 7.65226
O 13.9454 11.6991 8.42725
O 13.2517 6.3017 6.29668
O 13.9132 17.1272 8.51093
O 9.70465 10.5729 7.88908
O 15.6174 2.8293 10.1417
Si 14.7695 12.9006 7.58646
Si 3.00517 9.244 5.08293
Si 13.6794 13.7759 11.3131
Si 3.98349 14.5141 10.4976
Si 0.628752 9.3948 8.96404
Si 1.47849 16.6189 7.75714
O 6.41188 15.4306 15.4532
O 2.25944 9.33456 9.14297
O 3.64955 10.9637 7.78449
O 1.91283 15.0703 6.81732
O 2.83168 8.52988 6.53778
O 2.93129 14.2089 4.52938
O 0.94359 12.9366 7.92084
O 2.99059 17.3112 8.18311
O 14.8432 14.5208 12.3285
O 2.74063 14.274 9.52721
O 0.480527 17.4149 6.79445
O 3.48394 11.4378 13.0517
Si 4.58486 13.8125 4.9531
Si 7.02111 9.64171 5.35151
Si 6.64708 14.8524 9.09338
Si 10.1314 12.1534 7.4132
Si 4.51774 11.0938 6.38354
Si 7.72536 15.8693 6.57014
O 5.28121 14.2475 9.5129
O 8.1332 9.86615 11.9462
O 10.8571 10.6148 4.73348
O 11.3118 1.49202 5.45935
O 6.11305 10.5539 6.31668
O 8.16286 15.1092 5.27758
O 4.60761 12.695 6.10203
O 7.16415 17.2014 6.13435
O 6.50825 15.1762 7.50646
O 10.3349 12.6938 8.9282
O 6.60465 16.2943 10.2373
O 9.01359 12.9652 6.46464
Si 9.58425 14.0237 4.97156
Si 1.08572 8.62417 6.33502
Si 10.6506 15.827 7.31238
Si 13.9428 11.0685 9.80396
Si 12.2023 10.8642 5.64751
Si 12.7624 16.2992 9.42309
O 9.10852 16.1287 7.75996
O 12.892 9.98076 10.4483
O 1.35993 9.28357 4.878
O 13.4274 14.7679 9.91343
O 13.6672 10.3862 5.48825
O 2.53693 16.9511 4.45371
O 10.6878 14.5659 6.17275
O 13.7335 17.711 5.53168
O 11.5431 15.5271 8.69869
O 15.5173 10.4487 9.88894
O 11.4261 1.43455 15.936
O 14.0364 12.3467 10.8281
Si 14.3733 4.08615 10.5201
Si 6.52268 1.17399 16.0681
Si 1.62858 7.02441 15.7485
Si 3.48967 2.3809 2.25403
Si 3.99308 2.72901 16.177
Si 3.71981 5.45267 14.4626
O 0.191024 6.21231 16.0396
O 5.668 17.8505 15.5763
O 3.27028 2.57411 0.618872
O 4.65941 6.65034 15.374
O 1.95015 2.44937 12.372
O 3.88929 4.59493 12.7924
O 1.38221 0.4781 14.1184
O 5.03992 9.12673 9.55669
O 2.38295 6.31529 14.3534
O 6.37464 15.8221 12.742
O 1.81918 8.63676 15.3076
O 3.86797 5.11368 1.68924
Si 4.53324 4.14697 11.2834
Si 5.68039 16.6356 11.5393
Si 6.08868 7.30487 15.0177
Si 12.5192 2.47105 15.5683
Si 7.78345 3.2268 14.6535
Si 7.39569 6.94371 12.2271
O 7.05122 6.28013 15.9125
O 9.85518 0.92868 0.8049
O 7.86286 1.73337 15.341
O 8.7616 7.56563 12.9299
O 8.85688 2.96644 13.3194
O 7.512 5.40419 11.7899
O 5.60096 2.32459 16.5463
O 6.84459 7.6527 10.8892
O 6.17616 7.03325 13.4373
O 12.3242 2.86554 14.045
O 3.55501 3.40951 3.51311
O 8.45129 3.75598 16.2046
Si 8.61958 4.39939 12.4443
Si 11.7318 17.5034 12.2764
Si 9.75091 6.50537 13.9239
Si 0.0812581 0.495143 13.1489
Si 13.211 2.20846 12.873
Si 11.8926 6.25 10.7435
O 9.55157 5.96965 15.3939
O 15.3577 0.930391 16.3435
O 14.9831 17.3966 14.2889
O 3.81874 4.18767 15.4737
O 12.5972 16.5073 13.4081
O 13.0561 5.25932 10.6789
O 10.0569 5.16467 12.9259
O 11.7077 7.76246 11.251
O 13.8373 3.31111 11.8457
O 14.6945 1.87236 13.5167
O 11.1465 7.38724 13.9703
O 0.301021 0.436355 11.5682
Si 0.408323 13.8406 13.3564
Si 3.71268 10.0086 9.26521
Si 2.37819 15.6596 14.9717
Si 4.3317 11.799 11.7488
Si 1.80362 11.3988 13.3813
Si 2.85614 1.36897 13.3116
O 2.41324 14.4152 16.0799
O 2.13392 11.4175 15.0479
O 5.94684 11.3416 12.063
O 3.68228 0.238809 12.7609
O 0.800159 10.2826 13.3026
O 6.64881 4.04925 13.9205
O 1.56922 12.9437 12.6783
O 4.05887 15.9115 11.4334
O 1.17814 15.1939 13.9009
O 9.57308 13.952 11.3375
O 3.0737 1.8661 14.9965
O 4.44969 13.3399 11.6706
Si 1.71031 14.3897 8.19869
Si 7.37559 11.039 11.577
Si 7.06113 15.2924 14.0294
Si 9.61208 11.5396 14.8073
Si 9.05783 13.2306 9.94865
Si 9.81201 16.7437 14.3241
O 4.52073 13.3162 0.845436
O 10.4532 14.7163 13.7788
O 7.89778 13.8634 13.6996
O 9.35438 12.6456 16.0341
O 8.26499 11.9771 10.621
O 7.97589 14.1239 9.17695
O 3.65684 11.1454 10.4662
O 12.1061 1.15843 12.2233
O 8.2968 16.3424 14.4833
O 10.7302 10.3653 14.9594
O 8.85784 16.9555 2.21262
O 8.09189 10.6284 14.6323
Si 12.2025 14.8719 13.7383
Si 11.5682 9.4508 11.1616
Si 11.0443 0.156557 16.8837
Si 14.4132 10.7867 0.559092
Si 12.1257 10.1215 14.0971
Si 13.6018 12.5972 15.345
O 10.4916 16.9894 15.7442
O 13.3493 9.62218 1.02034
O 13.0259 8.9531 14.7714
O 1.67634 16.6476 15.9947
O 11.7085 9.93078 12.6168
O 14.9323 13.1696 14.4736
O 12.9362 11.4615 14.3564
O 12.4302 13.7479 12.3315
O 12.6966 14.0361 15.2381
O 15.4735 10.3744 16.4061
O 12.408 17.7114 0.667473
O 13.9415 12.304 -0.075103
324
 Atoms. Timestep: 1000
Si 0.201732 5.17581 0.175486
Si 4.92488 16.352 15.2885
Si 5.23214 7.87084 4.24858
Si 3.82423 2.22168 6.1529
Si 2.21416 1.24701 3.83813
Si 4.11287 5.52412 3.40427
O 3.76265 5.69305 5.10741
O 4.55485 1.35285 9.40509
O 2.89808 2.225 4.84019
O 6.24655 8.95004 15.3794
O 3.28336 1.33833 2.62006
O 2.97718 6.77788 2.81413
O 1.70796 5.30001 0.993863
O 2.85742 7.26354 16.7609
O 5.41196 6.33142 3.83815
O 4.64529 0.746353 6.18875
O 3.86501 8.67356 3.82493
O 4.91965 3.40066 5.84466
Si 2.94587 6.39701 1.19644
Si 8.344 0.213204 1.60505
Si 7.78424 5.46285 5.2634
Si 8.92733 3.22419 3.49175
Si 6.29374 1.47199 3.28206
Si 8.67511 5.95342 2.53065
O 6.38107 5.17784 6.05021
O 6.43835 1.98327 4.77954
O 8.29858 4.26503 2.43428
O 11.8924 4.80128 1.91145
O 7.13105 0.716804 0.789632
O 8.54739 6.37313 1.04917
O 5.53464 2.56533 2.30649
O 8.09094 9.41471 0.608677
O 7.92433 6.39819 3.9178
O 10.5026 3.27579 3.43938
O 6.64158 8.72202 3.66471
O 10.2528 6.02135 3.15543
Si 8.39633 5.92051 16.3237
Si 0.287376 17.686 15.3233
Si 13.2749 4.85381 5.86358
Si 14.6986 1.31495 2.69497
Si 14.6691 2.51484 16.8613
Si 12.8373 5.80268 1.08967
O 12.5032 5.38008 4.30082
O 13.4792 1.66331 3.80741
O 14.6564 2.41029 1.54187
O 12.4982 7.24552 1.76394
O 13.1048 2.94841 16.4743
O 15.3684 3.76316 16.2676
O 14.313 5.13053 1.15506
O 12.5205 5.85544 16.3366
O 14.8774 4.70777 5.71928
O 0.774954 1.8739 3.1833
O 15.4441 7.28568 5.78518
O 12.5278 3.56974 6.57134
Si 1.44451 14.1848 0.670719
Si 1.33576 9.65287 15.8287
Si 2.24935 16.1264 4.21775
Si 4.2423 11.885 2.43048
Si 1.33903 11.1801 1.56637
Si 4.52827 14.4772 1.14867
O 14.0368 14.5163 7.30741
O 3.22718 10.6582 5.4704
O 2.83852 11.2093 2.42322
O 3.59346 16.3287 3.15497
O 1.89869 10.1598 0.419468
O 3.42483 16.358 14.5499
O 1.09939 12.7323 1.3815
O 4.53869 15.8715 0.156014
O 2.83331 14.5359 1.76499
O 5.51471 10.953 1.97244
O 2.89654 2.606 7.65167
O 4.94804 13.0193 3.64397
Si 9.08752 13.5927 12.9385
Si 7.46095 9.65804 15.9754
Si 5.27402 16.1774 3.27888
Si 9.1689 10.8804 4.27136
Si 6.42494 11.7521 0.905474
Si 9.6734 15.3385 1.92258
O 5.33648 15.4726 4.72491
O 8.38911 9.84955 5.26306
O 7.79534 12.4851 1.15509
O 9.77604 14.8116 3.36721
O 6.59303 11.0635 16.4802
O 9.82815 14.0679 0.809558
O 10.0389 12.1547 13.3127
O 8.22615 1.72841 2.76699
O 5.59587 15.0653 2.06444
O 8.54903 10.5186 2.7826
O 6.04772 17.6981 2.96811
O 8.87486 12.508 4.28974
Si 9.26367 12.6259 0.443256
Si 12.1543 7.26189 15.5179
Si 12.4286 16.6652 2.09026
Si 11.7423 8.42917 1.06392
Si 9.35868 10.0222 1.43144
Si 15.1801 16.0749 2.24903
O 11.6875 11.6642 6.87399
O 0.694138 9.00491 7.70435
O 10.3946 8.97014 1.89865
O 0.854054 15.9406 3.41158
O 10.9652 7.9983 16.4161
O 0.0396605 14.9826 0.83232
O 10.2191 11.2837 0.636032
O 15.2242 17.634 2.11051
O 10.9667 16.0923 1.43396
O 15.1242 10.5598 1.92612
O 12.0006 17.1598 3.67068
O 13.6649 15.6808 2.2719
Si 13.0006 2.58572 7.77827
Si 3.08297 1.42921 8.86448
Si 0.68153 6.08386 9.68916
Si 5.85753 1.76828 10.4234
Si 14.24 17.6616 7.22544
Si 3.6492 4.99005 9.29702
O 15.3746 5.05926 10.6084
O 5.80664 0.288349 11.1881
O 1.90721 1.28543 9.95434
O 7.09399 7.96371 8.08816
O 1.08486 16.3718 9.54794
O 4.2378 5.05478 7.81063
O 14.0128 1.46866 7.14403
O 2.41735 6.03238 9.38208
O 3.24646 3.65396 10.2034
O 7.27616 1.59531 9.66449
O 0.422138 7.61476 9.96229
O 5.59353 2.97669 11.4409
Si 4.48263 4.85702 6.21684
Si 6.27247 0.914559 6.14411
Si 6.71182 8.44047 9.50137
Si 9.22098 4.4503 9.63396
Si 8.12801 1.96014 8.26679
Si 8.45921 6.8293 7.89181
O 5.07991 5.22223 10.2346
O 10.7024 17.3488 13.2341
O 9.00799 3.25154 8.40657
O 9.67197 7.92606 8.40911
O 6.83757 2.07873 7.26864
O 8.22923 5.60382 9.1559
O 8.6053 4.1067 5.00764
O 8.65792 6.40051 6.42752
O 5.77816 8.11638 5.78254
O 10.6892 5.21973 9.43477
O 7.92385 9.70312 9.95315
O 9.10063 3.66157 10.9661
Si 11.2394 4.83379 3.39758
Si 12.5916 0.518852 4.71046
Si 9.33672 9.3902 8.89408
Si 0.963724 1.72276 11.1462
Si 10.7835 0.793267 7.04924
Si 15.0258 6.07341 6.79707
O 10.2809 9.79792 10.364
O 11.8043 16.59 10.7751
O 11.6269 1.60332 8.17851
O 0.448724 5.65576 7.99718
O 10.9649 16.8641 6.9284
O 13.7605 3.3822 8.83906
O 9.05514 1.00439 7.39149
O 13.7023 12.0902 8.84171
O 13.307 6.12307 7.01778
O 13.5185 17.0523 8.64634
O 9.52903 10.6495 7.95214
O 15.0456 2.69503 10.844
Si 14.2835 13.5997 8.57288
Si 2.82182 9.21286 5.01986
Si 13.7564 13.7874 11.521
Si 4.10827 14.159 10.5028
Si 0.88271 9.18163 9.37205
Si 1.54392 16.6885 8.00215
O 5.84848 15.0645 14.7415
O 2.48106 9.5462 9.35877
O 4.18249 11.0808 7.87438
O 2.45496 15.2877 7.64004
O 2.66849 8.21769 6.38053
O 2.83825 14.7162 4.88808
O 0.528277 13.4883 9.14005
O 2.60554 0.188987 7.84659
O 14.8845 14.2916 12.5581
O 2.4173 14.0279 10.355
O 0.328086 16.7125 6.91731
O 3.2962 10.8093 12.7917
Si 4.39483 14.0836 4.89367
Si 6.72634 9.52993 5.0417
Si 6.58483 14.4609 8.85408
Si 10.2498 12.0918 7.52153
Si 4.52331 11.3871 6.33492
Si 7.70488 15.7816 6.48215
O 5.16924 13.6946 9.29256
O 7.95663 9.47362 12.4854
O 10.7383 10.5963 4.82647
O 11.2131 1.14044 5.44579
O 5.83085 10.9526 5.48124
O 8.04232 14.9328 5.04195
O 4.44166 13.1596 6.21099
O 6.94039 17.2286 5.99262
O 6.5079 15.3258 7.48757
O 10.3508 12.733 9.31367
O 6.82545 15.8826 9.81154
O 9.10917 12.8869 6.6693
Si 9.45752 13.9572 4.81932
Si 1.08677 8.3959 6.33584
Si 10.6463 15.3302 7.07472
Si 14.1039 11.2471 10.1676
Si 11.9189 11.6096 5.27789
Si 12.4414 16.0071 9.44198
O 9.01912 15.527 7.40581
O 12.9297 10.0698 10.264
O 1.13519 9.02337 4.86325
O 13.6682 14.5728 9.93477
O 12.9191 12.2645 4.38859
O 2.14932 17.591 4.90672
O 10.9139 14.3789 5.80067
O 13.6003 17.406 5.7582
O 11.4776 15.0196 8.59607
O 15.3466 10.2108 10.1044
O 11.3554 1.06575 15.7508
O 14.1994 12.2858 11.3988
Si 14.0721 3.90624 10.3525
Si 6.48574 1.24484 15.9825
Si 1.81542 6.91573 15.5237
Si 3.91757 2.76444 2.05336
Si 3.75613 2.83012 16.0852
Si 3.88706 5.43995 14.2998
O 0.396091 6.46476 16.2295
O 5.93388 17.5614 15.403
O 3.18117 2.99483 0.608162
O 4.83325 6.63329 14.9426
O 1.86579 2.2922 12.346
O 4.02518 4.57239 12.8571
O 1.19607 0.788094 13.9915
O 5.30268 9.13128 9.35069
O 2.32177 5.99572 14.2134
O 6.24895 15.8582 12.2345
O 1.92235 8.37632 15.1163
O 4.33062 5.46491 1.54565
Si 4.48063 4.17394 11.3234
Si 5.67818 16.4412 10.861
Si 6.20138 7.41372 14.7478
Si 12.1854 2.39571 15.403
Si 7.9211 3.57825 14.9058
Si 7.73358 7.19153 12.1642
O 7.0141 6.6626 16.1297
O 9.73905 0.586084 0.789462
O 7.76643 2.09652 15.472
O 9.40557 7.49237 12.4367
O 9.21519 3.34124 13.8397
O 7.72006 5.4582 11.993
O 5.13497 1.97248 16.2519
O 7.10818 7.42762 10.7083
O 6.59761 7.02928 13.3104
O 11.8814 2.95711 13.9542
O 3.80326 3.82776 3.40979
O 8.69548 4.30801 16.2329
Si 8.93847 4.23097 12.4474
Si 12.0691 17.1193 12.4662
Si 10.217 6.50982 13.6036
Si 14.823 0.755128 13.1973
Si 13.0564 2.72465 12.8741
Si 11.6855 6.17166 10.2571
O 9.29897 6.3753 15.0031
O 15.063 0.988307 16.303
O 14.5186 17.2424 14.3722
O 4.13977 4.26426 15.4184
O 12.7737 15.902 13.3653
O 12.9885 5.31724 10.3793
O 10.3482 5.08392 12.8709
O 11.7362 7.57906 10.9462
O 12.754 3.37252 11.5487
O 14.4223 2.39078 13.7347
O 11.6885 6.51978 14.1594
O 15.6058 0.411251 11.8363
Si 0.618374 13.6404 13.5356
Si 4.02752 10.1041 9.20784
Si 2.08233 15.5352 15.1369
Si 4.35113 11.5935 11.8562
Si 1.63144 11.0077 13.2177
Si 2.63144 1.46206 13.6315
O 2.34105 14.2829 16.1033
O 2.12188 10.8603 14.8208
O 5.98581 11.0093 11.9011
O 3.80775 0.57115 13.4331
O 0.555309 9.84612 13.058
O 6.86088 4.54162 14.3752
O 1.66047 12.5611 13.2226
O 4.19672 15.8614 10.6235
O 1.23855 15.1596 13.8449
O 9.46436 14.1999 11.4577
O 2.59084 2.33596 15.0384
O 4.46987 13.2481 11.9415
Si 1.50785 14.7602 9.14367
Si 7.47218 10.6776 11.5735
Si 7.00521 15.4341 13.6418
Si 10.0247 11.2755 14.8364
Si 8.99345 12.9944 10.1298
Si 9.86907 16.4103 14.3091
O 4.94365 12.9236 0.919413
O 10.4311 14.9814 13.6027
O 7.66082 13.9074 13.5569
O 9.2052 12.5329 15.7927
O 8.38895 12.0962 11.6112
O 7.64007 13.1617 9.21333
O 3.91142 11.3557 10.284
O 12.9696 0.846444 12.5353
O 8.21031 16.5475 14.2333
O 11.6918 10.6857 14.8746
O 8.31284 16.3632 1.71029
O 9.23642 9.92562 15.1243
Si 12.0067 14.4708 13.5557
Si 11.6851 9.23405 10.9297
Si 11.1176 17.8085 16.8616
Si 14.3282 10.4771 0.363866
Si 12.7461 9.83982 13.8526
Si 13.9211 12.4082 14.9702
O 10.4094 16.615 15.8416
O 12.8715 9.59204 1.00608
O 12.9851 8.49273 14.6905
O 1.0418 16.4862 16.0123
O 11.9366 9.55089 12.4865
O 15.2595 13.2621 14.831
O 13.8587 11.1294 13.945
O 12.2189 13.6537 12.0468
O 12.5589 13.4413 14.8401
O 15.1982 9.44708 16.2292
O 12.6657 17.5722 0.682181
O 13.9656 11.8367 16.5742
324
 Atoms. Timestep: 1500
Si 0.359434 5.11682 0.444717
Si 5.12168 15.7043 14.918
Si 4.96546 8.45615 4.19221
Si 3.50313 2.68815 6.44747
Si 1.93517 1.83771 4.21757
Si 4.04042 5.84267 3.4906
O 4.20143 6.30991 5.09579
O 4.73568 1.26803 9.41757
O 2.26067 2.91838 5.4267
O 6.13902 8.66665 15.464
O 3.37098 1.68734 3.44214
O 2.73956 6.49005 2.66976
O 1.92598 4.58406 0.681797
O 3.26683 6.68639 16.741
O 5.25899 7.15293 3.00907
O 4.47023 1.33665 6.09504
O 3.53205 9.21584 3.87835
O 4.62056 3.90612 6.6338
Si 3.10572 5.74024 1.14159
Si 8.44558 0.131688 1.51536
Si 8.0764 5.58218 5.29056
Si 9.02859 3.16114 3.62657
Si 6.41222 1.28856 3.4315
Si 9.16311 5.52682 2.33107
O 6.6624 5.64756 6.13961
O 6.87064 1.63408 4.90227
O 8.53334 4.00698 2.39609
O 12.8547 4.77894 1.91571
O 6.85629 0.263381 0.569718
O 8.94152 5.78102 0.830407
O 5.81127 2.58053 2.82755
O 8.2849 9.50901 0.397525
O 8.52836 6.35603 3.69478
O 10.8012 3.05174 3.26979
O 6.02791 9.39209 3.69997
O 10.7043 5.67418 2.86378
Si 8.50601 5.76873 16.0856
Si 0.36488 0.346485 15.6481
Si 13.3785 4.52381 5.96168
Si 14.7089 1.36859 3.05368
Si 14.0501 2.6163 0.398811
Si 13.5368 6.21028 1.38516
O 12.6001 4.78912 4.42882
O 13.7215 1.34559 4.44129
O 13.6163 1.9421 1.8056
O 12.9749 7.63131 2.1537
O 12.8728 2.32504 15.9935
O 14.2197 4.18788 0.189522
O 15.0778 5.95747 1.64412
O 13.2245 6.35742 16.5139
O 15.0508 4.58528 5.71534
O 0.666904 2.34163 3.25579
O 15.304 7.16281 5.39969
O 12.471 3.28418 6.62853
Si 1.59411 13.9655 0.612844
Si 1.48769 9.61259 15.3283
Si 1.99615 16.4124 4.32511
Si 3.96299 12.0379 2.76195
Si 1.5562 10.8826 0.986127
Si 4.46847 14.6341 0.856171
O 13.5406 14.4639 7.40076
O 3.50187 10.9994 5.67162
O 2.91283 11.0499 2.03432
O 3.19744 16.5539 3.30986
O 2.23124 9.89992 16.6819
O 3.6302 16.0667 14.3764
O 1.48937 12.3924 0.64421
O 5.0085 14.8601 16.2099
O 2.93738 14.3421 1.49824
O 5.53583 11.1509 2.44217
O 2.82066 2.28207 7.87125
O 3.59319 13.1021 3.89143
Si 9.38863 13.0105 12.5541
Si 7.13299 9.83771 15.9161
Si 4.86041 16.2239 3.21447
Si 9.00826 10.6612 4.61091
Si 6.22671 11.8547 1.19583
Si 9.73768 15.2117 2.21995
O 4.90478 15.0612 4.56742
O 7.96164 10.0564 5.795
O 7.56195 12.445 1.12388
O 9.73103 15.0902 3.82722
O 6.13792 10.9399 16.6201
O 9.47159 14.0369 1.14312
O 10.099 11.841 13.4554
O 8.09836 1.27826 2.83954
O 5.56784 15.3608 1.91846
O 8.63242 9.73378 3.42196
O 5.98548 17.4377 3.28191
O 9.23994 12.4888 4.33696
Si 9.07241 12.5967 0.694747
Si 12.5345 7.41248 15.5323
Si 12.3309 16.8467 2.09536
Si 11.9448 8.6175 1.24426
Si 9.20905 9.86895 1.75174
Si 15.1333 16.0419 2.2388
O 11.3217 12.0476 6.81693
O 0.223031 8.49353 7.44184
O 10.283 8.63594 1.87625
O 0.603786 15.8229 3.79193
O 11.4223 7.86786 16.8116
O 0.138967 14.851 1.06422
O 9.73739 11.4365 1.58641
O 15.3928 17.747 2.49217
O 11.083 15.7731 1.76709
O 0.253994 10.4022 1.69694
O 12.1015 17.422 3.59102
O 13.6167 15.9412 2.41398
Si 13.0296 2.46875 7.8563
Si 3.12819 1.36896 9.25186
Si 0.946721 6.0892 9.31575
Si 6.04882 1.58403 10.3632
Si 14.2593 17.4181 7.4255
Si 4.1749 5.83899 9.49348
O 0.400282 4.8994 10.3485
O 6.16811 0.303218 11.2911
O 1.96055 1.56439 10.399
O 6.90722 7.79534 7.99863
O 0.789262 16.0383 10.15
O 4.81755 6.2221 8.07782
O 14.2779 1.33002 7.55589
O 2.59537 6.46193 9.47848
O 3.85833 4.24775 10.0669
O 7.35293 1.70193 9.40629
O 0.610825 7.68978 9.76579
O 6.15136 3.0577 11.2306
Si 4.88797 5.52117 6.37683
Si 6.07325 0.970946 6.2014
Si 6.6025 8.43667 9.47671
Si 9.3383 4.53539 9.27701
Si 8.10485 2.26849 7.99314
Si 8.22694 6.90049 7.93546
O 5.48419 5.94124 10.6111
O 10.6445 16.9142 12.7958
O 8.99883 3.4977 8.02304
O 9.16559 7.92505 8.94028
O 6.82841 1.87219 7.09134
O 8.27237 5.69579 9.02687
O 8.75708 4.0063 5.05413
O 8.77896 6.53291 6.27539
O 5.37562 8.78098 5.95164
O 10.9366 5.16466 9.02726
O 7.77742 9.79899 9.6978
O 9.60107 3.75787 10.6986
Si 11.7205 4.50074 3.14381
Si 12.5875 0.217365 4.94586
Si 9.46496 9.41447 9.26032
Si 0.782218 1.86666 11.3969
Si 10.7181 1.00527 7.25197
Si 15.0303 5.97036 6.51984
O 10.5125 9.66923 10.4915
O 11.7956 16.1191 10.6171
O 11.6395 1.75092 8.41836
O 0.743472 5.74877 7.73552
O 10.9941 17.0864 7.53387
O 13.5178 3.51547 8.97173
O 9.23661 1.25231 7.47962
O 13.8281 11.7285 8.16881
O 13.3224 5.88621 6.98806
O 13.4112 16.7574 8.8114
O 9.93824 10.1751 7.95496
O 14.6311 2.45505 10.7504
Si 13.9264 13.3165 8.521
Si 2.65632 9.76877 5.20864
Si 13.35 13.2089 11.2519
Si 4.17903 14.2712 10.803
Si 1.04655 8.99169 8.85393
Si 1.49696 16.3944 8.62542
O 6.09796 14.8129 13.8754
O 2.64447 9.59635 8.51547
O 4.75578 10.8816 7.8393
O 2.12892 14.9173 8.32772
O 2.557 8.40797 6.16771
O 2.29151 15.0835 5.39009
O 0.196955 13.3898 9.4298
O 2.86185 17.4101 8.71779
O 14.5044 14.0172 12.0836
O 2.51332 14.1824 10.9382
O 0.452455 16.9242 7.66501
O 3.67406 11.6054 13.0271
Si 3.66595 14.2298 5.14861
Si 6.45413 10.093 5.23319
Si 6.2127 14.5939 8.955
Si 9.9737 11.9469 7.68715
Si 4.6332 11.8768 6.57636
Si 7.01796 15.7252 6.58887
O 4.69308 14.0586 9.24804
O 8.0959 9.18438 12.1229
O 10.5221 10.6892 5.08773
O 11.374 1.02954 5.64763
O 5.74412 11.5892 5.52956
O 7.74044 14.8778 5.31576
O 3.95101 13.4928 6.61887
O 6.12287 17.0158 6.02809
O 6.08767 14.856 7.36539
O 9.91786 12.5876 9.18419
O 6.35677 15.9299 9.54801
O 8.92295 12.9301 6.93209
Si 9.22702 14.0827 5.06521
Si 0.879373 8.35017 5.93699
Si 9.8237 15.8402 7.57614
Si 14.2541 10.7713 9.55612
Si 10.7873 12.1824 5.28764
Si 12.2875 15.6186 9.25731
O 8.13667 15.9474 7.79551
O 13.3466 9.42714 9.65359
O 0.894098 9.63837 4.86446
O 12.8244 13.6613 9.71568
O 11.4681 13.4538 4.76269
O 1.4426 0.306572 4.70729
O 10.0739 15.0411 6.22813
O 13.2819 16.9478 6.135
O 10.773 15.2356 8.72143
O 0.4264 10.4938 9.33733
O 11.0892 0.821565 15.1072
O 13.9129 11.5716 11.0335
Si 14.2296 4.11117 10.3698
Si 6.3693 0.920869 15.8403
Si 2.23604 6.62246 15.3207
Si 4.11553 2.99525 2.67431
Si 3.8377 2.77908 16.2968
Si 4.62253 5.10602 14.2954
O 0.757509 5.93379 15.9618
O 5.77907 16.9849 15.4263
O 3.58885 2.58658 1.0915
O 4.81531 6.71913 14.4272
O 1.30333 3.07272 12.603
O 4.29643 4.41239 12.7764
O 1.05428 1.10669 14.3075
O 4.94518 8.51877 9.36336
O 2.81648 5.84297 14.1314
O 7.60355 15.5372 11.7483
O 2.09578 8.20059 14.7701
O 4.45601 5.05126 1.71742
Si 5.1431 4.39904 11.3212
Si 6.3025 16.3814 11.1769
Si 6.32993 7.19064 14.7397
Si 12.1246 1.94326 14.5896
Si 7.3877 3.52357 14.3985
Si 8.22404 7.36141 12.1201
O 7.13317 6.27038 15.8719
O 9.80314 0.189728 0.553803
O 7.18523 2.05234 15.0468
O 9.84677 7.50926 12.7159
O 8.46925 3.31418 13.1371
O 8.27301 5.82253 11.6359
O 4.85743 1.67751 15.9602
O 7.1368 7.44808 10.6784
O 7.35374 7.15522 13.5424
O 11.6124 2.54998 13.0713
O 3.89585 4.22161 3.81086
O 8.36469 4.11491 15.6747
Si 9.12947 4.52494 12.2089
Si 12.0952 16.8487 12.0079
Si 10.3438 6.42911 13.8299
Si 15.1103 0.663494 13.4354
Si 13.1803 2.39961 12.3498
Si 12.0864 6.24671 9.79842
O 9.6199 6.57665 15.2714
O 15.0785 1.42509 16.725
O 14.5225 17.4813 14.6723
O 4.25798 4.34642 15.9678
O 12.8118 15.6753 12.9795
O 13.6359 5.88306 10.17
O 10.2716 5.05023 13.162
O 11.9205 7.4582 10.6394
O 13.2647 3.99171 11.7962
O 14.1556 2.063 13.6556
O 11.9845 6.55405 14.1631
O 0.312134 0.287221 11.8908
Si 0.394104 13.9208 13.1853
Si 4.1788 10.0477 8.9835
Si 1.98406 15.8528 14.9648
Si 4.64728 11.4918 11.7806
Si 2.09961 10.9953 12.6545
Si 2.66504 2.86527 13.4988
O 2.14702 14.5155 15.9162
O 1.65151 10.8673 14.1896
O 6.01918 10.5427 11.7121
O 3.80036 1.89839 12.751
O 1.99043 10.1583 11.1729
O 6.27968 4.54304 13.853
O 1.37259 12.6019 12.6993
O 4.9508 15.605 11.6578
O 1.16724 15.4399 13.5076
O 9.80316 13.8718 11.2545
O 2.47518 2.80053 15.0831
O 4.80944 13.1025 11.6098
Si 1.41645 14.4272 9.76297
Si 7.66426 10.3032 11.3438
Si 7.54444 14.9668 13.3771
Si 9.71166 11.2431 14.892
Si 8.80482 13.1924 9.99068
Si 10.101 15.8964 14.1762
O 4.64629 13.0509 1.20791
O 10.3777 14.4726 13.6545
O 8.02707 13.4331 13.4269
O 9.44873 12.5491 15.8054
O 8.35826 11.8646 11.3172
O 7.19943 13.2173 9.53515
O 4.19481 10.993 10.3279
O 13.0094 0.62785 11.7905
O 8.44972 15.667 14.4166
O 10.9565 10.1864 14.6507
O 8.42601 16.3946 2.13873
O 8.106 10.6522 14.7468
Si 12.0887 14.2941 13.5881
Si 12.0274 9.19204 10.7556
Si 11.183 17.5364 16.4322
Si 14.3523 10.4691 0.523986
Si 12.3772 10.0318 13.9371
Si 13.6035 12.4713 15.2674
O 10.7747 16.0318 15.6765
O 13.0257 9.78803 1.28435
O 13.0281 8.90612 14.9743
O 1.27223 16.807 16.1133
O 12.4452 9.32089 12.3827
O 14.8963 13.4292 14.7402
O 13.2746 11.3509 13.9869
O 12.2625 13.03 12.5409
O 12.4044 13.5713 15.0431
O 15.2624 10.1767 16.0199
O 12.5927 17.7038 0.471084
O 14.053 12.0627 16.7047
324
 Atoms. Timestep: 2000
Si 0.703191 4.73446 0.579541
Si 4.75776 15.6919 14.8654
Si 5.12111 7.98795 4.46273
Si 3.46352 2.7515 6.61862
Si 2.0005 2.05347 4.3478
Si 4.41818 5.78365 3.52235
O 4.2038 6.36567 5.33318
O 4.94624 0.971872 9.44886
O 2.11663 2.63769 5.76169
O 6.09375 8.67835 15.8321
O 3.45834 2.00461 3.57767
O 2.84664 6.10637 3.12012
O 2.17608 4.67641 1.1618
O 2.94365 7.06791 0.579396
O 5.51638 6.95875 3.36388
O 4.80554 2.10911 6.08578
O 3.64477 8.84759 3.955
O 3.58901 4.3585 6.65867
Si 3.17394 5.86423 1.45645
Si 8.44215 0.613424 0.970225
Si 7.86302 5.0891 5.231
Si 9.28753 3.01372 3.46423
Si 6.50138 1.51658 3.3231
Si 8.78488 5.15571 2.40755
O 6.49373 4.85063 6.05775
O 7.02818 1.93191 4.80651
O 8.30001 3.60524 2.29124
O 12.2788 5.06762 1.66443
O 6.85677 0.937275 0.126878
O 8.70165 5.50419 0.812516
O 5.83053 2.56462 2.47261
O 8.97433 9.52378 0.627451
O 7.67281 5.65409 3.72692
O 10.7968 2.99 2.89718
O 6.0638 9.37677 3.75704
O 10.2002 5.41831 3.17899
Si 8.0634 5.29323 16.159
Si 0.468698 0.131615 15.5831
Si 13.4283 4.30031 5.67263
Si 14.7473 1.48034 3.11842
Si 14.5011 2.26524 0.313561
Si 13.4977 6.07264 1.11767
O 12.5279 4.43944 4.39668
O 13.5468 1.28348 4.36608
O 14.0386 2.30029 1.89346
O 13.2727 7.5317 1.85467
O 13.6128 2.81999 15.602
O 0.394218 3.32554 16.8901
O 14.9627 5.48082 1.65879
O 13.7275 6.16327 16.1794
O 15.1312 4.26852 5.33948
O 0.811664 2.40782 3.36734
O 0.237702 6.81258 5.31113
O 12.6572 3.01883 6.35812
Si 1.29602 14.665 17.0139
Si 1.20507 9.55063 15.6055
Si 1.91703 16.5316 4.28511
Si 3.83008 12.8351 2.63105
Si 1.71517 11.6103 1.02253
Si 4.3396 15.2467 0.975191
O 13.6623 14.1005 7.44433
O 2.64646 11.0609 5.29616
O 2.99414 11.366 2.30484
O 3.18227 16.7174 3.15579
O 2.13666 10.4241 16.6952
O 3.51065 15.6599 14.0801
O 1.49969 13.1752 0.980902
O 4.93179 15.1255 16.3634
O 2.47887 15.4951 0.864544
O 5.19625 12.0295 3.04414
O 3.19106 2.06013 8.00062
O 3.23484 13.9126 3.82518
Si 9.08085 13.1207 12.609
Si 7.30938 9.6289 16.6164
Si 4.93782 16.4829 3.33636
Si 8.80856 10.959 4.6869
Si 6.25147 11.6626 1.7631
Si 9.01294 15.3398 1.80894
O 4.95029 15.4506 4.58231
O 7.83825 10.4998 5.74147
O 7.42061 12.2365 0.9058
O 8.55083 14.6305 3.33948
O 5.93413 10.3677 0.62612
O 9.06445 14.219 0.683259
O 9.55172 11.5264 13.3002
O 8.1839 1.35342 2.44487
O 5.44162 15.7479 1.93437
O 8.38691 10.6206 3.19389
O 5.85549 17.7575 3.56924
O 9.17912 12.6972 4.56837
Si 9.09509 12.6936 0.553276
Si 12.4835 7.23012 15.3271
Si 11.9233 16.5706 2.24508
Si 12.1644 8.58489 1.20222
Si 9.57106 10.2976 1.96906
Si 14.9781 16.0221 2.44471
O 10.8118 12.3179 6.43857
O 0.0409421 8.96468 7.26393
O 10.7576 8.90637 2.02334
O 0.513116 15.3762 3.80751
O 11.7091 8.05632 16.4884
O 15.3371 15.3293 0.947226
O 10.2308 11.7875 1.54403
O 15.2286 17.6752 2.50417
O 10.5354 15.8837 1.9232
O 0.328067 10.9832 1.57278
O 11.4097 17.3409 3.65507
O 13.2233 15.645 2.64129
Si 13.1011 2.41913 7.82969
Si 3.38152 1.16232 9.38406
Si 1.29189 6.11527 9.16256
Si 6.20564 1.58196 10.4803
Si 13.869 17.1264 7.50848
Si 4.26036 5.33649 9.40055
O 0.578165 5.06347 10.1202
O 6.03502 0.622671 11.7954
O 2.95659 1.52785 10.9555
O 7.55555 7.93228 8.12583
O 0.905399 16.1124 9.96242
O 5.30146 5.77995 8.00873
O 13.9012 1.03478 8.01283
O 2.81183 6.07557 9.18099
O 3.77214 3.62637 9.78277
O 7.64154 1.43115 9.84536
O 0.57099 7.63097 9.37717
O 5.84626 2.94175 11.2706
Si 4.91457 5.36601 6.3793
Si 6.2462 1.46182 6.35605
Si 6.87441 8.40684 9.65162
Si 10.0537 4.72174 9.13544
Si 8.2794 2.10168 8.40837
Si 8.77424 6.97077 7.7317
O 5.02639 5.44804 10.9381
O 10.0277 16.764 12.699
O 9.15778 3.37857 8.79458
O 10.0331 7.92433 8.18129
O 6.98633 2.38643 7.44711
O 8.84564 5.80639 8.81679
O 8.65249 3.51948 4.88942
O 8.81845 6.00125 6.17463
O 5.75767 8.27676 6.19072
O 11.5543 5.23254 8.74425
O 7.91481 9.83584 9.62338
O 10.0175 4.68671 10.677
Si 11.6978 4.53903 3.03598
Si 12.4129 0.157109 4.86157
Si 9.63267 9.48488 8.73034
Si 1.34041 2.04915 11.3641
Si 10.7306 0.985892 7.21562
Si 15.2756 5.60742 6.2303
O 10.3119 10.0399 10.1262
O 11.6459 15.8386 10.7922
O 11.6141 2.04163 8.1008
O 1.15646 5.54212 7.35738
O 10.7047 17.2343 7.69424
O 14.054 3.63645 8.52489
O 9.16805 1.43587 6.90338
O 13.3751 11.7328 8.71544
O 13.5866 5.69231 6.54163
O 13.2094 16.6184 8.94525
O 9.34336 10.4779 7.54229
O 0.229275 2.51534 10.2555
Si 13.978 13.1687 8.5537
Si 2.49419 9.50994 4.90529
Si 13.8745 13.0453 11.51
Si 4.2769 14.2353 10.7477
Si 1.04986 9.09702 8.70372
Si 1.40354 16.556 8.38788
O 5.84117 14.6298 14.167
O 2.59496 9.33868 9.07935
O 3.73054 11.3069 8.02773
O 2.06291 15.0684 7.99408
O 2.43866 8.44107 6.21882
O 2.70867 15.7171 5.5023
O 0.277286 13.1278 9.16253
O 2.63675 17.44 8.81457
O 15.5084 13.4112 11.725
O 2.6894 14.1582 10.3762
O 0.29108 16.856 7.41183
O 3.77375 10.6305 12.9621
Si 3.63446 14.4407 5.19151
Si 6.16762 9.90098 5.31053
Si 6.55753 14.9869 9.01356
Si 9.45487 12.3163 7.31048
Si 3.92926 11.7164 6.53359
Si 7.09722 16.099 6.7966
O 5.1471 14.2104 9.49649
O 8.83443 8.93227 11.7523
O 10.3919 10.6888 4.81304
O 11.3029 1.0587 5.68937
O 5.39545 11.3285 5.56532
O 7.28955 15.2716 5.44228
O 3.9818 13.276 6.16675
O 6.58073 17.5506 6.33663
O 5.90719 15.3242 7.44996
O 9.48672 12.2469 9.07345
O 6.41983 16.4362 9.7705
O 8.40535 13.5041 6.88259
Si 8.64301 14.3532 5.05964
Si 0.713787 8.25317 5.8028
Si 10.0327 15.7804 7.36068
Si 13.7764 10.6788 9.97361
Si 11.0737 12.1868 4.80994
Si 12.3239 15.347 9.33673
O 8.42446 15.9518 7.66663
O 12.9646 9.32361 10.172
O 0.816792 9.10273 4.42842
O 13.2748 14.0405 10.0396
O 12.2651 12.2991 3.82425
O 1.73439 0.45103 4.79418
O 10.3195 15.0002 5.93955
O 13.0685 16.791 5.97115
O 11.0147 14.8541 8.40319
O 15.2946 10.2737 9.34103
O 12.0332 0.729135 15.4637
O 13.5001 11.3876 11.3304
Si 14.4254 3.96209 10.212
Si 6.23747 0.798105 15.3766
Si 2.42781 6.61993 15.846
Si 4.30752 3.09824 2.63212
Si 4.17027 2.83728 16.3268
Si 4.91228 4.98856 14.4398
O 0.946156 5.71916 16.0322
O 5.87668 16.9849 14.8833
O 3.91682 2.48881 1.10053
O 5.36995 6.45443 13.8273
O 1.73177 2.92658 12.7338
O 4.33785 3.86948 12.9665
O 0.753502 1.69991 14.9771
O 5.12948 9.16928 8.91549
O 3.47722 5.86369 14.9746
O 6.95436 15.7914 11.9996
O 1.86321 8.0587 15.4224
O 4.56562 5.15507 1.75442
Si 4.60074 3.99041 11.243
Si 5.77002 16.7747 11.2832
Si 6.43179 7.34105 14.6759
Si 12.3296 2.22503 14.8247
Si 7.48519 3.21882 13.9889
Si 8.64712 7.62269 12.7964
O 6.89808 6.12603 15.7646
O 9.81249 1.36005 17.0547
O 6.95611 1.75514 14.3723
O 10.2231 7.48523 13.4352
O 8.4822 3.14795 12.7338
O 8.20602 6.04714 12.3312
O 4.80627 1.47653 15.7031
O 6.59386 7.58486 11.0588
O 7.80703 8.063 13.9986
O 11.5699 2.69555 13.4946
O 4.58277 4.05784 3.97255
O 8.00241 3.75873 15.7226
Si 9.11376 4.76367 12.2456
Si 11.4819 16.9621 11.9065
Si 10.5409 6.1214 14.102
Si 15.1569 1.18267 13.5193
Si 12.5759 2.12352 12.1959
Si 12.2255 6.26248 10.0841
O 9.40516 6.01777 15.2376
O 14.8129 0.569748 16.8154
O 15.0912 17.295 14.3023
O 5.24287 4.2238 15.8913
O 12.4626 16.025 12.8925
O 13.4588 5.47059 10.4226
O 10.603 4.82434 13.1485
O 11.4887 7.33516 10.974
O 13.2284 2.95322 10.9657
O 13.6557 1.77983 13.3142
O 12.1498 5.95382 14.4938
O 0.633674 0.787365 12.2426
Si 0.878137 13.3534 13.2641
Si 3.94143 10.1571 9.36792
Si 1.89184 15.6781 14.3879
Si 4.93125 11.5422 12.1133
Si 2.17526 11.0924 12.8875
Si 3.29151 2.48751 13.5981
O 1.56701 14.3026 15.3442
O 1.63999 10.234 14.2
O 6.46348 10.6808 11.7006
O 3.59176 0.978539 13.4317
O 0.955118 10.9283 11.6845
O 6.52354 4.40641 13.9646
O 2.28679 12.6929 13.6702
O 4.28715 16.0967 11.5012
O 1.09438 14.9385 13.0231
O 9.7379 13.9046 11.3578
O 3.05091 3.03619 15.185
O 4.5587 13.1661 11.983
Si 1.46097 14.6241 9.51775
Si 7.86216 10.1538 11.3763
Si 7.15742 15.2514 13.5386
Si 9.37964 11.1079 14.8605
Si 8.98869 13.2345 10.2149
Si 9.82186 16.1001 14.1954
O 4.70372 13.549 1.37565
O 10.7119 14.5996 13.909
O 7.84811 13.6295 13.5963
O 9.56979 12.4053 15.7966
O 8.43737 12.0285 11.2004
O 7.58671 13.9623 9.70612
O 4.21779 10.7844 10.7045
O 11.9184 0.80932 11.3963
O 8.19352 16.1485 14.4313
O 10.3356 9.84515 14.8508
O 8.24858 16.6494 1.16725
O 7.88324 10.4117 15.2695
Si 12.2827 14.4804 13.6527
Si 11.4636 9.13497 10.8809
Si 10.9378 17.8456 16.5305
Si 14.531 10.4147 0.556459
Si 11.8361 9.73988 14.0155
Si 13.7129 12.2777 14.9187
O 10.451 16.4516 15.6262
O 13.1556 9.90709 1.20683
O 12.8724 8.52718 14.2295
O 1.83804 16.7658 15.4936
O 11.3193 9.67698 12.4426
O 14.84 12.2853 13.7167
O 12.4645 11.0854 14.5915
O 12.6622 13.2964 12.6061
O 12.896 13.9447 15.1676
O 14.9664 9.53138 15.8885
O 12.0596 -0.0156787 0.956202
O 14.4976 11.7489 16.213
324
 Atoms. Timestep: 2500
Si 0.701915 4.60654 1.05136
Si 4.93438 16.0788 15.14
Si 5.53064 8.46904 3.99529
Si 3.65162 2.61445 6.21064
Si 1.83583 1.73477 3.96394
Si 4.96593 5.46179 3.96914
O 5.25875 6.10768 5.45221
O 4.82875 1.36973 8.88337
O 2.51625 2.44919 5.15402
O 6.21453 8.51495 16.5619
O 2.71406 2.26102 2.7734
O 3.37709 5.77366 3.90887
O 1.64942 4.79841 2.24128
O 2.72841 6.70787 1.1821
O 5.79383 7.06318 3.49475
O 4.72138 1.45008 6.18317
O 3.98335 8.90388 3.86606
O 4.10339 4.0716 6.74214
Si 3.0389 5.61526 2.32114
Si 8.43664 0.311835 1.0548
Si 8.15826 5.25148 5.40376
Si 9.65379 3.28986 3.9019
Si 6.56014 1.18219 3.26351
Si 8.64184 5.18472 2.48194
O 7.12983 4.4144 6.42036
O 7.17641 1.85057 4.74728
O 8.36507 3.45728 2.85153
O 12.3648 4.92119 0.893455
O 7.57271 0.340138 16.4642
O 7.91425 5.38586 1.10389
O 5.56016 2.041 2.42961
O 8.60273 9.05572 0.273795
O 7.66282 5.5836 3.86266
O 10.9921 3.35804 3.02142
O 6.17568 9.94692 3.2809
O 10.1995 5.77417 2.44717
Si 8.10954 5.28816 16.3245
Si 0.404157 17.8221 15.393
Si 13.2436 4.76711 5.27139
Si 14.3455 1.6333 2.87393
Si 14.5602 2.31002 0.147474
Si 13.5008 6.15961 1.02464
O 12.3424 5.18514 4.05836
O 13.0198 1.564 4.04266
O 13.6688 2.31986 1.54657
O 12.8252 7.22279 2.22317
O 14.105 2.99612 15.6059
O 0.506172 3.06739 0.728149
O 14.7003 5.17647 1.54289
O 13.8706 7.21249 16.6839
O 14.9403 4.72431 4.7713
O 0.385266 2.31274 3.2588
O 0.453 7.25433 5.5255
O 12.7498 3.5135 6.3806
Si 1.2135 14.588 0.531425
Si 1.35384 9.37339 15.9851
Si 1.9013 16.5763 4.11384
Si 4.13426 12.7618 2.30094
Si 1.56477 11.6646 1.36108
Si 4.3097 15.1775 1.2009
O 13.8382 14.0245 7.10478
O 3.39611 11.0669 4.991
O 2.92903 11.6258 2.24356
O 3.24853 16.9548 3.2607
O 2.06983 10.7077 16.8604
O 3.47977 15.2807 14.6596
O 1.32576 13.2688 1.41007
O 4.94907 16.2602 16.8855
O 2.73474 15.3883 1.07198
O 5.46771 12.0746 3.07546
O 2.78717 2.09543 7.5784
O 3.60051 13.6924 3.54852
Si 8.98492 12.5071 12.388
Si 7.08557 9.80213 16.8316
Si 4.77829 16.6325 3.76682
Si 9.15809 11.1416 3.99213
Si 6.69997 11.1662 2.26369
Si 9.41944 15.0914 2.23711
O 4.60065 15.7026 5.00367
O 8.01895 10.8672 5.30404
O 7.64184 12.3037 1.29238
O 8.44878 14.8358 3.46727
O 6.11498 10.5849 0.772688
O 9.66918 13.8374 1.14773
O 9.1225 11.209 13.2558
O 7.75869 1.23846 2.23844
O 5.15268 15.7343 2.44752
O 8.58417 10.4855 2.52337
O 6.02506 17.6411 3.69382
O 9.46794 12.7125 3.52004
Si 9.03198 12.4525 0.504766
Si 12.6371 7.76076 15.8519
Si 12.1546 16.2482 2.35951
Si 12.1614 8.54544 1.46821
Si 9.67745 9.73611 1.32954
Si 14.9634 16.3913 2.197
O 11.355 12.4038 6.34851
O 15.5147 9.24986 7.20374
O 10.7103 8.92264 2.21749
O 0.571504 15.9074 3.31754
O 11.4692 7.96448 0.12291
O 15.2975 15.4879 0.851032
O 10.0105 11.1355 0.767928
O 14.716 0.127445 2.20295
O 10.9536 15.3136 2.57895
O 15.31 11.2739 1.57424
O 11.5176 17.4784 3.39186
O 13.5258 15.6009 2.78152
Si 13.2315 2.50745 7.53404
Si 3.15565 1.07154 8.68292
Si 1.10761 5.63047 9.09259
Si 5.63044 1.49626 10.4027
Si 14.1906 17.3201 7.07206
Si 4.26279 5.36665 9.67849
O 15.4204 4.92595 10.0535
O 5.39038 0.206831 11.3367
O 2.60862 1.07834 10.1774
O 7.12235 8.12495 8.03419
O 1.12878 15.5242 9.48554
O 5.29954 5.60163 8.34005
O 14.2857 1.35385 7.19431
O 2.64422 5.90475 9.34666
O 3.96885 3.77885 10.0349
O 7.24644 1.68892 9.84876
O 0.282303 7.46544 9.19015
O 5.53063 2.6653 11.4122
Si 5.42796 4.98519 6.76756
Si 6.34678 1.40422 6.44302
Si 6.156 9.02846 9.05148
Si 9.43465 4.89661 9.27153
Si 8.19204 2.11633 8.70728
Si 8.32024 7.25894 7.66563
O 5.19436 5.4799 11.0525
O 9.82724 16.6548 12.8534
O 8.98843 3.53036 8.77242
O 9.52996 8.31967 7.29692
O 7.09898 2.44872 7.50759
O 8.72484 6.3091 8.80428
O 9.37344 4.00373 5.38483
O 8.84239 6.32611 6.24874
O 6.24684 8.73425 5.4919
O 11.0462 5.11221 8.89041
O 7.19337 10.4391 9.02277
O 9.88114 4.77851 10.8832
Si 11.5892 4.86755 2.58432
Si 12.2539 0.416335 4.83091
Si 9.84079 9.6585 8.12374
Si 1.26332 1.71042 11.2055
Si 10.7472 0.981154 7.1438
Si 15.3237 5.76942 6.10202
O 10.2236 9.4123 9.58396
O 12.0694 16.0574 10.6872
O 11.5603 2.09309 8.0912
O 0.644386 5.34654 7.59869
O 11.1739 17.2759 7.15169
O 13.7961 3.59713 8.58684
O 9.40154 1.1607 7.92785
O 13.6046 11.5553 8.59762
O 13.5701 6.01561 6.10266
O 13.3368 16.9118 8.62057
O 9.24493 11.0293 7.39064
O 0.150133 2.23379 10.3599
Si 13.741 13.0854 8.2518
Si 2.86766 9.60249 4.94826
Si 13.9278 13.2329 11.9269
Si 4.40902 14.0079 10.7053
Si 0.729043 9.01304 8.96724
Si 1.70076 15.8834 7.99219
O 5.99097 14.749 14.7642
O 2.32104 9.2459 8.98865
O 3.32916 11.2651 7.76495
O 2.57463 14.5512 7.75143
O 2.65481 8.55103 6.25991
O 2.19811 15.1975 5.01834
O 0.439267 12.8699 8.65466
O 2.85623 17.2669 7.91909
O 15.3508 14.0847 11.7557
O 2.78387 13.5723 10.2529
O 0.291148 16.4768 7.17116
O 3.40099 10.342 12.9725
Si 3.73652 14.4693 4.97787
Si 6.3787 10.3493 5.26998
Si 6.49198 14.5961 9.14351
Si 9.87396 12.5735 7.0657
Si 3.95776 11.9148 6.31927
Si 7.3028 16.1745 6.93445
O 5.18907 13.5872 9.25086
O 8.5773 9.02565 11.693
O 10.6761 10.6243 4.71522
O 10.9766 1.32499 5.35241
O 5.64791 11.5789 6.26822
O 7.55062 15.8418 5.45492
O 4.21169 13.4372 6.13397
O 6.64709 17.6972 7.19782
O 6.58712 15.0166 7.56649
O 9.90012 13.1258 8.65746
O 5.83148 16.0966 9.8768
O 8.66126 13.1514 6.10761
Si 8.73008 14.6422 5.08094
Si 0.961536 8.76364 6.00704
Si 10.4983 15.7733 6.87816
Si 13.9485 10.6964 10.0622
Si 11.5785 11.9598 4.73096
Si 12.4915 15.5597 9.15531
O 8.99761 16.0625 7.13212
O 12.7064 9.433 10.1785
O 1.27741 9.60195 4.72516
O 13.3834 14.2445 9.62461
O 12.7835 12.0755 3.83147
O 1.34097 0.348262 4.59678
O 10.4195 15.1708 5.41783
O 13.3836 17.1767 5.62196
O 11.2422 15.0113 8.03772
O 15.553 10.0978 10.0896
O 12.1157 1.12197 15.9648
O 13.5154 11.8026 11.2106
Si 14.3727 3.56021 9.99997
Si 6.37708 0.888217 15.5598
Si 2.44 6.37818 16.3289
Si 4.21972 3.0934 2.45132
Si 4.34725 2.92183 16.2633
Si 5.1205 5.25694 14.7106
O 1.3951 5.10585 16.3754
O 5.65771 17.4373 14.6942
O 3.45432 3.24463 0.830269
O 5.34217 6.78951 14.0384
O 1.64126 2.81924 12.263
O 3.62414 4.36025 12.9491
O 0.837311 1.15532 14.1024
O 4.85265 9.35322 8.19639
O 3.38133 5.36096 15.3205
O 6.54523 15.8381 12.6478
O 2.10063 7.97348 16.179
O 4.74357 5.14896 2.29517
Si 4.48889 4.03987 11.6392
Si 5.66988 16.3324 11.5638
Si 6.5454 7.55695 14.9908
Si 12.6468 2.33382 14.9414
Si 7.26747 3.33214 14.0176
Si 8.78999 7.81061 12.8805
O 6.60176 6.20804 16.1079
O 9.9648 1.04868 0.842281
O 6.31673 2.05405 14.3454
O 10.1844 7.54594 13.7432
O 8.14727 3.72132 12.7238
O 8.36716 6.40744 12.141
O 5.16292 1.41778 16.3655
O 6.50753 8.7021 10.6215
O 7.86197 8.15138 14.2021
O 11.9492 2.89466 13.6246
O 4.81043 3.73016 4.01453
O 8.1408 3.69936 15.4927
Si 9.18112 5.03935 12.4715
Si 11.3626 16.8148 12.1486
Si 10.4695 6.30258 14.7282
Si 15.0965 0.332182 13.1688
Si 12.6089 2.08089 12.3472
Si 11.7895 5.79009 10.1943
O 9.51022 6.17847 16.2527
O 14.7845 0.797658 16.3838
O 14.8066 16.6256 14.332
O 5.57323 3.93266 16.129
O 12.372 16.2367 13.1558
O 12.7842 4.91579 10.9386
O 10.1945 5.15654 13.6705
O 11.1766 7.31078 10.8673
O 12.9861 3.04785 11.2055
O 13.7584 1.21775 13.6446
O 12.0953 6.42529 15.0839
O 0.465996 0.22562 11.7978
Si 0.752348 13.4075 13.2456
Si 3.55431 10.0822 8.94127
Si 1.9479 15.2941 14.9004
Si 4.36294 11.0307 11.9046
Si 2.15338 11.3476 13.6502
Si 2.90159 2.65207 13.3321
O 1.07763 14.2484 15.9622
O 1.37586 9.89403 14.1764
O 6.04121 10.7125 11.7888
O 3.68628 1.50843 12.7027
O 1.57532 11.9884 12.3974
O 6.279 4.51807 13.6442
O 2.03916 12.6876 14.6352
O 4.38669 15.1932 11.6692
O 1.04626 15.1537 13.5449
O 10.3641 12.9472 11.3713
O 3.37536 2.92912 14.9508
O 4.58187 12.8449 11.792
Si 1.57028 13.9111 9.18798
Si 7.3147 9.9555 10.7393
Si 7.11661 14.7501 13.763
Si 9.09298 11.0175 14.8197
Si 9.03923 13.1282 10.0066
Si 9.65068 16.1617 14.4241
O 4.30053 13.4489 0.876318
O 10.5448 14.7793 14.4623
O 7.92241 13.493 13.0961
O 8.95695 12.4771 15.7374
O 8.28183 11.8846 10.736
O 8.03576 14.3005 9.60534
O 4.032 10.4506 10.255
O 11.7547 0.669261 11.9797
O 8.12951 15.5391 14.7862
O 10.5549 10.0342 14.8223
O 9.26601 16.6301 1.32412
O 7.78538 10.3307 15.377
Si 12.1766 14.6977 13.7302
Si 11.2846 8.92664 10.8792
Si 11.0992 0.115538 16.8909
Si 14.4138 10.53 0.29366
Si 11.7918 9.92495 13.8667
Si 13.4939 12.3255 14.6882
O 10.1927 16.9733 15.7365
O 13.216 9.60533 0.988224
O 12.8355 8.82272 14.6618
O 1.63724 16.7581 15.84
O 11.4087 9.33184 12.5155
O 14.6581 12.6786 13.502
O 12.3812 11.4536 13.9806
O 12.5775 13.7237 12.5686
O 13.0578 13.9229 15.0665
O 15.149 9.39141 16.4618
O 11.9359 16.8452 0.917197
O 14.3852 11.7683 16.0811
324
 Atoms. Timestep: 3000
Si 0.599813 5.24816 1.0938
Si 5.58917 15.9573 15.3913
Si 5.21921 8.62348 3.8001
Si 3.73552 2.25856 6.5442
Si 1.923 2.24393 4.36142
Si 4.72131 5.74224 4.21394
O 5.07375 6.26357 5.72087
O 4.58043 0.535848 9.56979
O 2.35476 2.78291 5.89649
O 5.70701 8.6401 16.3191
O 3.35318 2.37004 3.47614
O 3.18914 6.29688 3.95886
O 1.50767 4.89863 2.34115
O 2.68532 7.39029 1.3895
O 5.56617 7.03965 3.47018
O 4.42819 0.943348 5.92474
O 3.73389 9.32736 3.53708
O 4.76759 3.34044 6.80067
Si 2.85492 5.99309 2.29135
Si 8.31712 17.5551 1.16729
Si 8.27441 5.10105 5.45144
Si 10.0207 3.08172 4.54697
Si 6.74199 0.866316 3.17569
Si 8.49357 4.52255 2.47573
O 6.98369 4.44848 6.14566
O 7.01117 1.16061 4.72413
O 9.17818 2.83431 3.22525
O 12.2716 5.02571 1.55865
O 7.22064 0.176817 16.8899
O 7.99855 5.39747 1.06843
O 5.92829 2.5346 2.39281
O 8.0156 9.01622 0.73653
O 7.77056 4.75933 3.86683
O 11.6032 3.41967 3.9021
O 6.28275 10.2668 3.03641
O 10.0474 5.18268 2.65613
Si 7.98868 5.39808 16.4312
Si 0.538826 17.8628 15.5217
Si 13.3221 5.23991 5.38198
Si 14.6775 1.65372 3.06868
Si 14.6907 2.48 0.135698
Si 13.3447 6.30305 1.26524
O 12.2384 5.83961 4.29316
O 13.4738 1.7956 4.0346
O 14.0272 2.39836 1.59036
O 13.2357 7.75714 1.94412
O 14.113 2.56257 15.5994
O 0.125368 3.79114 0.172389
O 14.6517 5.56657 1.86115
O 13.302 6.56743 16.529
O 14.927 5.38377 4.97352
O 0.702355 2.31884 3.21663
O 0.694413 7.48576 5.91342
O 13.2067 3.80875 6.24068
Si 1.66808 14.3666 0.775503
Si 1.14725 9.66967 15.9535
Si 2.28343 16.9469 4.43929
Si 3.80932 12.6816 2.88292
Si 1.77876 11.5887 1.15013
Si 4.25337 14.8511 1.04106
O 14.7933 14.2879 6.95346
O 3.91536 11.3615 5.01381
O 2.6482 11.4724 2.68863
O 3.66824 17.0129 3.55425
O 2.03168 10.7956 16.6586
O 4.07405 15.4688 14.7207
O 1.10991 12.8698 0.763202
O 5.43864 15.3771 16.9322
O 2.7452 15.2689 1.48741
O 5.45314 12.4817 2.84293
O 3.21734 1.79396 7.9405
O 3.27491 13.362 4.14597
Si 8.5259 12.6986 12.3451
Si 6.79535 9.65146 16.6877
Si 4.91478 16.0446 3.66785
Si 9.77448 10.6191 4.07086
Si 6.39427 11.5339 1.959
Si 9.36103 14.7894 2.18286
O 5.06346 15.0366 5.06644
O 8.28319 10.5978 5.17085
O 7.72127 12.2871 1.52612
O 8.90113 14.0989 3.48201
O 5.7588 10.5926 0.741041
O 9.80114 13.8407 0.99613
O 9.37723 12.214 13.6696
O 8.15499 0.519325 2.41211
O 5.1046 14.929 2.48369
O 8.95152 9.32872 3.07625
O 6.02482 17.1933 3.09484
O 10.53 12.057 3.94615
Si 9.33063 12.3928 0.588739
Si 12.6433 7.66036 15.4864
Si 12.0924 16.3526 2.09212
Si 12.2812 9.01795 1.42125
Si 9.41122 9.33978 1.43762
Si 15.2882 16.289 2.532
O 11.8481 12.2231 6.64663
O 0.348733 9.64445 7.15722
O 10.8073 8.46201 1.64635
O 0.9034 16.2542 3.6768
O 11.9861 8.67069 16.7079
O 0.40138 15.2853 1.30207
O 10.1607 10.9365 0.972611
O 14.7467 17.8378 2.98424
O 10.5886 15.7342 2.60023
O 0.431152 10.6745 1.70824
O 11.7913 17.765 3.40978
O 13.4598 16.0402 2.81006
Si 13.2349 2.68916 7.44554
Si 3.10172 0.54575 8.83945
Si 0.707417 5.92113 8.99352
Si 5.5952 1.28658 10.5746
Si 14.4938 0.181041 6.83235
Si 3.87364 5.42008 9.38484
O 15.2312 5.04353 10.0229
O 5.94895 0.122901 11.7541
O 2.03539 0.248252 10.0674
O 6.99602 7.98111 7.27958
O 0.706347 16.0011 9.47931
O 4.99522 5.71741 8.10148
O 14.5224 1.80017 6.88684
O 2.33229 5.98377 9.58404
O 3.49357 3.86675 9.78403
O 7.00359 1.09024 9.58383
O 15.5468 7.31415 9.30018
O 5.4318 2.90114 11.0779
Si 5.33683 4.78255 6.52221
Si 6.04026 0.820938 6.10449
Si 5.95371 8.08547 8.51609
Si 8.86242 5.00651 9.49166
Si 7.61864 2.189 8.62059
Si 8.48652 7.25307 7.53496
O 4.71212 5.37829 10.8795
O 10.2679 16.5876 12.112
O 7.86826 3.69981 9.05347
O 9.46935 8.23956 8.14448
O 6.68659 1.86088 7.31718
O 8.18497 6.19793 8.70806
O 9.69279 4.23049 5.78875
O 8.97829 6.44571 6.15795
O 6.28325 8.77296 5.17912
O 10.4611 5.52106 9.15372
O 7.71497 9.79187 9.31541
O 9.47531 4.57967 11.027
Si 11.6895 4.87358 3.15896
Si 12.5307 0.748142 4.65102
Si 9.17097 9.72555 8.866
Si 0.868683 1.26282 10.8418
Si 10.3043 1.59995 7.09392
Si 15.1143 6.34594 6.33182
O 10.1676 10.1504 9.93878
O 12.8953 16.5708 10.4015
O 11.777 2.0667 7.62763
O 15.2584 5.38896 7.66291
O 10.2038 17.8291 6.91317
O 13.1876 3.46335 9.02039
O 9.17757 2.30639 7.99961
O 13.6171 12.1316 8.76507
O 13.508 6.39403 6.50067
O 13.4116 17.4888 8.17724
O 9.5069 10.7903 7.63155
O 15.3488 2.14565 10.1653
Si 14.3134 13.4147 8.22096
Si 3.06631 10.0472 4.73
Si 14.1802 12.8409 12.4894
Si 4.11309 14.1089 10.3917
Si 0.782575 8.93706 8.60101
Si 1.43545 16.2862 7.85543
O 6.26434 14.6073 14.8345
O 2.27462 9.4717 9.15595
O 3.94368 11.236 7.79188
O 1.96362 14.7093 7.62734
O 3.07126 9.00219 5.98533
O 2.46996 15.756 5.53292
O 0.26238 13.1352 9.16073
O 2.98048 17.0673 7.97505
O 15.4906 13.6578 11.9656
O 2.47736 14.1732 10.1538
O 0.463688 17.3569 7.19824
O 3.70247 10.2976 12.9286
Si 3.65277 14.4911 5.4711
Si 6.76415 10.4249 4.88316
Si 6.40127 14.531 8.77255
Si 10.4018 12.2772 7.46652
Si 4.52816 12.0469 6.5314
Si 7.41568 15.8244 6.64156
O 4.99146 13.6714 9.11223
O 8.33084 8.45735 11.5485
O 11.0692 9.95558 5.06096
O 10.4447 1.70859 5.26459
O 6.1145 11.6644 6.09133
O 7.98865 15.387 5.35265
O 3.90811 13.5477 6.70114
O 6.515 17.3138 6.61381
O 6.21756 14.7617 7.15242
O 10.0591 13.1089 8.81562
O 6.378 15.865 9.67733
O 9.42043 13.0112 6.12663
Si 9.48775 14.1715 5.16377
Si 1.1473 8.92571 5.96083
Si 10.1538 16.2182 7.13521
Si 14.0002 10.891 9.79629
Si 12.0012 12.0798 4.90264
Si 12.8318 16.1871 8.9667
O 8.60818 15.9422 7.56832
O 12.5178 9.93466 9.75451
O 1.20554 10.0385 4.60178
O 13.6288 14.6875 9.13596
O 13.3597 12.4457 4.21685
O 1.40549 0.555039 4.79707
O 10.591 15.4055 5.52546
O 12.9917 0.222825 5.98105
O 11.2444 16.1311 8.30972
O 15.3744 9.99131 9.65934
O 11.7878 1.19718 15.9906
O 14.0687 11.6577 11.2508
Si 13.9248 4.1279 10.2419
Si 6.54717 0.963754 15.5257
Si 2.54798 6.92193 16.8041
Si 4.17305 2.93965 2.14372
Si 3.81592 2.42677 16.2509
Si 4.589 4.91524 14.8408
O 1.25475 6.13695 16.9234
O 6.04434 17.3711 14.7827
O 3.58593 2.23768 0.8252
O 5.02726 6.44267 14.2642
O 1.57854 2.12392 12.0723
O 3.25533 3.86807 12.5598
O 0.816322 0.997352 14.2574
O 4.88046 9.20105 8.75323
O 3.30037 6.0112 15.689
O 6.70984 15.4604 12.2851
O 1.95892 8.30981 16.1417
O 3.78523 4.65773 1.85864
Si 4.24078 3.84134 11.2629
Si 5.94892 16.3712 11.1806
Si 5.80568 7.61388 14.9948
Si 12.5824 2.17593 14.9333
Si 7.14668 3.30567 14.29
Si 7.91552 7.49675 12.5964
O 7.07711 6.47944 15.6428
O 9.85684 0.0553091 0.298579
O 6.87044 1.65269 14.0381
O 9.01805 7.35131 13.8148
O 8.04987 3.47405 12.8972
O 7.79371 6.07009 12.0537
O 5.12073 1.36336 16.0667
O 6.33164 7.75406 10.2364
O 6.49448 8.1397 13.4473
O 12.0917 2.77151 13.5791
O 4.9833 4.18907 4.24553
O 7.87587 4.04326 15.4295
Si 8.84674 4.90065 12.3968
Si 11.8786 16.7728 11.747
Si 10.1289 6.41295 14.6139
Si 15.0404 0.125895 13.4069
Si 12.8019 1.81724 12.2252
Si 11.5487 6.28949 10.0438
O 9.57869 5.75768 16.0789
O 0.340772 0.729961 16.9713
O 14.9975 16.7853 14.8237
O 4.72666 3.95683 16.3202
O 12.6811 16.2465 13.1394
O 12.9091 5.41244 10.4254
O 10.062 5.21447 13.4669
O 11.4107 7.80052 11.0344
O 13.2121 3.22265 11.5123
O 13.8808 1.22428 13.5754
O 11.7073 6.68017 14.5845
O 0.109513 17.8017 11.8976
Si 1.37164 13.4346 12.8058
Si 3.54205 10.3218 8.99184
Si 2.40518 15.4503 15.0127
Si 4.53746 11.1622 11.7411
Si 2.1132 10.8735 13.22
Si 2.87583 2.29719 13.0409
O 2.08572 14.1928 16.1626
O 0.932054 9.50425 14.1063
O 6.21537 10.4974 11.4451
O 3.99494 1.39871 12.5218
O 1.94506 11.7597 11.7047
O 5.57546 3.82721 13.8171
O 1.90097 12.2834 13.9888
O 4.53605 15.7338 10.9532
O 1.62988 14.8054 13.6705
O 9.25742 13.9052 11.1973
O 2.67046 2.37963 14.8741
O 4.46793 13.1054 11.7087
Si 1.12229 14.5122 9.05358
Si 6.91136 9.0939 10.7117
Si 7.15027 14.6571 13.473
Si 9.15724 11.0512 15.032
Si 8.82933 12.979 10.0161
Si 10.0285 16.0132 13.8529
O 3.7888 13.2313 1.0103
O 10.9045 14.6874 14.1559
O 7.05641 13.2052 12.8265
O 9.4493 12.3762 15.9851
O 8.28779 11.7627 11.0814
O 7.51511 13.5358 8.99002
O 3.95225 11.0739 10.1925
O 11.9695 0.613397 11.6263
O 8.64776 15.382 13.7572
O 10.2686 9.71213 14.7315
O 8.0946 15.7593 1.3972
O 7.54386 10.5683 15.4858
Si 12.5476 14.7002 13.6244
Si 11.4697 9.51902 10.749
Si 11.4007 17.6521 16.5778
Si 14.5673 10.7675 0.838625
Si 11.6847 9.92788 13.9511
Si 13.5102 12.4571 14.9339
O 10.8479 17.0503 14.944
O 13.1875 10.2555 1.65913
O 12.8369 8.77987 14.2288
O 1.80623 16.7687 15.7994
O 11.6003 9.97038 12.2834
O 14.4892 12.0759 13.7753
O 12.0297 11.5533 14.5914
O 12.6464 13.5893 12.4118
O 13.5861 14.1646 14.8737
O 15.0624 9.98835 16.3741
O 12.4141 16.8715 0.665532
O 14.1191 12.1871 16.6346
324
 Atoms. Timestep: 3500
Si 0.491828 4.933 0.470584
Si 5.3339 15.3785 15.0775
Si 5.58763 8.93461 3.87551
Si 3.55699 2.86063 6.85963
Si 2.29389 1.81631 4.37059
Si 4.59676 6.22117 4.16141
O 4.19181 6.74201 5.73355
O 4.5967 0.415025 9.22876
O 2.41115 2.86724 5.66769
O 6.00174 8.53852 16.8854
O 3.7928 1.63943 3.4409
O 3.50635 6.53338 3.03168
O 1.79181 4.54595 1.45641
O 3.16677 6.43213 0.4468
O 5.90152 7.42894 3.77562
O 4.80227 1.77641 5.86275
O 4.08803 9.23708 3.20731
O 4.23445 4.21208 7.10555
Si 3.2319 5.44903 1.65574
Si 8.27598 17.4167 1.15596
Si 8.05754 5.20698 5.35406
Si 9.79771 3.40559 4.23347
Si 6.73526 1.38692 2.87429
Si 8.50378 5.0312 2.61096
O 6.82558 4.8341 6.36372
O 6.89419 1.70735 4.44775
O 8.47828 3.28707 3.1177
O 11.8427 6.07432 1.59378
O 6.78386 17.0368 0.209176
O 8.20967 5.10861 1.01408
O 5.76039 2.11173 1.71736
O 7.97214 9.33676 0.960293
O 7.61493 5.69737 3.90702
O 11.0728 3.90901 3.46216
O 6.65694 9.98299 3.18658
O 9.74125 5.97104 2.81102
Si 7.88353 5.12814 16.6076
Si 0.953368 17.9345 15.8763
Si 13.0947 5.36922 5.83292
Si 15.5678 1.6619 2.75641
Si 15.2419 2.41447 0.029807
Si 13.3291 6.37012 0.655919
O 12.485 5.82779 4.21263
O 14.4124 1.29762 3.9755
O 14.9492 2.61668 1.63998
O 13.1371 7.8385 1.07648
O 13.6857 2.00099 16.4228
O 0.440072 3.69131 16.3933
O 14.4223 5.24486 0.860686
O 13.3125 6.37599 16.1649
O 14.6329 4.87616 5.48928
O 1.27596 2.42305 3.32335
O 0.132789 7.34821 5.48168
O 12.4572 4.1422 6.5832
Si 1.42403 14.9277 0.331883
Si 1.52855 9.86243 16.2748
Si 2.07775 16.7339 3.87873
Si 3.76651 12.5851 2.3842
Si 1.29191 12.0259 1.20829
Si 4.41935 15.1969 0.821027
O 14.7753 13.578 6.94189
O 3.05928 11.201 4.96549
O 2.52716 11.728 2.26631
O 3.43088 16.726 3.0051
O 1.95238 11.4178 16.961
O 3.80819 15.2059 14.5568
O 1.05188 13.6782 1.03759
O 5.12515 14.9652 16.5687
O 2.87321 15.9555 0.460998
O 5.16029 11.5945 2.39388
O 2.82338 2.17932 8.19417
O 3.42341 13.3661 3.86553
Si 8.93903 12.5543 12.2242
Si 7.09833 9.59158 16.8316
Si 4.95021 16.7172 3.22679
Si 9.99802 9.70558 4.7683
Si 6.63864 11.1614 2.05016
Si 10.0696 14.8433 2.24707
O 5.17115 15.5621 4.36007
O 8.48294 10.0271 5.5598
O 7.6371 12.3315 1.81845
O 9.56376 14.0196 3.67598
O 6.18107 10.6782 0.515425
O 9.80116 13.8316 0.841079
O 9.20342 11.2627 13.4582
O 8.05291 0.484913 2.34112
O 5.29128 15.8698 1.80476
O 9.41806 8.92577 3.48517
O 5.80044 17.9122 3.42945
O 10.4444 11.4794 4.5566
Si 9.03533 12.3996 0.700239
Si 12.524 7.57969 15.1963
Si 12.4662 16.8129 1.84439
Si 12.1211 8.83675 0.53941
Si 9.37899 9.46689 1.92231
Si 0.102975 16.632 2.25299
O 11.2712 12.1725 6.64304
O 0.534527 9.65439 6.76377
O 10.6088 8.64082 1.09305
O 0.539849 15.9792 3.64279
O 12.2683 9.01435 16.1576
O 0.235764 15.9838 0.766145
O 9.78407 11.0874 1.57407
O 0.519327 0.169579 2.25879
O 11.5251 15.4669 2.07642
O 15.4426 11.4919 1.59935
O 12.1711 0.388534 3.03535
O 13.9669 16.6945 2.58774
Si 12.9707 2.87824 7.44239
Si 2.95778 0.644334 9.10042
Si 0.653657 6.39674 8.9535
Si 5.79842 0.907832 10.3998
Si 14.3246 0.0146382 7.18855
Si 3.40863 5.49751 10.1395
O 15.1806 5.44876 9.58069
O 6.17153 17.6384 11.3397
O 2.26898 0.662194 10.5787
O 6.50118 7.45372 7.59718
O 0.480206 16.2578 9.84291
O 4.81958 6.10646 8.91827
O 14.0707 1.58679 7.13613
O 2.12618 6.34911 9.86185
O 3.14574 3.81627 9.83822
O 7.04385 1.08048 9.13643
O 15.6121 8.08317 8.97551
O 5.57954 2.4723 11.0895
Si 5.15257 5.1158 6.13036
Si 6.3065 1.24048 5.78152
Si 5.45969 7.5113 9.08908
Si 8.77969 5.01924 9.67245
Si 7.99789 2.26334 8.30044
Si 8.07253 7.19773 7.61053
O 4.58074 4.96949 11.4072
O 10.6049 17.3316 13.0301
O 8.16376 3.79645 8.75677
O 9.24646 8.34826 7.53684
O 6.93702 2.17515 6.99134
O 8.13148 6.23968 9.1088
O 9.28471 4.15036 5.56229
O 8.39053 6.62447 6.02485
O 5.9263 9.21679 5.42492
O 10.6109 5.23854 9.17111
O 7.60419 9.55565 9.22289
O 8.81898 4.57869 11.0837
Si 11.3702 5.53614 2.97226
Si 13.6228 -0.0611934 3.97324
Si 9.14473 9.69707 8.70167
Si 0.895916 0.859407 11.5334
Si 10.318 1.52327 6.47405
Si 15.1972 6.10959 6.25505
O 10.2235 9.80546 9.89671
O 12.3219 16.3821 10.6282
O 11.7888 1.90243 7.29961
O 0.854761 5.94759 7.41267
O 9.84063 18.0295 6.41183
O 13.6418 3.52145 8.78379
O 9.45029 2.17812 7.60344
O 13.4331 12.0394 8.70433
O 13.8009 6.54911 7.0135
O 13.354 16.9706 8.059
O 9.17192 11.2412 8.00754
O 15.1616 1.5941 11.2283
Si 14.2071 13.5085 8.42955
Si 2.83138 9.64503 4.30757
Si 14.5363 12.7275 12.579
Si 4.05135 14.2165 10.6772
Si 0.776452 9.34333 8.43883
Si 1.31249 16.5482 8.09718
O 6.20573 13.9977 14.7038
O 2.20273 9.72597 8.67947
O 4.24204 10.7655 7.05974
O 1.61806 14.9677 8.07611
O 2.66314 8.64256 5.68891
O 2.59417 15.5254 5.01903
O 15.2444 13.7371 9.67599
O 2.66182 17.4297 8.02718
O 0.148269 13.5565 13.1722
O 2.37865 14.1571 10.2763
O 0.242867 17.2326 7.09724
O 4.17927 10.8588 12.6953
Si 3.87384 14.6142 4.97829
Si 7.01489 10.4877 5.59436
Si 6.18342 14.5966 8.99756
Si 9.89975 12.4945 7.27683
Si 4.45753 11.8246 5.82354
Si 7.12833 16.0236 6.78342
O 5.09047 13.4909 9.41318
O 8.10809 8.77556 12.1579
O 10.9223 9.24456 5.84599
O 10.3826 2.06558 4.95456
O 6.19771 11.9627 5.40693
O 7.71308 15.4694 5.38648
O 4.13585 13.4716 6.23729
O 6.63127 17.4957 6.0784
O 6.02692 15.1396 7.48055
O 9.88583 13.6663 8.56563
O 6.83276 15.4928 10.1838
O 8.84885 13.3243 6.19248
Si 9.07693 14.5862 5.24363
Si 1.10407 8.71458 5.59581
Si 9.8596 16.5818 7.36557
Si 14.0592 11.0416 9.92341
Si 11.7322 11.0538 5.46035
Si 12.4977 16.013 9.05206
O 8.19896 16.3354 7.79451
O 12.7382 10.0182 10.1656
O 1.25409 9.22045 3.93473
O 13.1423 14.6154 8.90936
O 13.2314 10.9365 5.08923
O 1.8694 0.193898 4.71869
O 10.1711 15.3938 6.11619
O 13.5879 17.4635 5.46573
O 10.7904 16.5922 8.69242
O 15.3545 10.4452 9.26604
O 11.6002 0.733728 15.4056
O 14.792 11.5843 11.3856
Si 13.7734 4.61864 10.0285
Si 6.1423 0.0754994 15.9026
Si 2.28878 6.72793 16.1286
Si 4.05003 2.46186 2.08821
Si 3.78448 2.15256 16.2687
Si 4.151 4.83115 15.2964
O 0.9322 6.40518 16.8252
O 6.09779 16.8567 14.693
O 3.34343 1.90305 0.671674
O 4.73998 6.38316 15.8899
O 1.46947 2.09861 12.4996
O 3.66533 3.09126 12.785
O 0.489271 1.225 14.7835
O 4.64277 8.83526 8.58225
O 2.71399 5.4297 15.1028
O 6.49419 15.2342 12.6308
O 2.34731 8.39538 16.3392
O 4.11144 4.13066 2.0583
Si 4.19539 3.36827 11.3622
Si 5.96537 16.1147 11.5688
Si 6.00527 7.38169 15.6666
Si 12.7944 2.02382 15.0413
Si 6.55951 3.07997 14.5956
Si 7.78543 7.37604 12.9393
O 7.04899 6.48032 16.816
O 9.56663 18.0015 -0.0127456
O 6.73963 1.3816 15.0154
O 9.18298 7.44617 13.713
O 7.93625 3.48443 13.4229
O 7.61077 6.02456 12.261
O 4.7245 0.71252 16.4967
O 5.9422 7.81311 10.5851
O 6.674 7.60511 14.2099
O 12.3513 3.09282 13.9719
O 4.87886 4.50692 4.57632
O 7.35894 3.83334 15.8138
Si 8.56712 4.66747 12.5753
Si 12.2207 17.3406 11.948
Si 9.75433 6.13638 14.4865
Si 15.2065 0.103166 13.8591
Si 13.0866 2.20255 12.464
Si 11.3336 6.39825 9.87313
O 9.16637 5.49505 15.7588
O 0.80907 1.02371 0.205564
O 15.252 17.1351 15.1279
O 4.37821 3.6122 16.4107
O 13.2688 16.4865 13.1224
O 12.8915 5.95481 10.068
O 9.84385 4.69506 13.6723
O 11.1229 7.57275 11.0071
O 13.2304 3.75314 11.2786
O 13.6466 1.02202 13.8317
O 11.3159 6.57378 14.5949
O 0.603146 17.5741 12.6409
Si 1.7357 13.4901 13.0655
Si 3.80174 10.2791 8.48247
Si 2.2917 15.697 14.7663
Si 4.6316 11.1337 11.1221
Si 2.88559 11.2287 13.576
Si 2.95135 1.71045 13.3281
O 1.29006 14.8307 15.7597
O 2.18745 10.1959 14.7364
O 6.08736 10.455 11.1892
O 3.61421 0.381592 13.309
O 1.7269 11.7856 12.5771
O 5.14328 3.82523 14.1794
O 2.95145 12.9098 14.1498
O 4.281 15.6908 11.4972
O 1.95044 15.2279 13.3253
O 9.57743 13.8328 11.4635
O 3.03067 2.3153 14.9146
O 4.30378 12.8247 11.6737
Si 1.00955 14.7196 9.61537
Si 7.0194 9.16995 10.7567
Si 7.4137 14.3239 13.7621
Si 9.0535 10.8564 15.0638
Si 8.99881 13.3834 9.85177
Si 10.2996 15.9143 13.7622
O 4.13615 13.5792 1.20782
O 11.2051 14.7586 12.9715
O 7.70851 12.9651 13.1116
O 8.96508 11.9902 16.2113
O 8.77092 11.9273 10.7655
O 7.45659 13.3916 9.24956
O 4.02354 11.2282 9.6899
O 12.4936 0.825236 11.89
O 8.76922 15.5928 13.7999
O 10.2822 10.0617 15.1414
O 8.77678 16.0599 1.97639
O 7.68028 10.1165 15.3855
Si 12.804 14.7443 13.3409
Si 11.4903 9.54748 10.9456
Si 11.0513 17.5537 16.2696
Si 14.5068 10.8583 0.359531
Si 11.5944 9.89388 14.1376
Si 13.6373 12.4804 15.1023
O 10.9755 15.8331 15.4539
O 13.1541 10.3462 0.935431
O 12.8569 8.56204 13.9169
O 2.25808 17.169 15.5526
O 11.2375 10.1057 12.3708
O 14.6385 11.707 13.943
O 12.325 11.2941 14.6199
O 13.0745 13.4469 12.3067
O 13.5144 14.1492 14.7159
O 15.3981 9.71367 16.4563
O 12.1845 17.0276 0.204123
O 14.322 12.1519 16.5033
324
 Atoms. Timestep: 4000
Si 0.40146 4.84497 0.208396
Si 5.51448 15.8346 15.3749
Si 4.83144 8.78568 3.24459
Si 3.28958 2.69801 6.79383
Si 1.95688 1.76468 4.42288
Si 4.04431 5.97007 3.93534
O 4.23015 6.3471 5.6384
O 4.19509 1.20103 9.7666
O 1.94951 2.76726 5.75966
O 6.88665 8.25652 17.0352
O 3.29353 1.79911 3.38414
O 2.42939 5.89404 3.22222
O 1.54165 4.16625 1.34126
O 2.91691 6.41865 0.573823
O 4.95833 7.1108 2.77705
O 4.51668 1.68375 6.17925
O 3.57463 9.71687 3.14032
O 4.18466 4.12076 6.91942
Si 2.61481 5.27402 1.58972
Si 8.9933 -0.00719383 0.827809
Si 8.09142 5.62409 5.4901
Si 9.86827 3.28442 4.59393
Si 6.92735 1.22055 2.98705
Si 8.88858 4.97065 2.70019
O 6.64 5.01581 6.19234
O 7.02063 2.02649 4.58708
O 8.79584 3.47516 3.37504
O 12.4394 5.52889 1.66952
O 7.72361 0.532987 16.871
O 8.38648 5.18696 1.14649
O 5.64936 2.05305 2.26595
O 9.10585 8.64354 0.445331
O 8.26263 6.15931 3.72277
O 11.3469 3.52818 3.85703
O 6.26223 10.6458 3.18602
O 10.4044 5.71677 2.69226
Si 8.49228 5.03192 16.7724
Si 1.10877 0.0835622 15.188
Si 13.4382 5.00077 5.47147
Si 15.3952 1.5079 2.57256
Si 15.2689 2.11025 16.9197
Si 13.5348 6.28633 0.686431
O 12.5847 5.7403 4.23751
O 13.9261 1.34235 3.51865
O 14.7958 2.16418 1.3471
O 13.4625 7.42161 1.89913
O 13.979 1.43821 16.1232
O -0.044727 3.67295 16.4505
O 14.9752 5.50005 0.959908
O 13.586 6.12576 16.2573
O 14.8623 4.53252 4.88722
O 0.703839 2.33589 3.57846
O 0.616946 7.07665 4.9818
O 12.7069 3.66456 5.96311
Si 1.31979 15.1478 17.0842
Si 1.7164 9.70525 16.0284
Si 1.98188 16.7451 4.23876
Si 3.74032 12.8811 2.47284
Si 1.48092 12.0712 0.936677
Si 4.15324 15.2359 0.850657
O 13.8547 13.2608 7.45264
O 3.23377 10.7274 5.67538
O 2.18964 12.1969 2.3083
O 3.33133 16.9825 3.34656
O 2.11159 10.5627 0.141227
O 4.22379 15.6614 14.6592
O 1.29498 13.6107 0.345296
O 5.20042 15.1726 16.7589
O 2.72288 15.9311 0.425605
O 4.83675 11.909 1.89481
O 2.56681 2.38579 8.20007
O 3.98822 13.8721 3.65921
Si 8.80521 13.0067 12.2372
Si 7.77364 9.55796 16.8751
Si 4.97912 16.7857 3.56355
Si 9.65843 9.75879 4.59757
Si 6.4012 11.4468 1.74309
Si 9.73273 15.3998 2.15754
O 5.0407 15.8969 4.98283
O 8.25985 10.8855 4.87281
O 7.59484 12.4727 1.89723
O 9.57771 14.8859 3.76468
O 6.86271 10.3823 0.664757
O 9.6244 13.8861 1.39712
O 8.72508 11.9764 13.6914
O 8.19905 0.694954 2.10188
O 4.72613 15.7985 2.15424
O 9.06185 8.98059 3.30824
O 6.25725 17.791 3.3224
O 10.9651 10.7518 4.106
Si 9.11549 12.3749 1.11065
Si 12.3914 7.0348 15.6125
Si 12.5005 17.0279 1.91724
Si 12.5573 8.70441 1.12346
Si 9.7563 9.34911 1.75671
Si 0.154543 16.7023 2.12243
O 11.0449 11.4963 6.91416
O 0.0886251 8.70179 6.76372
O 11.2574 8.97063 1.96227
O 0.483195 16.1239 3.486
O 11.751 7.4906 17.0367
O 0.138437 15.9573 0.646941
O 9.92298 11.0391 1.58376
O 0.374081 0.254836 2.13466
O 11.5231 15.799 1.84334
O 15.6805 11.3789 0.645398
O 12.1668 17.7916 3.38214
O 14.0397 16.9403 2.4591
Si 13.0254 2.62814 7.06765
Si 2.70875 1.05548 9.21346
Si 0.628535 6.05367 9.13631
Si 5.72272 1.52255 10.2388
Si 14.1759 17.841 6.86153
Si 3.56222 5.25172 10.2993
O 0.0567077 4.61972 9.80585
O 5.88094 0.191465 11.2069
O 1.76006 0.761624 10.3493
O 6.33214 7.88986 8.09441
O 0.585967 16.1922 9.8986
O 4.39261 6.36033 9.49569
O 14.0549 1.38834 6.59448
O 2.0706 5.79283 9.68828
O 3.26876 3.64492 10.3632
O 7.1097 1.40439 9.3998
O 0.565133 7.65737 8.80845
O 5.85395 2.90083 11.033
Si 5.00315 4.98233 5.77921
Si 6.13288 1.41603 6.01701
Si 5.00106 7.89757 9.12575
Si 8.68232 4.65615 9.75198
Si 7.99413 2.12353 8.36944
Si 7.93236 7.41767 8.1281
O 4.47362 5.06152 11.9097
O 10.8487 17.1158 12.5847
O 8.67162 3.70235 8.47514
O 9.2008 8.43577 8.35119
O 6.55263 2.34915 7.29257
O 8.24489 6.31159 9.25388
O 9.40262 4.62781 5.56808
O 8.34728 7.02575 6.45906
O 5.76818 8.90728 4.73708
O 10.4046 4.79857 10.3266
O 8.045 9.77267 10.3011
O 7.89044 4.58438 11.0802
Si 11.7243 4.98398 3.04138
Si 13.6827 17.9959 3.99081
Si 9.0455 9.88683 9.10118
Si 1.01256 0.825052 11.9605
Si 10.4205 1.14062 6.86609
Si 0.0353549 5.92782 5.98838
O 10.753 10.0492 9.7649
O 12.154 17.3959 10.3732
O 11.7866 1.86738 7.53261
O 0.820144 5.56684 7.27781
O 10.7693 17.976 6.10716
O 14.0979 3.05781 8.288
O 9.39122 1.34742 7.92138
O 13.1855 12.1953 9.51638
O 13.8021 6.32732 6.52248
O 12.9447 17.4133 7.94736
O 8.7429 10.9597 7.98711
O 15.3003 1.63304 11.5585
Si 13.7371 13.8024 8.97317
Si 2.64802 9.95967 4.43688
Si 14.7723 12.7531 11.9698
Si 3.85943 14.4802 10.6173
Si 0.095343 9.27464 8.33025
Si 1.08844 16.7564 8.33187
O 6.73191 14.829 14.7054
O 1.55971 10.0017 8.49596
O 3.71851 11.697 7.86493
O 1.29816 15.1574 7.97143
O 2.45066 8.4709 5.37271
O 2.32835 15.5047 5.14129
O 15.1619 13.8056 10.0453
O 2.45992 17.6953 8.32026
O -0.000646081 14.0478 12.5351
O 2.37807 14.1243 9.91746
O 0.0516123 17.563 7.39458
O 3.96405 11.3927 12.9551
Si 3.86891 14.8075 5.26553
Si 6.59451 10.4199 4.87775
Si 6.37478 15.0072 9.15661
Si 9.56184 12.0858 7.17917
Si 4.41217 11.9011 6.40891
Si 7.23406 16.4061 6.37804
O 4.98141 14.3205 9.14571
O 7.94997 8.50341 12.3961
O 10.3932 9.00689 5.92067
O 9.817 2.0602 5.68991
O 5.8051 11.1277 6.11046
O 7.72764 15.4233 5.22364
O 4.08116 13.4855 6.18918
O 6.38246 17.8549 6.27108
O 6.54693 15.3298 7.50352
O 9.63629 13.0659 8.58103
O 6.35795 16.4356 9.74866
O 8.81725 13.1381 6.14221
Si 8.98903 14.5681 5.34309
Si 0.856196 8.62973 5.4172
Si 10.2412 16.5849 7.15748
Si 14.1013 10.8492 9.87858
Si 11.6929 10.2812 5.87394
Si 12.2526 16.5148 9.05228
O 8.54573 16.86 7.22527
O 13.2465 9.54485 10.5293
O 1.01304 9.92261 4.33739
O 12.642 14.9666 9.35382
O 13.2295 9.99781 5.93064
O 1.59505 0.115854 4.92525
O 10.4647 15.0278 6.36025
O 14.1118 17.1178 5.33572
O 10.6384 16.7665 8.68021
O 14.4334 9.87345 8.70392
O 11.6191 1.11147 15.339
O 15.0918 11.4828 11.0384
Si 14.0562 4.09902 9.66086
Si 6.51016 0.676933 16.0261
Si 2.13585 6.49257 16.2335
Si 4.00954 2.63123 2.2207
Si 3.80172 1.95101 16.559
Si 4.5035 4.78702 15.4936
O 0.623311 6.02285 16.187
O 6.35221 17.1956 15.5252
O 3.30342 1.73211 0.8315
O 4.91927 6.2322 16.0523
O 1.90099 2.22113 12.5231
O 4.29999 2.61108 12.9068
O 0.21239 0.85124 14.1563
O 4.03802 8.79868 8.15491
O 2.86774 5.58368 15.0135
O 6.7556 16.4789 12.425
O 2.36094 8.21779 16.0384
O 3.94768 4.31798 1.90823
Si 4.4158 3.52113 11.5222
Si 5.73424 16.8002 11.2349
Si 6.31779 7.13324 15.9834
Si 13.1815 1.32587 14.7392
Si 6.80763 3.29566 14.8547
Si 7.79752 7.3753 13.4209
O 7.32533 5.98257 16.1926
O 10.1134 0.905624 0.0971979
O 6.20245 1.8436 15.0805
O 8.88791 7.01176 14.6094
O 8.02257 3.38089 13.6889
O 7.21748 5.78331 12.8854
O 5.06364 0.855073 16.7538
O 5.69316 8.34693 10.7489
O 6.38209 7.64657 14.4115
O 13.5746 2.50406 13.8141
O 5.02922 4.60318 4.02709
O 7.8135 3.52303 16.0817
Si 8.23777 4.54753 12.6976
Si 12.3158 17.3691 12.0109
Si 9.99901 5.69956 14.5054
Si 15.0277 17.5521 13.7311
Si 13.7675 1.9869 12.2167
Si 11.7168 5.81868 10.313
O 9.86435 5.22802 16.0894
O 0.737724 1.17896 16.4809
O 15.5358 16.7787 15.1075
O 3.85176 3.55018 16.2795
O 13.1912 15.8375 12.3722
O 13.3113 5.55784 9.66538
O 9.77758 4.81943 13.1982
O 11.8846 7.43322 10.6605
O 13.3326 3.39636 11.1583
O 13.5684 17.9599 14.1716
O 11.3461 6.43737 14.4213
O 0.00201995 17.3709 12.3277
Si 1.75556 13.6077 12.9237
Si 3.22277 10.2879 8.49904
Si 2.60019 15.8223 14.5539
Si 4.49172 11.2564 11.3468
Si 2.60256 11.5385 13.672
Si 3.01217 1.54234 13.3216
O 1.59772 15.109 15.4068
O 1.7809 10.4057 14.5535
O 5.99682 10.6608 11.8466
O 2.65841 0.204607 12.5499
O 1.82638 12.1076 12.3889
O 5.66878 4.38389 14.4503
O 2.46284 13.0046 14.388
O 4.42543 15.8522 11.2337
O 2.42619 15.1777 12.917
O 9.77569 13.935 11.3337
O 3.00583 1.62863 15.06
O 4.52199 12.914 11.0981
Si 0.84184 14.6408 9.64467
Si 6.84148 9.25071 11.2954
Si 7.48728 15.1914 13.3099
Si 9.12243 11.162 15.093
Si 8.88452 13.1688 9.9432
Si 10.5131 16.006 14.0682
O 3.74005 13.6854 1.11861
O 11.0476 14.6203 13.5216
O 7.26548 13.9213 12.4866
O 9.24899 12.0811 16.4937
O 8.36574 11.899 10.9514
O 7.42153 13.8221 9.7068
O 3.28283 10.4175 10.2882
O 12.7012 0.75341 12.0585
O 8.93539 15.9755 13.8832
O 10.1979 10.0525 14.9852
O 8.84749 16.5799 1.174
O 7.77275 10.1685 15.3934
Si 12.6653 14.3993 13.0342
Si 11.6586 9.21985 10.8724
Si 11.126 0.0437208 16.4347
Si 14.698 10.737 16.7656
Si 11.6501 9.63233 13.9536
Si 13.6733 12.2558 14.4895
O 11.2388 16.7648 15.3906
O 13.5086 9.82784 0.181063
O 12.8356 8.60781 14.5019
O 2.49853 17.3655 15.4102
O 11.0763 9.43883 12.4864
O 14.8745 11.9471 13.362
O 12.3768 11.2155 13.9772
O 13.0798 13.2615 11.8385
O 13.4199 14.0324 14.5618
O 0.0209075 9.58194 16.104
O 12.4373 17.5373 0.361608
O 14.1014 12.0006 15.9481
324
 Atoms. Timestep: 4500
Si 0.256155 4.67069 17.0133
Si 5.68286 15.9836 15.3396
Si 4.30798 8.09158 4.73351
Si 3.43957 2.34924 6.61448
Si 1.92864 1.84694 4.17258
Si 3.98077 5.7594 3.68413
O 4.02466 6.18973 5.56599
O 4.46899 1.37317 9.26726
O 2.39778 2.73605 5.39109
O 7.15121 8.22184 -0.0691375
O 3.19765 2.21847 3.16048
O 2.37673 5.33121 3.14962
O 1.51663 3.99363 0.656937
O 2.41015 6.36627 0.850031
O 4.30433 7.24827 3.18746
O 4.52199 1.20109 6.4771
O 3.73549 9.70353 3.70107
O 4.30648 3.88543 6.83157
Si 2.68103 4.82903 1.45275
Si 8.21438 17.7877 1.3535
Si 7.99508 5.75446 5.3422
Si 9.65225 3.28381 4.58124
Si 6.3179 1.01805 2.99227
Si 8.77088 5.08341 2.4847
O 6.73474 4.88281 6.03415
O 6.36466 1.8843 4.45998
O 8.77191 3.59693 3.11945
O 12.2951 4.79191 1.25802
O 7.28998 0.0731461 -0.186357
O 8.40493 5.00709 0.988442
O 5.41724 1.66323 1.95013
O 9.19925 9.79578 0.759962
O 8.03431 6.13649 3.7001
O 11.1614 3.40784 3.59387
O 6.68331 11.5248 3.70545
O 10.3931 5.62524 2.71014
Si 8.60177 4.69897 16.7561
Si 1.02128 -0.0214491 15.4728
Si 14.1223 4.59791 5.17511
Si 15.3528 1.21595 2.37392
Si 15.3204 1.97397 16.662
Si 13.3362 5.87348 0.764679
O 13.057 5.27264 3.99737
O 13.9067 1.11357 3.26463
O 15.0422 2.03093 1.09227
O 12.9333 7.18851 1.92769
O 13.8737 1.93221 16.1231
O 0.210448 3.28011 16.1009
O 14.9375 5.06664 0.869003
O 13.3463 6.28391 16.5437
O -0.0375343 4.25356 5.23239
O 0.450609 1.76546 3.61494
O 1.26882 6.87055 5.07658
O 13.2885 3.28552 5.68746
Si 1.69363 14.9868 0.517829
Si 1.45459 9.61194 15.7528
Si 2.24234 17.0049 4.26547
Si 3.5362 12.8072 2.06473
Si 1.35373 11.7979 0.720367
Si 4.05798 15.5446 0.725462
O 13.5268 14.3481 7.2422
O 2.57224 11.312 5.85966
O 2.37859 11.6983 1.91344
O 3.61086 16.9521 3.3198
O 1.95519 10.9136 16.6547
O 4.35479 15.621 14.6495
O 1.16503 13.3416 0.53636
O 4.86117 16.1071 16.7799
O 2.68492 16.2458 1.29876
O 4.8848 12.0237 1.91732
O 2.63503 2.26128 7.87512
O 3.20576 13.5954 3.54111
Si 9.06339 13.2329 12.3034
Si 7.81476 9.78529 -0.0213396
Si 5.1975 16.3152 3.3475
Si 9.1626 9.56194 4.79307
Si 6.4387 11.5324 1.95504
Si 9.48876 15.2466 2.18979
O 5.4145 15.1117 4.53413
O 7.56806 9.9043 5.56296
O 7.49916 12.4709 1.10232
O 9.31071 14.2046 3.40328
O 6.61004 10.2744 1.05709
O 8.8498 14.7067 0.739439
O 9.17684 12.4078 13.626
O 7.9395 0.879916 2.46399
O 5.17852 15.7824 1.71383
O 8.96727 9.58695 3.01573
O 5.99255 17.6902 3.567
O 10.0274 10.9689 4.90125
Si 8.89965 13.0816 0.580914
Si 12.2091 7.31165 16.0481
Si 12.0468 16.773 1.64715
Si 12.4204 8.59138 1.39011
Si 9.78367 10.5263 2.02259
Si 0.0230389 16.5331 2.24507
O 11.273 11.5037 7.11481
O 0.568334 8.66035 7.14996
O 11.376 9.72032 1.96469
O 0.777625 16.1688 3.65597
O 11.5639 7.78801 0.0803731
O 0.280969 15.5628 0.942345
O 10.1205 12.1037 1.3427
O 0.395787 18.1733 2.02622
O 10.9604 15.6385 1.79988
O -0.0326473 11.0188 0.82413
O 11.8704 17.5343 3.21058
O 14.0428 16.4623 2.53936
Si 13.174 2.32635 7.16354
Si 2.85534 1.21245 9.04889
Si 0.435242 6.05981 9.03359
Si 5.62329 1.36762 10.3999
Si 14.3719 17.5029 6.67613
Si 3.48037 5.56001 10.0834
O 15.4665 4.69115 9.52293
O 5.44908 0.162202 11.4831
O 2.05625 1.53009 10.2974
O 6.46176 7.66537 8.27417
O 0.187042 16.7374 9.26129
O 4.75091 6.09222 9.27182
O 13.8484 0.862478 6.78289
O 2.09383 6.23484 9.71586
O 3.70268 3.91929 10.1683
O 7.10796 1.43333 9.79576
O 0.036862 7.43644 9.34218
O 5.53935 2.73022 11.4317
Si 5.09549 4.59747 5.73589
Si 6.00982 1.04465 6.01215
Si 5.43339 7.6538 9.44772
Si 8.66794 4.55944 9.49483
Si 7.90283 1.67417 8.41673
Si 8.02793 7.03072 8.26468
O 4.05359 5.58384 11.8139
O 11.4087 17.3021 12.7402
O 8.73589 3.1165 8.79557
O 9.05421 8.14801 8.88348
O 6.68304 1.94711 7.19848
O 7.57941 5.62118 8.75629
O 9.43772 4.6664 5.42146
O 8.28236 6.81045 6.55332
O 5.62076 8.89177 5.02694
O 9.94161 5.77464 9.22837
O 7.42437 9.73857 10.2445
O 8.76354 4.40827 11.088
Si 11.8241 4.73719 2.89633
Si 13.482 17.8809 3.64861
Si 8.81354 9.62982 9.4952
Si 1.03536 1.49672 11.7306
Si 10.5192 1.20226 6.84239
Si 0.362523 5.78881 5.88619
O 10.0734 9.79646 10.7069
O 11.9922 16.8231 10.1487
O 11.6168 2.0968 7.66634
O 0.867942 5.63476 7.41348
O 11.1008 17.8813 6.63389
O 14.0859 3.07477 8.32416
O 9.23964 0.637117 8.14165
O 13.8597 12.0054 8.4762
O 14.1401 6.10152 5.81636
O 13.6619 16.8636 7.98867
O 8.98158 10.879 8.29139
O 15.3077 2.05567 11.3403
Si 14.0876 13.6368 8.42311
Si 2.70648 10.2128 4.75823
Si 14.709 12.8784 11.9833
Si 3.86153 14.6708 10.6035
Si 0.189274 8.95503 8.51786
Si 1.14079 17.0653 8.00239
O 7.12686 15.3719 15.1445
O 1.59837 9.63731 9.32763
O 3.78216 11.1958 8.05724
O 1.66791 15.3536 7.76447
O 2.7962 8.68413 5.91277
O 2.85649 15.6309 5.42877
O 15.7385 13.8365 9.01356
O 2.40026 17.961 8.47194
O 0.0866983 14.023 11.9504
O 2.1881 14.292 10.3882
O 0.189048 17.6362 6.81908
O 3.93376 11.6475 13.3296
Si 3.80235 14.468 4.94241
Si 6.23393 10.4055 4.95882
Si 6.22094 15.1796 8.93928
Si 9.91176 12.3749 7.45419
Si 3.88089 11.8269 6.50937
Si 7.40965 16.4283 6.43067
O 4.63524 14.6211 9.20915
O 7.40963 9.14348 12.603
O 10.0024 8.32794 5.38896
O 9.81282 1.87842 5.45658
O 5.26785 11.1855 6.0272
O 7.79967 15.4892 5.18783
O 3.9159 13.3401 6.0495
O 6.6276 17.8059 6.05375
O 6.48382 15.5193 7.38983
O 9.95755 13.5228 8.78501
O 6.09034 16.6807 9.83585
O 9.29247 13.4965 6.15135
Si 9.15287 14.7119 4.97515
Si 1.193 8.46607 5.647
Si 10.4737 16.3451 6.78159
Si 13.7929 10.7721 9.55522
Si 11.3817 10.2281 5.88689
Si 12.5737 15.8904 8.84994
O 8.74925 16.4694 7.29812
O 12.4301 10.054 10.2254
O 0.948286 9.68421 4.57633
O 13.1039 14.4154 9.62646
O 12.7606 9.72398 6.07331
O 2.07269 0.30544 4.90566
O 10.5795 15.5929 5.27778
O 13.4431 17.3051 5.1896
O 11.3865 15.6729 7.78942
O 14.5916 9.68409 8.76147
O 11.748 1.13163 15.7085
O 14.4778 11.7071 10.9085
Si 13.838 4.31087 9.65395
Si 6.46257 0.70119 15.9513
Si 2.31773 6.58378 16.4453
Si 3.99677 2.44545 1.82773
Si 3.61715 1.88616 16.3325
Si 4.75206 4.89989 15.974
O 0.72503 6.03894 16.2253
O 6.41125 17.4624 15.2244
O 2.98087 1.66413 0.627578
O 5.76879 5.93616 16.9022
O 1.30626 2.99925 12.741
O 4.00019 3.17523 13.117
O 0.290955 1.02213 14.3806
O 4.15502 8.61752 8.94617
O 3.26476 5.48669 15.6069
O 6.91874 16.5449 12.6291
O 2.34754 8.30521 16.4115
O 4.10201 4.09278 1.7607
Si 4.34057 3.79471 11.6752
Si 5.7247 16.7794 11.3673
Si 6.83437 7.05259 16.1432
Si 13.2616 1.19529 14.8624
Si 6.99212 3.47879 14.7744
Si 7.64089 7.61267 13.4892
O 8.32477 6.2381 16.2118
O 9.8847 18.0646 0.579041
O 6.73371 1.76872 14.6357
O 8.98346 7.39889 14.2709
O 8.0537 3.79919 13.6421
O 7.69649 6.39971 12.3438
O 4.82047 0.976786 16.2134
O 5.7831 8.20711 10.7433
O 6.34867 7.32958 14.5967
O 13.2886 2.14204 13.4834
O 4.84765 4.42249 4.08483
O 7.70387 3.35872 16.4357
Si 8.54604 4.99276 12.6157
Si 12.6652 17.3768 11.5558
Si 9.90335 6.04936 14.5092
Si 15.3087 17.6902 13.4369
Si 13.8193 2.0263 11.9493
Si 11.3216 6.16118 9.83781
O 10.0676 4.94192 15.6352
O 0.486608 0.566829 16.9298
O 0.172383 16.7582 14.7206
O 4.35837 3.52802 16.6418
O 13.7724 16.1351 12.3225
O 12.6333 5.39008 9.19785
O 10.1862 5.20908 12.9933
O 11.9286 7.56436 10.4783
O 13.5194 3.71959 11.1698
O 13.6299 18.1393 13.9789
O 11.2255 6.90668 14.9276
O 0.123717 18.0813 12.0541
Si 1.4603 13.6132 12.9089
Si 3.31205 9.89765 9.21488
Si 2.61439 15.8338 14.828
Si 4.37726 11.7483 11.7384
Si 2.32059 11.3432 13.5115
Si 2.5106 2.40505 13.4754
O 2.33105 15.0175 16.1318
O 1.42605 10.1763 14.2989
O 5.86269 11.0008 11.7635
O 2.42804 0.813841 12.7334
O 2.02023 12.2375 11.9898
O 5.79363 4.48341 14.5763
O 1.88798 12.602 14.3862
O 4.51544 15.7964 11.5815
O 1.93951 15.0155 13.5636
O 9.79453 14.3141 11.0915
O 2.61701 2.3759 15.2335
O 4.62983 13.2987 11.266
Si 1.15032 14.9692 9.37838
Si 6.38212 9.57859 11.3789
Si 7.76518 15.5511 13.5259
Si 8.93699 11.3608 15.0797
Si 8.85732 13.4801 9.97504
Si 10.7688 16.5282 13.9003
O 3.60496 13.8121 0.596392
O 11.8129 15.2712 13.8231
O 7.46807 14.0962 12.7111
O 9.30984 12.2046 16.3791
O 8.40473 12.4693 11.0579
O 7.41468 14.2139 9.15834
O 3.81428 10.6706 10.5298
O 13.0943 0.632711 11.2146
O 9.26073 15.9577 13.7958
O 10.3169 10.2223 14.855
O 8.58552 16.5561 2.20167
O 7.72899 10.3561 15.571
Si 13.0683 14.7345 13.2277
Si 11.5063 9.0483 11.1787
Si 11.0625 -0.133878 16.5134
Si 14.8722 10.291 17.0897
Si 11.7438 9.72003 14.1785
Si 13.7714 12.0427 14.4712
O 11.04 16.8325 15.4635
O 13.6751 9.44867 0.727189
O 12.7799 8.70764 14.8668
O 2.43734 17.4454 15.2907
O 11.2467 9.10292 12.784
O 14.8967 11.855 13.2357
O 12.7037 11.0551 13.8297
O 13.071 13.4434 12.1928
O 13.6009 13.7599 14.5303
O -0.0257624 8.96831 16.1227
O 12.3831 17.5975 0.336053
O 14.0658 11.5671 16.0731
324
 Atoms. Timestep: 5000
Si 0.263636 4.7625 0.0579376
Si 5.39436 15.8447 15.1043
Si 4.45153 8.56339 4.44074
Si 3.83961 1.91591 6.7818
Si 2.03204 1.50333 4.30856
Si 3.77504 5.80226 4.39996
O 3.82288 5.71008 5.952
O 3.98145 0.570593 9.94226
O 2.95106 2.16238 5.45674
O 6.71812 8.72143 16.7652
O 3.15134 1.35389 3.15441
O 2.39698 5.77081 3.39929
O 1.17375 4.57591 1.38306
O 3.2033 5.95425 0.591253
O 4.28007 7.12058 3.76408
O 4.82809 0.639663 6.33783
O 3.49289 9.40335 3.3296
O 4.6548 3.35641 6.59646
Si 2.66107 5.1093 1.88921
Si 8.32145 17.9769 0.539468
Si 8.15059 5.44268 5.38379
Si 9.82592 3.0476 4.55563
Si 6.49569 0.862264 2.71187
Si 9.20206 4.94439 2.84303
O 6.81812 5.01756 6.24461
O 6.92892 1.40598 4.41364
O 8.82682 3.47132 3.47215
O 12.2261 4.60337 1.37623
O 7.15859 17.9463 16.7509
O 9.22992 4.79867 1.22535
O 5.44186 1.9377 2.15455
O 8.66476 9.82875 0.805782
O 8.20833 5.658 3.82796
O 11.3264 2.77867 3.97086
O 6.72659 10.2129 3.36363
O 10.7627 5.34964 3.34316
Si 8.83605 5.21046 16.9473
Si 0.899396 18.0119 15.4896
Si 14.1445 4.51951 5.38291
Si 15.4327 1.29693 2.44404
Si 15.3887 1.80923 16.6624
Si 12.9693 6.17076 0.849573
O 13.5699 4.5449 3.81523
O 14.3134 0.894717 3.66777
O 14.7485 2.04758 1.14598
O 12.8261 7.47769 1.7093
O 13.8224 1.98125 16.0427
O 0.290732 3.26512 16.6381
O 14.6179 5.33833 0.606959
O 13.1184 7.12223 16.5599
O 0.0703152 4.57821 5.27632
O 0.736413 2.05067 3.36899
O 1.23286 6.68408 5.61671
O 13.2821 3.2678 5.91471
Si 1.52431 14.782 17.1325
Si 1.35292 9.50383 15.9472
Si 1.9723 16.6933 3.93758
Si 3.91398 12.7102 2.33009
Si 1.72482 11.6414 0.607015
Si 4.46332 14.8004 0.556203
O 15.2775 14.0641 6.39512
O 2.84662 11.4364 5.1073
O 2.6828 11.741 1.96521
O 3.50854 17.0196 3.49697
O 2.20709 10.7863 16.6105
O 3.8332 15.244 14.7549
O 1.3099 13.064 -0.0823605
O 4.90338 15.9784 16.7565
O 2.89008 15.2957 0.396706
O 5.31351 12.1548 3.0066
O 3.15086 2.3952 8.14814
O 3.19463 13.5661 3.56389
Si 8.53522 12.796 12.4681
Si 7.28765 10.0823 17.1264
Si 4.93293 16.3563 3.23714
Si 9.60125 10.28 4.81372
Si 6.51428 11.3467 2.19251
Si 9.60221 15.3689 1.91753
O 5.12017 15.2772 4.57119
O 8.02455 10.7157 5.4408
O 7.7519 12.3676 1.71365
O 8.96416 14.6148 3.35145
O 5.97457 10.7498 0.806646
O 9.37578 14.3055 0.66616
O 9.14957 12.0436 13.7219
O 7.80356 0.848444 1.87483
O 5.12489 15.2998 1.89161
O 9.10211 9.80464 3.38376
O 5.88009 17.6201 3.01409
O 10.9343 11.401 4.62782
Si 9.24101 12.6236 0.752015
Si 12.2286 8.15222 15.5771
Si 11.9938 16.9056 1.94801
Si 12.4252 9.01367 0.99561
Si 10.0229 10.3867 1.96889
Si 15.6103 16.4628 1.79019
O 11.2129 11.3431 7.3359
O 0.350019 8.55416 7.17493
O 11.2757 9.57318 1.99207
O 0.700727 15.8575 3.09404
O 11.4086 8.7024 17.0736
O 0.268645 15.7387 0.346897
O 10.5141 11.852 1.68066
O 0.0968536 18.053 2.17951
O 11.131 15.6385 2.3287
O 0.194052 10.982 0.997706
O 12.0069 17.8706 3.20506
O 14.0498 16.6086 2.40022
Si 12.9841 2.39524 7.25201
Si 2.4726 1.2508 9.30391
Si 0.41849 5.69722 9.36555
Si 5.43215 1.21944 10.4776
Si 14.3973 17.8158 6.92994
Si 3.38027 5.6032 10.1453
O 15.1597 4.68038 10.1131
O 5.77245 0.0585291 11.6127
O 1.20647 1.4049 10.2054
O 5.94541 7.38862 7.56276
O 0.6211 16.1585 9.39959
O 3.76652 6.71933 9.09903
O 14.0757 1.08515 7.13723
O 1.80921 5.77756 10.3818
O 3.33735 3.72108 10.3169
O 6.69192 1.6977 9.61335
O 0.226781 7.26676 9.52488
O 5.34811 2.53132 11.5924
Si 5.16908 4.66608 5.96971
Si 6.4407 0.814315 5.82563
Si 4.82402 7.89184 8.81757
Si 9.00122 5.08601 9.33259
Si 7.91032 2.08093 8.32651
Si 7.85498 7.45451 7.79354
O 4.73679 5.56841 11.2598
O 11.0691 16.9464 12.6078
O 8.48745 3.61732 8.84708
O 8.47192 8.82432 7.81264
O 7.08515 1.93028 6.82322
O 8.22763 6.52582 8.94274
O 9.18723 4.18055 5.73902
O 8.34145 7.06811 6.04496
O 5.77579 8.79182 5.42841
O 10.5497 5.57497 9.09106
O 7.50591 9.77124 9.83703
O 8.72223 4.5703 10.7888
Si 12.0646 4.24318 3.08452
Si 13.4579 17.7122 3.81712
Si 8.86398 10.0458 8.92066
Si 0.538101 1.7323 11.8175
Si 10.2086 1.04943 6.35712
Si 0.0357727 5.62795 6.53285
O 9.997 10.1523 10.2023
O 12.8055 16.2256 10.4275
O 11.5803 1.75719 6.74856
O 0.605929 4.97789 7.89276
O 10.8534 17.5453 6.29886
O 13.6225 3.37234 8.36555
O 9.25746 1.34351 7.75368
O 14.4109 12.1315 8.26523
O 13.9918 5.75593 6.33096
O 13.4698 17.1746 8.01336
O 8.68149 11.4271 7.98885
O 14.6831 2.31437 11.8156
Si 14.7904 13.6073 7.77611
Si 2.42504 10.0244 4.49489
Si 14.3227 12.7064 12.1862
Si 4.29124 14.2606 10.7247
Si 0.252619 8.77341 8.85131
Si 1.21896 16.8777 8.14974
O 6.77837 15.0451 15.352
O 1.5803 9.91923 9.14157
O 3.36496 11.4759 7.90148
O 2.26819 15.6185 8.05752
O 3.17069 8.43355 5.73981
O 2.44036 15.4921 5.35784
O 0.80248 13.4466 8.32723
O 2.18368 -0.0604747 8.29693
O 15.3454 13.8914 12.6932
O 2.58449 14.0316 10.3084
O 0.14609 17.5294 6.80632
O 3.85225 11.458 13.3994
Si 3.61003 14.5188 4.81147
Si 6.61115 10.3575 5.10072
Si 6.60219 15.2926 9.18856
Si 9.98366 12.449 7.50719
Si 3.88209 11.8796 6.3542
Si 7.51011 16.3445 6.83387
O 5.32337 14.1478 9.42118
O 7.49394 8.57816 12.2371
O 10.6401 9.52679 5.88066
O 9.34866 1.68242 5.09366
O 5.55665 11.2736 6.06268
O 7.69407 15.1721 5.69813
O 4.11911 13.2716 5.74928
O 7.07601 17.5941 6.04395
O 6.18717 15.7806 7.69915
O 10.0624 13.2219 8.90201
O 6.88904 16.5567 10.1882
O 9.24514 13.2266 6.27774
Si 9.01505 14.3428 5.12731
Si 1.25566 8.23501 5.92052
Si 10.473 16.0469 6.91037
Si 14.0304 11.228 9.57961
Si 11.598 10.6561 5.94696
Si 12.8257 15.9082 8.7554
O 8.93463 16.2914 7.43347
O 12.6178 10.3388 9.76494
O 0.913355 9.77679 4.9114
O 13.7399 14.6089 8.59793
O 13.2565 10.3235 5.81462
O 1.3657 -0.0805793 4.66438
O 10.3397 15.1558 5.57492
O 13.6522 17.4928 5.40188
O 11.2622 15.6315 8.20405
O 15.0802 9.8896 9.2135
O 11.6009 1.04232 15.7657
O 14.8012 11.8822 10.8842
Si 13.6018 4.1371 9.95409
Si 6.23539 0.574854 15.5873
Si 2.66754 6.31657 16.4091
Si 3.94121 2.14619 1.89163
Si 3.72661 2.38982 16.2731
Si 4.93986 5.12197 15.5115
O 1.37982 5.38815 16.2647
O 5.99424 17.3803 14.8186
O 3.23749 1.83145 0.440517
O 5.84913 5.9719 16.5968
O 0.840721 3.17151 13.0021
O 3.73168 3.55621 13.0054
O 0.116071 1.44005 14.7221
O 4.44385 9.4892 8.77247
O 3.66503 5.87942 15.1758
O 6.61953 15.8426 12.6457
O 2.30635 8.0979 16.128
O 3.68031 3.82614 2.12081
Si 4.43616 3.93364 11.6674
Si 5.83298 16.6635 11.4384
Si 6.99546 7.20885 16.3171
Si 12.7707 1.54436 14.9299
Si 7.38431 3.3155 14.8488
Si 7.72903 7.45843 13.4178
O 8.32061 6.66544 17.1517
O 9.68646 0.70729 -0.0258022
O 7.03119 1.65259 14.9549
O 9.09891 7.59073 14.3735
O 8.20724 3.28474 13.3233
O 7.5349 6.01043 12.5319
O 4.86109 1.28148 15.9216
O 5.60481 8.11116 10.6565
O 6.51829 7.4114 14.8084
O 12.5071 2.33881 13.6016
O 4.9049 4.56607 4.24671
O 7.83151 3.96284 16.333
Si 8.62187 4.62407 12.4195
Si 12.6802 16.9883 11.8591
Si 10.0576 6.24928 14.4116
Si 15.1877 0.0192533 13.6083
Si 13.0871 2.04781 11.9962
Si 11.5846 6.56773 9.58676
O 9.82829 5.22375 15.6563
O 0.397346 0.240952 16.911
O 15.6112 17.1456 14.6888
O 4.66138 3.68916 16.4303
O 13.8366 15.961 12.8011
O 12.9441 5.64789 9.80571
O 9.9817 5.14935 13.2881
O 11.4332 8.05975 10.0216
O 12.6041 3.25113 10.8874
O 13.533 0.220076 14.0282
O 11.7377 7.13599 14.082
O 15.706 -0.0568086 12.1145
Si 1.07164 13.5641 13.2026
Si 3.17133 10.4648 9.25998
Si 2.40446 15.832 14.448
Si 4.34657 11.5485 11.8977
Si 2.20089 11.4093 13.6227
Si 2.47801 2.5744 13.4543
O 1.2701 15.3469 15.7181
O 1.31732 10.0339 14.3223
O 5.80104 10.9066 11.6759
O 2.20317 1.13611 12.7555
O 1.42929 12.112 12.324
O 6.0722 4.57391 14.5065
O 1.59296 12.6621 14.5326
O 4.51086 15.651 11.624
O 1.8061 15.0864 13.236
O 9.3293 14.0801 11.633
O 2.55374 2.60792 15.2179
O 4.34685 13.145 11.8291
Si 1.58821 14.4644 9.16698
Si 6.31947 9.54881 10.8574
Si 7.34355 15.0454 13.8579
Si 9.20056 11.0231 15.1573
Si 8.85925 13.3278 10.1142
Si 10.3389 16.1132 13.9523
O 4.33356 13.2709 0.847251
O 11.3863 14.7327 13.9313
O 7.36351 13.4415 13.3356
O 9.55119 11.8305 16.5944
O 8.05458 12.0308 10.8251
O 7.78098 14.2507 9.3849
O 3.44361 10.9273 10.831
O 12.6265 0.546311 11.3327
O 8.90736 15.7778 13.7861
O 10.34 10.0304 14.7009
O 8.94677 16.6298 1.1622
O 7.46221 10.6774 15.5994
Si 12.8061 14.5555 13.3811
Si 11.4304 9.77784 10.7868
Si 10.8629 17.9191 16.4054
Si 14.887 10.6752 17.0702
Si 11.7192 10.6958 13.9095
Si 13.6912 12.3846 14.8308
O 10.4961 16.7714 15.3923
O 13.6434 9.89415 0.777338
O 12.8026 9.54945 14.8741
O 2.32723 17.4245 14.959
O 11.9051 10.2625 12.3096
O 14.3507 11.7128 13.4854
O 12.0706 12.077 14.453
O 12.981 13.5948 12.0763
O 13.9115 13.9048 14.5724
O 15.5303 9.59892 16.2233
O 11.6676 17.1781 0.375462
O 14.2206 11.8105 16.1322
324
 Atoms. Timestep: 5500
Si 0.369251 4.85447 0.141151
Si 5.10411 16.0057 15.148
Si 4.81333 8.57248 4.35747
Si 3.58021 1.85151 6.67477
Si 2.2538 1.15115 4.09666
Si 4.41089 5.74982 4.15406
O 4.71905 5.81692 5.73305
O 4.09648 1.28504 10.3345
O 2.47501 1.89236 5.5926
O 6.25984 8.41744 17.0523
O 3.51396 1.63248 3.2842
O 2.94515 5.86216 3.56664
O 0.921712 4.93545 1.84977
O 3.06241 6.49234 0.996437
O 5.01268 7.19109 3.32042
O 4.55426 0.643873 6.61628
O 3.82765 9.63045 3.36953
O 4.33239 3.34509 6.42665
Si 2.62932 5.28327 2.00737
Si 8.2834 17.7653 1.0736
Si 8.27222 5.18259 5.5207
Si 10.3795 3.32862 4.4479
Si 6.15547 1.04852 2.69024
Si 9.16831 4.9604 2.63748
O 6.87425 4.60747 5.8599
O 6.34072 1.657 4.31604
O 9.44435 3.45256 3.05852
O 12.2684 5.13206 1.11545
O 7.01024 -0.0304688 -0.0208591
O 8.89797 5.07805 1.01616
O 5.40079 2.24366 1.6707
O 8.28169 9.12399 1.07725
O 7.9824 5.46231 3.78615
O 11.7468 3.45063 3.38997
O 6.60434 10.7258 3.3886
O 10.5359 5.8047 2.88878
Si 8.90307 5.5744 16.5271
Si 0.878867 0.0556219 14.9259
Si 14.0557 4.61473 5.45876
Si 15.5568 1.23413 2.48192
Si 15.3593 1.83811 16.7778
Si 13.3213 6.21162 0.292019
O 13.456 5.32445 3.97805
O 14.298 1.07883 3.59723
O 14.9874 2.04736 1.07179
O 13.5964 7.50017 1.09238
O 13.8245 1.92419 16.2703
O 0.646702 3.24559 16.5782
O 14.4983 5.20011 0.495163
O 13.1534 6.39517 15.8998
O 0.116478 4.27657 5.53982
O 1.09562 1.89697 3.20459
O 1.25034 6.71334 5.81524
O 13.171 3.44663 6.15231
Si 1.4616 14.7876 0.223191
Si 1.58442 9.73984 15.9961
Si 1.57556 16.2752 3.97436
Si 3.90886 12.843 2.41532
Si 1.68222 11.6741 1.02917
Si 4.10432 15.3813 0.889262
O 15.2398 14.0029 6.50562
O 3.04344 11.3276 5.04074
O 2.87779 11.757 2.06813
O 3.04103 16.7078 3.03556
O 2.22442 10.8108 16.9745
O 3.92412 15.193 14.4624
O 1.27583 13.2327 0.506984
O 4.74881 16.1014 16.7583
O 2.59034 15.9195 0.848746
O 5.43688 12.5276 2.34244
O 2.95287 1.96877 8.16093
O 3.37334 13.7465 3.79123
Si 8.38426 12.6557 12.3532
Si 7.22032 9.67576 0.0497708
Si 4.55736 16.6832 3.32569
Si 9.77831 10.1764 4.82661
Si 6.84143 11.7728 2.14704
Si 9.78106 15.2216 2.13843
O 4.79628 15.9798 4.7406
O 8.19062 10.2954 5.45085
O 7.92743 12.7343 1.99859
O 9.61399 14.2971 3.68063
O 6.50025 11.0392 0.709777
O 10.1138 13.9488 1.09563
O 8.62001 11.8771 13.9441
O 7.81489 0.913126 2.27574
O 4.96425 15.4926 2.12962
O 9.59831 9.28927 3.46524
O 5.2953 17.8994 2.71476
O 10.468 11.7159 4.51224
Si 9.41815 12.3475 0.919088
Si 12.679 7.66837 14.9248
Si 12.0274 17.3447 1.97287
Si 12.5523 8.64562 0.537769
Si 9.77065 9.41054 1.71027
Si 15.2808 16.297 2.0785
O 11.2405 12.3492 7.00248
O 0.642004 8.84506 7.16976
O 11.1984 8.66314 1.36466
O -0.00250427 15.7435 3.61643
O 11.8908 8.51229 16.2508
O 0.096 15.5407 0.818053
O 9.92267 10.9267 1.28919
O 0.132345 17.9297 2.00933
O 11.1692 15.9487 1.85486
O 0.160081 11.2445 1.43194
O 11.8498 -0.00626569 3.41201
O 13.7792 16.7409 2.1077
Si 13.2949 2.59125 7.56763
Si 2.42253 1.39827 9.53759
Si 0.417715 5.78631 9.38943
Si 5.63838 1.70186 10.5291
Si 14.4998 17.8603 7.03023
Si 3.41437 5.49097 10.0366
O 15.0966 4.82639 10.1546
O 6.22559 0.221464 11.2244
O 1.32861 2.30962 10.2312
O 6.36256 7.76864 7.47411
O 0.932458 15.7112 9.83725
O 3.94643 6.35812 8.74007
O 14.3498 1.3345 7.06724
O 1.81914 5.75262 10.352
O 3.64434 3.92284 10.0677
O 6.62227 1.64453 9.14905
O 0.0466415 7.48367 9.38128
O 6.06988 3.27522 11.2678
Si 5.27862 4.14048 5.57425
Si 6.32307 0.962896 5.77053
Si 5.0435 7.71192 8.84999
Si 8.99516 5.0025 9.59664
Si 7.76207 2.31415 8.36937
Si 7.68937 7.03383 7.88009
O 4.11479 5.57981 11.5736
O 10.3942 16.8999 12.5901
O 8.10121 3.69101 8.96473
O 8.7 8.26442 8.19504
O 7.18367 2.01736 6.75677
O 7.64582 6.11347 9.08326
O 9.65389 4.201 5.58451
O 8.57895 6.23113 6.7207
O 5.79313 9.33053 5.30309
O 10.2124 6.22212 9.38026
O 7.54751 9.56628 10.1068
O 9.19329 4.07975 10.8647
Si 12.0884 5.07528 2.91319
Si 13.3222 17.9078 4.13225
Si 8.64877 9.6692 8.91802
Si 0.596454 1.90837 11.9383
Si 10.5153 1.55492 7.10428
Si 0.241167 5.55002 6.4949
O 9.85383 9.84696 9.96333
O 11.8947 16.3509 10.4276
O 11.7211 2.05573 8.1076
O 0.948852 5.17488 7.92644
O 10.8686 17.9522 7.46883
O 13.6816 3.66668 8.6214
O 9.46285 1.84736 8.26223
O 14.2357 12.0616 8.35147
O 14.2499 5.87282 6.63936
O 13.4342 17.2717 8.04645
O 8.75136 11.0539 7.74995
O 14.7807 1.95945 11.3138
Si 14.8932 13.4661 7.91846
Si 2.57203 9.94557 4.48985
Si 14.4635 12.8035 12.3226
Si 4.22329 14.1505 10.6819
Si 0.450651 9.06806 8.87958
Si 1.29668 16.8071 8.57509
O 6.24261 14.7355 14.8628
O 1.84834 9.83675 9.21712
O 3.48641 11.3661 7.33611
O 1.97317 15.5111 7.96192
O 3.1428 8.57838 5.75387
O 2.08651 15.2128 5.12619
O 0.754681 13.0864 8.59568
O 2.27093 17.9967 9.18311
O 15.5537 13.7828 12.5762
O 2.6465 14.1795 10.3136
O 0.319253 17.4663 7.49274
O 3.31677 10.6065 12.5834
Si 3.67975 14.8381 4.97462
Si 6.66183 10.707 5.01042
Si 6.59543 14.9361 9.11539
Si 9.82574 12.3615 7.48745
Si 4.14154 12.0553 6.10922
Si 7.4378 16.2011 6.71383
O 5.43147 13.7126 9.56416
O 7.3235 8.31987 12.2564
O 10.6658 9.86862 6.2492
O 10.7239 2.11995 5.592
O 5.81685 11.9744 5.56686
O 7.76896 15.4344 5.22918
O 4.37654 13.8335 6.06176
O 6.83475 17.5557 6.0374
O 6.26098 15.4954 7.41142
O 10.2032 12.9072 9.0851
O 7.11713 16.0539 10.0709
O 8.79764 13.4008 6.44421
Si 9.02086 14.5267 5.23692
Si 1.32861 8.24905 5.76021
Si 10.4039 16.4261 7.13071
Si 14.1185 11.0842 9.70238
Si 11.5081 11.3951 5.79711
Si 12.5656 16.0315 8.93004
O 8.80908 16.3303 7.64547
O 12.7035 10.5396 10.0048
O 1.13763 9.3272 4.27743
O 13.7304 14.8737 8.91475
O 13.139 10.8609 5.68871
O 1.68094 17.8835 4.61379
O 10.4233 15.5843 5.58701
O 13.9247 17.1119 5.51636
O 11.3409 15.4532 8.01533
O 15.1871 9.90363 9.68511
O 11.3535 1.43725 15.4838
O 14.2273 11.8912 10.9696
Si 13.5487 4.30542 10.1607
Si 6.25083 0.66727 16.0469
Si 2.57 6.56237 16.5383
Si 3.61413 2.23748 1.8243
Si 3.28866 2.26863 16.3668
Si 4.72006 4.90514 15.6501
O 1.51003 5.35751 16.2717
O 5.7946 17.5493 14.8127
O 2.63371 1.4528 0.501255
O 5.48214 5.85385 16.8229
O 1.2486 3.31464 12.9066
O 4.27029 2.90431 12.7584
O 0.118702 1.24299 13.9231
O 4.27668 9.06501 8.30633
O 3.47267 6.08807 15.4089
O 6.77706 16.4096 12.8381
O 2.55538 8.32048 16.0596
O 3.22627 3.83215 1.79945
Si 4.58885 3.92427 11.384
Si 6.09869 16.6309 11.3063
Si 6.42246 7.0532 16.3614
Si 12.8748 1.58884 14.9855
Si 7.42503 3.26472 14.8568
Si 7.36705 7.21752 13.5745
O 7.98326 6.79035 16.4347
O 9.59619 -0.0239769 0.0419234
O 7.20853 1.83963 15.2572
O 8.88938 7.43391 14.1164
O 8.34204 3.13593 13.178
O 7.71332 5.91972 12.5863
O 4.98326 1.67665 16.2561
O 5.31621 8.091 10.3041
O 6.33038 7.37893 14.6485
O 13.3065 2.40557 13.5751
O 5.04 4.26976 3.89747
O 8.43038 4.06811 16.1339
Si 8.76626 4.55064 12.3986
Si 11.901 17.137 11.8219
Si 10.195 6.48902 13.8762
Si 14.8697 18.0374 13.3828
Si 13.1884 2.06205 11.9983
Si 11.5638 6.69836 10.1932
O 10.2262 5.79811 15.3759
O 0.626742 0.535021 16.475
O -0.0565418 16.8977 14.4527
O 3.49581 3.88412 16.2876
O 12.8612 16.0725 12.758
O 12.705 5.61531 10.5166
O 10.2798 5.16368 12.8651
O 11.6868 8.21896 10.4993
O 12.6377 3.17338 11.0454
O 13.2065 18.04 14.2985
O 11.9389 7.06883 13.6284
O 15.2248 17.8033 11.8727
Si 1.48088 13.3187 12.7257
Si 3.36721 10.2597 8.60903
Si 2.26076 15.7671 14.5989
Si 4.36482 11.2061 11.5754
Si 2.1354 11.271 13.3364
Si 2.49969 2.37924 13.2735
O 1.33719 15.0114 15.8967
O 1.7447 10.1316 14.4719
O 5.78882 10.5519 11.8105
O 2.08869 1.05852 12.4796
O 1.47126 11.9495 11.8358
O 6.0176 4.22911 14.6239
O 1.72023 12.6869 14.2373
O 4.88662 15.4891 11.2946
O 1.54911 15.0183 13.2307
O 9.63802 13.6206 11.8663
O 2.30399 1.72859 14.9334
O 4.21666 12.9468 11.8949
Si 1.43915 14.3743 9.13844
Si 6.42397 9.24121 11.1207
Si 7.15625 15.085 13.5141
Si 9.19058 11.0332 15.2678
Si 9.04911 13.0912 10.2402
Si 10.0957 16.0589 13.9942
O 3.84311 13.8148 1.03998
O 10.9948 14.6513 13.7862
O 7.21975 13.7895 12.4153
O 8.91171 12.1879 16.6799
O 8.73425 11.7414 11.028
O 8.05421 13.8399 9.22128
O 3.84789 10.95 10.0904
O 12.1442 0.600713 11.749
O 8.57776 15.6676 14.2339
O 10.2143 9.56081 14.9063
O 8.3893 16.2966 1.74166
O 7.9349 10.1188 15.9571
Si 12.5613 14.5841 13.513
Si 11.3085 9.91654 10.6605
Si 10.8623 -0.0822736 16.29
Si 14.7631 10.6745 -0.010452
Si 11.5483 10.0597 14.0221
Si 13.7017 11.9555 14.7011
O 10.5033 16.9517 15.2771
O 13.4214 10.0357 0.886666
O 13.1503 9.10801 14.3672
O 2.39222 17.2264 15.0203
O 11.4185 10.1335 12.2937
O 14.5934 11.6384 13.4732
O 12.1591 11.544 14.6291
O 13.0783 13.6496 12.2399
O 13.2588 13.769 14.6025
O 0.0611687 9.71721 16.2885
O 12.0678 17.7966 0.416259
O 14.342 11.7481 16.1014
324
 Atoms. Timestep: 6000
Si 0.77225 4.80873 16.7406
Si 5.36755 16.1127 15.3554
Si 4.81372 8.32069 4.17807
Si 3.51713 2.59223 6.49045
Si 1.76027 2.06022 4.19082
Si 4.67488 5.80091 3.73529
O 4.78356 5.78831 5.4209
O 4.66956 1.45948 8.86798
O 2.39001 3.08159 5.36
O 6.31572 8.15399 16.9691
O 3.05539 1.7817 3.33986
O 3.05419 6.07178 3.26751
O 1.32143 4.77457 1.34827
O 3.16203 6.30699 0.506864
O 5.42221 7.09491 3.1604
O 4.40283 1.09312 6.18307
O 4.14103 9.7507 3.18162
O 4.73756 3.63679 6.60634
Si 2.80758 5.08795 1.70213
Si 8.1824 17.6876 1.01947
Si 8.46723 5.48496 5.566
Si 10.5698 3.59129 4.46527
Si 6.24834 0.793203 3.25407
Si 9.39452 5.18609 2.84943
O 7.39667 4.39523 6.04174
O 6.41842 1.55482 4.74595
O 9.43477 3.65683 3.36259
O 12.918 4.86174 1.33228
O 7.04683 17.7407 -0.114192
O 8.74872 4.65805 1.44832
O 5.28451 1.65546 2.04287
O 8.71386 8.62496 0.914232
O 8.59644 6.1927 4.02925
O 11.7809 3.79241 3.51235
O 7.19459 11.1169 3.44679
O 10.8075 5.97498 2.59934
Si 8.87965 5.02634 16.8358
Si 0.341415 17.578 14.9274
Si 13.8798 5.23539 5.29881
Si 15.236 1.53749 2.32648
Si 15.2103 2.04916 16.4561
Si 13.5641 5.80808 0.176324
O 13.0116 5.85927 4.01556
O 14.343 1.10229 3.62357
O 14.8288 2.2605 0.835266
O 13.4111 7.15337 1.18989
O 14.0584 2.37103 15.4016
O 1.05306 3.00728 16.2218
O 14.8329 4.93691 16.7545
O 13.107 6.4282 15.9629
O 15.5892 4.7736 5.4483
O 0.590008 2.41666 3.23996
O 1.51273 6.95575 5.46794
O 13.1901 4.22738 6.3476
Si 1.18311 14.9008 17.0938
Si 1.39272 9.88326 16.03
Si 1.58325 17.1437 4.27168
Si 3.75036 12.781 2.07101
Si 1.3706 11.8328 0.996794
Si 3.99396 15.3845 0.895825
O 13.4474 14.9471 7.79747
O 3.22669 11.0911 5.32115
O 2.69675 11.5561 1.98945
O 2.8929 17.3305 3.3881
O 1.86123 11.2567 16.6502
O 4.19392 15.6462 14.4072
O 0.948084 13.3214 0.360337
O 4.79593 15.9947 16.8812
O 2.5031 15.6422 0.485695
O 4.95919 11.7953 2.1326
O 2.42037 2.48088 7.8579
O 3.23526 13.6346 3.57772
Si 8.36872 12.7817 12.5233
Si 7.41719 9.33199 0.0472376
Si 4.29493 16.6753 3.67547
Si 9.48475 9.9205 4.72308
Si 6.51187 11.3607 1.91499
Si 9.57119 14.9625 2.0511
O 4.57004 15.4148 4.88517
O 8.13992 10.4095 5.653
O 7.35789 12.6784 0.961228
O 9.41845 14.2396 3.68121
O 6.42512 10.1606 0.976626
O 9.69987 13.8959 0.967311
O 8.40982 11.7553 13.7986
O 7.71702 0.321152 2.55811
O 4.33674 15.6349 2.30252
O 8.94279 9.04059 3.30331
O 5.53231 17.5938 3.7099
O 10.0149 11.5988 4.53058
Si 9.13384 12.3085 0.859421
Si 12.2132 7.52726 14.9996
Si 12.208 16.7199 2.42868
Si 12.3373 8.43106 0.639214
Si 9.85403 9.11243 1.82236
Si 15.3116 16.6003 1.95618
O 11.7786 11.7162 6.88318
O 0.798778 9.05762 6.59209
O 11.5059 8.5853 2.00272
O 0.381976 16.1771 3.41737
O 11.3221 8.25898 16.4107
O 15.5508 15.8654 0.475726
O 9.91649 11.1136 1.65742
O 0.0101402 0.149643 1.8512
O 11.1919 15.6547 2.28167
O 15.3108 11.3486 1.45601
O 11.902 17.6466 3.81151
O 13.7907 16.3179 2.43733
Si 13.3319 3.03721 7.43827
Si 2.68407 1.5599 9.14047
Si 0.934399 6.41268 9.3407
Si 5.69668 1.25081 10.1103
Si 14.4618 0.0485214 7.48455
Si 3.58684 5.36117 10.4479
O 15.3897 5.39915 10.1045
O 5.67798 17.9085 10.9652
O 1.21805 1.96743 10.1925
O 6.29213 8.05055 8.0453
O 0.720273 16.1784 10.1004
O 4.49821 6.00211 9.23128
O 14.3541 1.60297 7.46975
O 2.27921 6.18804 10.5454
O 3.32558 3.72805 10.3206
O 7.32662 1.6647 9.65002
O 0.911714 7.99204 9.11953
O 5.54569 2.58928 11.1613
Si 5.71224 4.33232 5.30125
Si 5.87038 0.890826 6.17288
Si 4.99152 7.58866 8.99347
Si 8.55588 4.56617 9.64455
Si 7.67971 2.12604 8.13399
Si 7.85504 7.43473 8.02376
O 4.61921 5.26991 11.8368
O 11.4144 17.4633 13.1292
O 8.05121 3.70268 8.35816
O 8.97591 8.57606 7.50003
O 6.48527 2.03175 7.19127
O 8.18744 6.11904 9.07369
O 10.1615 4.61239 5.60133
O 8.43347 6.62997 6.70518
O 6.13378 9.11552 4.48392
O 10.3389 4.61192 9.90634
O 7.69573 9.89224 9.91337
O 8.05638 4.16483 11.0421
Si 12.2346 5.16747 2.76019
Si 13.1713 0.26045 4.59532
Si 8.99623 9.74674 8.80115
Si 0.809549 1.79571 11.8875
Si 10.5458 1.56637 6.88659
Si 0.378227 6.20084 6.36773
O 10.0284 9.22865 9.98783
O 12.0513 16.3564 10.7636
O 11.576 2.7251 7.65844
O 0.886521 5.89099 7.8039
O 11.2801 0.00699765 7.09552
O 14.0422 3.61029 8.69086
O 9.24297 1.52489 7.71334
O 13.7191 12.0813 8.62434
O 14.5149 6.93042 6.36281
O 13.4617 17.5191 8.73202
O 9.42852 11.1856 8.01563
O 14.6195 1.94523 11.8825
Si 14.0026 13.7646 8.74513
Si 2.93234 10.153 4.07686
Si 14.4498 12.6738 12.1486
Si 4.02564 14.321 10.5429
Si 0.704711 9.33565 8.21975
Si 1.2431 16.9346 8.76592
O 6.85122 15.4202 15.2412
O 2.00806 10.1363 8.99006
O 4.05531 11.0703 7.4832
O 1.6744 15.372 8.14111
O 3.37826 8.53263 5.0569
O 2.07138 15.7365 5.19714
O 0.0229551 13.4932 9.02698
O 2.34774 17.9019 9.18161
O 15.4642 13.919 11.638
O 2.41152 14.0978 10.8899
O 0.494351 17.5421 7.47533
O 3.76466 10.7517 12.6969
Si 3.33917 14.3593 5.04358
Si 6.68487 10.6059 4.92512
Si 6.36266 14.6972 8.82613
Si 10.3525 12.3969 7.59337
Si 4.33766 11.9557 6.27493
Si 7.3431 16.2555 6.33737
O 4.64146 14.0811 9.04595
O 7.81143 8.26051 11.8301
O 10.994 9.57279 5.1227
O 10.6865 2.08731 5.27579
O 5.91815 11.8579 5.70113
O 8.00079 15.3716 4.99213
O 3.7006 13.5219 6.4032
O 6.28393 17.4031 6.33668
O 6.72451 15.1767 7.26844
O 9.94586 13.241 9.11252
O 6.57631 16.136 9.71297
O 9.45534 13.3208 6.49917
Si 9.36165 14.3326 5.18269
Si 1.48231 8.42553 5.18983
Si 10.63 16.5842 6.97247
Si 13.8751 10.7326 9.41851
Si 11.7095 11.1301 5.15088
Si 12.5055 15.8323 9.36164
O 8.87873 17.0211 6.814
O 12.5632 9.74351 9.84539
O 1.48381 9.29273 3.87045
O 12.7976 14.1125 10.0032
O 12.9749 11.3455 3.896
O 1.47791 0.63126 4.91834
O 10.7529 15.6313 5.63747
O 13.7765 17.4771 5.93043
O 11.1754 15.8866 8.50237
O 14.8503 9.84232 8.44398
O 11.6447 1.45038 16.2299
O 14.0355 11.6265 10.9384
Si 13.8882 4.74383 9.77839
Si 6.34645 0.521936 16.0043
Si 2.62093 6.8245 16.1835
Si 3.74027 2.39059 2.07209
Si 3.64262 1.95733 16.5291
Si 4.44898 4.81879 15.7767
O 1.12958 6.15303 15.8316
O 5.66014 17.6413 14.9331
O 2.88968 1.777 0.840826
O 5.54982 5.74178 16.6372
O 1.35489 3.10181 12.7191
O 3.94826 2.80567 13.0421
O 0.164546 0.17421 13.4936
O 3.84794 8.64354 8.17229
O 3.5077 6.02243 15.0435
O 6.82906 16.2518 12.6367
O 2.33694 8.49403 16.1412
O 3.70375 3.92901 2.39868
Si 4.3277 3.57406 11.7537
Si 6.04852 16.3762 11.2898
Si 6.51003 6.79422 16.189
Si 12.655 1.60014 14.9304
Si 6.99337 3.14562 15.2704
Si 7.59259 7.14839 13.132
O 8.09954 6.4548 16.7792
O 9.42434 0.388255 0.19881
O 7.4187 1.7354 15.6163
O 8.95664 7.17312 14.1116
O 7.35038 3.11947 13.5087
O 7.49892 5.77406 12.4292
O 4.97981 1.17268 16.874
O 5.44306 8.25085 10.4385
O 6.26305 7.23981 14.6854
O 12.5847 2.424 13.5144
O 5.72693 4.41473 3.66336
O 7.87497 3.78292 16.5045
Si 8.07156 4.20316 12.7278
Si 12.6436 17.3903 11.7198
Si 9.9919 5.83512 14.3971
Si 14.2745 17.2988 13.4437
Si 13.1308 2.42838 11.8821
Si 11.4587 5.68862 10.3212
O 10.1838 5.47156 16.1356
O 0.24256 0.66102 15.9884
O 14.8472 16.3454 14.7836
O 3.5161 3.61661 16.5653
O 13.3114 15.9894 13.0321
O 12.6948 5.6569 9.37967
O 9.33306 4.64496 13.6587
O 11.0721 7.12829 10.9463
O 13.1721 3.82583 11.0464
O 13.1069 0.118783 14.4105
O 11.6058 6.39934 14.1261
O 14.1687 17.4777 11.835
Si 1.42273 13.5063 12.6071
Si 3.63733 10.1279 8.70049
Si 2.30924 15.5737 14.2406
Si 4.72678 11.1973 11.4116
Si 2.38022 11.434 13.4709
Si 2.70996 1.96078 13.4949
O 1.55848 14.5842 15.4688
O 1.64167 10.263 14.4409
O 6.18415 10.4747 11.8378
O 2.69782 0.683643 12.4685
O 1.24353 11.9402 12.1621
O 5.56878 3.71395 15.0597
O 2.27205 12.8323 13.9491
O 4.77063 15.5009 11.505
O 1.55737 15.1848 12.8446
O 9.51155 13.9178 11.7034
O 2.95198 1.59449 15.086
O 4.51458 12.9658 11.3935
Si 1.12596 14.6775 9.76513
Si 6.64805 9.13853 10.9322
Si 7.70276 15.5116 13.7669
Si 9.21107 10.9301 15.0408
Si 8.83127 13.2798 10.321
Si 10.7226 16.3818 14.2403
O 3.98969 13.6984 0.869832
O 11.335 14.7808 14.4185
O 7.3707 13.9926 13.1087
O 9.36653 12.1908 16.2075
O 8.32862 11.8783 11.0642
O 7.70132 13.6926 9.19908
O 3.92494 10.7474 10.0415
O 12.428 1.02127 11.3684
O 9.13062 16.0749 14.1115
O 10.3117 9.9112 14.3433
O 8.51473 16.065 1.5256
O 8.11894 9.9392 15.7594
Si 12.7984 14.4718 13.8873
Si 11.3979 9.19195 10.9083
Si 10.9719 0.0936975 16.9193
Si 14.522 10.6625 0.179334
Si 11.7821 10.1528 14.0021
Si 13.9553 12.3224 14.9354
O 10.6301 17.1436 15.6947
O 13.0928 9.87114 0.664772
O 13.0885 8.91569 14.3553
O 1.96553 17.0041 14.8798
O 11.8564 9.84789 12.3351
O 15.11 11.8969 13.6448
O 12.5256 11.3973 14.8882
O 12.9714 13.3845 12.6631
O 13.6559 13.8283 15.2121
O 15.4372 9.54514 16.1976
O 12.0907 17.7791 0.970301
O 14.6385 12.0104 16.3615
324
 Atoms. Timestep: 6500
Si 0.88832 5.08954 0.256954
Si 5.0867 15.5035 15.3817
Si 4.88332 8.67106 3.2195
Si 3.62889 2.70237 6.65511
Si 1.59025 1.71653 4.30652
Si 4.6322 6.0628 3.90019
O 5.04748 6.4516 5.37653
O 4.40983 1.21234 9.77136
O 2.14138 2.2593 5.61507
O 6.17981 8.55321 16.9764
O 2.46301 2.43909 3.04656
O 3.11398 5.9235 3.16873
O 1.42004 4.49309 1.60561
O 3.0425 6.16164 0.487836
O 5.41598 7.21625 2.89714
O 4.45802 1.57797 5.8619
O 3.80145 9.41068 2.22314
O 4.29987 4.20354 6.65006
Si 3.11213 5.20429 1.75302
Si 8.49307 17.944 1.14642
Si 8.37712 5.76536 5.39271
Si 10.331 3.34316 4.46258
Si 6.60784 0.938674 3.33997
Si 9.38689 5.03307 2.66801
O 7.0075 4.83705 6.11915
O 6.69601 1.78628 4.81173
O 9.50443 3.36891 3.08222
O 12.8333 4.82548 1.96236
O 7.13493 17.8463 0.306368
O 8.68454 4.76886 1.13977
O 5.38162 1.86745 2.48185
O 8.68089 9.23474 0.613156
O 8.4553 6.06706 3.65364
O 11.8249 3.53401 3.97687
O 7.29197 11.7357 3.70581
O 10.768 5.67482 3.05276
Si 8.32668 4.88275 16.7125
Si 0.668281 17.6025 15.1025
Si 14.0546 4.89285 5.59656
Si 14.8673 1.69283 2.5863
Si 15.2328 2.35327 16.7543
Si 13.6099 5.77709 0.974617
O 13.4107 5.37837 4.34272
O 13.5311 1.49487 3.58924
O 14.2217 2.45153 1.30449
O 12.946 7.31066 1.61311
O 14.0671 2.75098 15.7099
O 0.602681 3.53476 16.7705
O 15.1786 6.23747 0.645725
O 12.8203 5.80786 16.6283
O 0.0738811 4.55737 5.46746
O 0.171557 2.56503 3.70101
O 1.49043 6.85516 5.1915
O 12.7416 4.26447 6.6186
Si 1.36974 14.471 0.452759
Si 1.53698 9.57507 15.4451
Si 2.0568 16.5444 4.20679
Si 3.69124 12.8394 2.77229
Si 1.3985 11.3843 0.884811
Si 3.98003 14.8982 1.0396
O 12.9633 14.0279 7.62705
O 3.57254 11.3809 4.31506
O 2.48768 11.479 2.14486
O 3.47658 17.0564 3.50241
O 2.04472 10.7101 16.3666
O 3.84783 14.8997 14.3374
O 0.922071 12.9729 1.07426
O 4.88535 14.6982 16.7371
O 2.40794 15.6202 1.14992
O 5.28908 12.5164 2.50255
O 2.98302 2.52965 8.16185
O 2.99743 13.9907 3.64459
Si 9.33742 12.6543 12.4441
Si 7.35162 9.67525 0.0643008
Si 5.00904 16.2032 3.6259
Si 9.74702 9.99121 4.73256
Si 6.93329 11.8911 2.12815
Si 10.0145 14.9176 2.14684
O 4.88799 14.9427 4.8361
O 8.21357 10.3565 5.54084
O 7.37027 12.591 0.914636
O 9.51039 14.3558 3.45733
O 6.47979 10.5489 1.20332
O 9.9048 14.0184 0.847939
O 9.59707 11.5347 13.5327
O 8.02695 0.985578 2.50815
O 4.94897 15.3646 2.05979
O 9.07635 9.2606 3.44599
O 5.87888 17.3569 3.1775
O 10.4716 11.4182 4.1581
Si 9.18861 12.7125 0.479978
Si 12.1408 6.75112 15.4601
Si 12.5053 16.8217 2.09916
Si 12.1562 8.48493 0.784149
Si 9.55114 9.82976 1.89874
Si 15.5411 16.6865 1.98159
O 11.1136 11.9537 6.85577
O 1.30749 8.81449 6.79568
O 11.0446 9.19004 1.67254
O 0.966973 15.8575 3.2605
O 11.2252 7.83821 16.5062
O 15.5374 15.5477 0.827954
O 9.2211 11.3441 1.65
O 0.130523 0.32787 1.87181
O 11.7274 15.4541 2.01574
O 0.117664 10.3482 1.10387
O 11.5755 17.6933 3.74646
O 13.9229 16.6441 2.88709
Si 13.0816 2.68092 7.40714
Si 2.94734 1.52915 9.42252
Si 0.946814 6.62513 9.02998
Si 5.57413 1.42523 10.5659
Si 14.047 17.9452 6.91673
Si 3.46412 5.32606 10.3825
O 15.2977 5.47924 9.62912
O 5.54508 0.137 11.6689
O 1.61715 1.6533 10.1623
O 6.68487 7.51041 8.19245
O 0.189173 16.4224 10.1028
O 4.40287 6.01037 9.20362
O 13.8033 1.63306 6.61473
O 2.11834 6.19339 10.2116
O 3.60578 3.5592 10.3341
O 7.0202 1.43968 9.83459
O 0.422372 8.21718 9.05726
O 5.85396 2.80763 11.4853
Si 5.44346 4.93163 5.53286
Si 6.05527 1.18882 6.21621
Si 5.46525 7.36064 9.36497
Si 9.16886 4.63253 9.76186
Si 7.77408 1.90292 8.53155
Si 8.26193 7.25695 8.05112
O 4.37452 5.33566 11.9373
O 10.6028 17.9072 13.0649
O 8.59167 3.33794 8.50183
O 9.24595 8.31266 8.52448
O 6.99146 1.9964 7.24932
O 8.59196 5.79223 8.8405
O 9.70174 4.73341 5.48571
O 8.57232 6.90135 6.45046
O 6.09014 9.43199 3.99599
O 10.608 4.80829 10.4454
O 7.91843 9.5396 10.1596
O 8.12084 4.47793 10.9135
Si 12.1561 4.88593 3.39421
Si 12.9881 0.237836 4.43502
Si 9.08124 9.91523 9.17927
Si 0.947311 1.73996 11.6755
Si 10.4059 1.56956 6.89929
Si 0.509261 5.9945 6.16849
O 10.3889 10.083 9.91025
O 11.5457 17.3351 10.2582
O 11.4688 2.51607 7.65427
O 1.39044 5.98566 7.4875
O 10.9546 17.8619 6.46589
O 13.9383 3.27538 8.66657
O 9.08603 1.14513 7.84405
O 12.9893 12.4943 9.75535
O 14.5078 6.30764 6.54293
O 12.7637 17.4719 7.92064
O 8.67245 11.1913 8.103
O 15.0038 2.07728 11.5879
Si 13.39 13.9988 9.27673
Si 2.77443 9.98156 3.36883
Si 14.5503 12.5233 12.2141
Si 4.02843 14.0693 10.7883
Si 0.928557 9.66543 8.34109
Si 0.929522 17.0454 8.48106
O 6.39225 15.339 14.6279
O 2.23535 10.3663 8.86712
O 4.21094 10.7906 7.25283
O 1.58004 15.4502 8.18546
O 3.68985 8.57231 4.328
O 2.4171 15.6218 5.68761
O 15.1127 14.0279 9.39371
O 2.53799 17.8699 8.69149
O 0.231191 13.5224 11.8605
O 2.25359 13.8726 10.2989
O 0.134624 17.8281 7.27285
O 3.98956 10.3586 12.8308
Si 3.30563 14.374 5.21038
Si 6.73846 10.7873 4.9491
Si 6.45205 14.7611 9.05646
Si 9.73511 12.5059 7.51272
Si 4.23604 11.9463 5.96199
Si 7.08929 16.2865 6.61122
O 5.09533 13.8092 9.55623
O 7.80976 8.58572 12.6795
O 10.8102 9.65149 5.79309
O 10.1484 2.08173 5.36521
O 5.84975 11.8625 5.73499
O 7.68409 15.4977 5.35817
O 2.9824 13.0341 6.14332
O 6.24599 17.6155 6.51809
O 6.26774 15.3813 7.54552
O 10.2522 13.2261 8.80522
O 6.2109 16.2353 9.85598
O 8.81508 13.4366 6.29667
Si 9.08765 14.57 5.09276
Si 1.5864 8.40357 5.24635
Si 10.1733 16.5229 7.02719
Si 13.8078 11.0144 9.72907
Si 11.4468 11.2778 5.48423
Si 11.9754 16.5263 9.13625
O 8.65293 16.5032 7.51307
O 12.6433 10.0254 9.90891
O 1.31895 9.52289 4.10008
O 12.9083 15.4012 9.91804
O 12.9787 11.6938 4.7961
O 1.3952 0.224452 4.79527
O 10.1524 15.725 5.48293
O 14.0649 17.2584 5.50796
O 10.6894 15.9241 8.52472
O 15.032 10.6896 8.46784
O 11.4647 1.63556 15.7708
O 14.5684 11.2094 11.151
Si 13.8243 4.72613 9.35223
Si 6.24069 0.357615 15.8833
Si 2.6298 6.90596 15.9244
Si 3.90123 2.46455 2.27068
Si 3.78078 2.06763 16.2559
Si 4.86005 4.8894 15.5353
O 1.17288 6.09038 15.9735
O 5.09774 17.1594 15.677
O 3.06002 1.96265 0.710805
O 5.45224 5.79068 16.6853
O 1.09203 2.86699 13.1547
O 3.74506 2.91431 13.0292
O 0.0893211 0.314899 13.6799
O 4.49802 8.572 8.56047
O 3.76744 6.1685 15.1091
O 6.76938 15.7689 12.2231
O 2.52971 8.43071 15.7565
O 4.19293 4.05222 1.76885
Si 4.43806 3.63467 11.7459
Si 5.67732 16.4524 11.236
Si 6.27143 7.19225 16.0064
Si 12.8383 2.04153 14.9435
Si 7.02429 2.88983 14.6382
Si 7.46185 7.11012 13.289
O 7.53979 6.1283 15.94
O 9.53536 0.659168 0.233308
O 6.98736 1.19598 14.6433
O 9.17337 7.103 13.6221
O 8.09362 3.1653 13.3459
O 7.0008 5.67455 12.5202
O 5.37103 1.6275 16.6227
O 6.08455 7.89235 10.7181
O 6.22306 7.48696 14.4438
O 13.1354 2.94224 13.4496
O 5.37878 4.63199 3.75852
O 7.77158 3.35213 16.249
Si 8.19749 4.52591 12.4529
Si 11.7811 0.226649 11.8909
Si 10.0319 5.76779 14.2442
Si 14.0928 17.2499 14.0446
Si 13.3796 2.81641 11.8318
Si 11.4156 6.03821 10.085
O 9.84077 5.03115 15.748
O 0.595332 1.03603 16.2265
O 14.938 16.7556 15.5416
O 4.02752 3.48422 15.6656
O 14.0967 15.6036 13.5903
O 12.6786 5.75651 9.01764
O 9.71803 4.59416 13.0921
O 11.1277 7.60309 10.5294
O 13.5383 4.21617 10.9902
O 13.2618 0.469024 15.0629
O 11.6118 5.87332 14.1744
O 13.0384 17.5286 12.7885
Si 1.81297 13.1918 12.283
Si 3.87795 10.2119 8.80087
Si 2.20637 15.0112 14.4232
Si 5.06372 11.2903 11.6894
Si 2.4819 10.9022 13.0309
Si 2.41656 2.16494 13.5309
O 1.65999 14.3927 15.9693
O 1.30774 10.0161 13.983
O 6.38393 10.441 11.8657
O 2.09749 0.784304 12.4915
O 1.77749 11.545 11.7149
O 5.92819 3.93372 14.3454
O 2.36584 12.5256 13.8853
O 4.15442 15.7204 11.2764
O 1.67047 14.8366 12.7348
O 9.66455 14.0623 11.3886
O 2.7526 1.3508 15.0563
O 4.8969 13.02 11.9079
Si 0.972457 14.7449 9.51564
Si 7.09003 9.0707 11.3313
Si 7.56009 15.2109 13.4487
Si 9.22536 10.9708 15.0472
Si 9.18302 13.3167 10.0251
Si 10.4531 16.4643 13.8794
O 3.54861 13.4109 1.24841
O 11.5087 15.3694 13.3861
O 7.89415 13.6162 13.1506
O 9.58907 12.3963 15.935
O 8.75823 11.9415 11.0842
O 7.77104 13.5654 9.33175
O 4.4807 11.0483 10.1326
O 12.3369 1.58259 11.1585
O 8.79934 16.0632 14.0742
O 10.1409 9.7206 14.4388
O 9.07433 16.463 1.83069
O 7.68761 10.3483 15.656
Si 13.0493 14.3377 13.45
Si 11.4996 9.37954 10.8009
Si 10.9604 0.259042 16.4685
Si 14.7234 9.89441 16.8593
Si 11.7064 9.4023 14.0668
Si 13.7071 11.9723 14.7957
O 10.8303 17.0278 15.3743
O 13.2447 9.66835 0.455154
O 12.7582 8.06369 14.685
O 1.76241 16.6096 14.7912
O 11.5087 9.69371 12.4321
O 15.0929 12.0086 13.6994
O 12.6398 10.7647 14.4747
O 13.0514 13.3102 12.3565
O 12.5557 13.2781 14.646
O 0.112624 8.9294 16.0739
O 12.1173 17.7317 0.609929
O 14.4017 11.3726 16.1396
324
 Atoms. Timestep: 7000
Si 0.57624 5.09625 0.473065
Si 5.30609 15.6458 15.4708
Si 4.88806 8.70107 3.54777
Si 3.67555 2.87939 6.74365
Si 2.34672 1.72164 4.61506
Si 4.84555 6.06781 4.02958
O 4.73562 6.6139 5.78881
O 4.0991 1.43571 10.3441
O 2.43418 2.84062 5.62882
O 6.26681 8.37919 16.9529
O 3.29 2.09103 3.41447
O 3.73147 6.17138 2.92907
O 1.86678 4.87213 1.52515
O 3.65566 6.44724 0.618039
O 5.73457 7.37346 3.66108
O 4.46711 1.5474 6.13924
O 3.56956 9.03504 2.64041
O 4.59635 4.32367 7.1697
Si 3.4341 5.23598 1.604
Si 8.51595 0.162604 0.814653
Si 8.02824 5.80439 5.37105
Si 9.67045 3.40061 5.01501
Si 6.68456 1.03693 3.02615
Si 8.76844 4.48897 2.85855
O 6.97828 5.18488 6.49917
O 6.44488 1.72914 4.52921
O 8.50997 3.14232 3.72875
O 12.4429 4.55789 1.85035
O 7.4006 17.6389 16.5161
O 8.95315 4.15345 1.13978
O 5.46483 1.70918 2.08169
O 8.49087 9.85987 0.709746
O 8.03182 5.9687 3.78673
O 11.1662 3.38634 4.24615
O 7.35137 12.1449 3.25322
O 10.2879 5.47825 3.11037
Si 8.81662 4.82113 16.7235
Si 0.169914 17.7625 15.3211
Si 13.7661 5.27228 5.7195
Si 0.133034 1.43732 2.84161
Si 15.2004 2.41781 16.792
Si 13.3401 5.78535 1.18996
O 12.7878 5.14624 4.42672
O 14.0959 1.04838 3.86522
O 15.363 2.30148 1.48605
O 12.781 7.17016 1.91227
O 13.4388 2.07289 16.5276
O 15.1133 3.9826 16.3753
O 14.9561 5.59756 1.56057
O 13.397 6.03297 16.5423
O 15.3652 5.25032 5.09097
O 1.08367 2.27519 3.74911
O 1.3037 7.21118 5.41202
O 13.1129 4.05891 6.67404
Si 1.18943 14.639 0.360002
Si 1.84098 9.60563 15.482
Si 2.07193 16.4682 4.45351
Si 3.54302 12.3996 2.86357
Si 1.4342 11.2255 1.10527
Si 4.23311 14.4266 0.873186
O 14.0331 14.7658 7.05751
O 3.50062 11.3772 4.65263
O 2.13712 11.2831 2.58505
O 3.27635 16.8054 3.07616
O 2.34817 10.6062 17.0455
O 3.74457 15.381 15.0264
O 1.06321 12.9352 0.922514
O 5.28205 14.2548 16.6028
O 2.80351 15.3541 0.877807
O 5.01829 11.8736 2.57182
O 3.26349 2.6571 8.38931
O 3.13244 13.95 3.68731
Si 8.80957 12.6472 12.2068
Si 7.30287 9.73193 16.8353
Si 4.94194 16.3619 3.19321
Si 9.81736 10.1122 4.46878
Si 6.43932 11.8681 1.76404
Si 9.74455 15.0743 2.08948
O 5.1245 15.472 4.42869
O 8.33265 10.1395 5.22238
O 7.56146 13.148 0.984027
O 9.6366 14.2906 3.54205
O 6.21531 11.0473 17.1008
O 9.59556 14.2976 0.597892
O 9.28478 11.5407 13.268
O 8.14491 1.14762 2.2058
O 5.23401 15.115 1.91291
O 9.812 9.09469 3.18753
O 6.07837 17.3562 2.92817
O 10.8727 11.4319 4.59177
Si 9.0408 12.6738 0.54617
Si 12.3621 7.00264 15.4877
Si 11.7168 17.2555 1.56259
Si 12.3383 8.24138 0.842922
Si 9.90474 9.91163 1.72822
Si 0.113372 16.2801 2.49077
O 10.9146 11.8547 7.13478
O 1.49361 9.23304 6.98769
O 11.1849 9.33596 0.987741
O 0.756384 15.8256 3.82213
O 11.3485 7.45785 16.6664
O 0.166714 15.4196 1.25046
O 9.82637 11.5405 1.86731
O 0.569326 17.7907 2.3566
O 11.1878 15.7319 1.77079
O 15.4587 10.5674 0.94659
O 11.7226 0.237733 3.23163
O 13.9053 16.1796 3.03455
Si 13.0561 2.44283 7.43458
Si 2.86545 1.39497 9.40882
Si 1.1168 6.02713 8.99449
Si 5.55244 1.54407 10.9886
Si 14.1008 17.5067 6.85606
Si 3.89654 5.75053 10.4813
O 0.259543 4.64087 9.69756
O 5.97122 0.27851 11.9169
O 1.51716 1.81484 10.3353
O 6.64894 7.48345 7.97028
O 0.691273 16.4303 9.70687
O 4.81787 6.53143 9.47223
O 13.9733 1.28933 6.54689
O 2.39845 6.51376 10.1208
O 3.6747 4.02348 10.2992
O 6.82576 1.76139 9.8069
O 0.41634 7.42752 8.55013
O 5.82333 3.15529 11.7692
Si 5.37589 5.10452 5.96904
Si 6.00524 0.962625 5.98484
Si 5.56439 8.00192 8.9185
Si 9.10405 5.03457 9.27659
Si 8.00396 1.98371 8.43973
Si 8.16403 7.41992 7.64256
O 4.54921 5.59219 11.9775
O 10.2637 17.4807 12.5467
O 8.55183 3.52498 8.42213
O 8.96684 8.51598 8.32246
O 6.78476 1.53802 7.30202
O 8.89996 6.18167 8.28563
O 9.17334 4.75541 5.72203
O 8.44193 7.2008 5.99269
O 6.14131 9.81989 3.48249
O 10.602 5.30422 10.0738
O 8.04406 9.50025 10.1838
O 8.31661 4.6594 10.8345
Si 11.6275 4.72397 3.35738
Si 13.132 17.5566 3.94976
Si 9.10464 9.9143 9.09382
Si 0.925194 1.77985 11.7287
Si 10.2826 1.14631 6.94597
Si 0.302321 6.31345 6.3218
O 10.3909 9.81077 10.0754
O 11.5281 16.9379 10.3448
O 11.4966 2.06757 7.33883
O 1.30543 5.56561 7.51647
O 9.9158 17.5304 6.24785
O 13.4034 3.27344 8.86028
O 9.22902 0.895781 8.21202
O 13.4435 11.9673 8.25734
O 14.1873 6.63445 6.8274
O 13.2129 17.0562 8.15811
O 8.76013 11.126 8.16403
O 14.7327 1.69176 11.471
Si 13.9492 13.6323 8.2636
Si 2.73704 9.99142 3.58333
Si 14.2178 12.6906 12.3048
Si 3.91774 14.2679 10.7856
Si 0.908601 9.02423 8.68099
Si 1.23677 16.8743 8.2859
O 6.60938 15.1139 14.7323
O 2.3071 9.66227 9.15212
O 3.80076 10.9539 6.99172
O 2.26 15.5563 8.02877
O 3.67771 8.93604 4.81328
O 2.76443 15.6759 5.54798
O 0.239972 13.6514 9.06705
O 2.52297 18.0027 8.40785
O 15.4633 14.0292 12.671
O 2.33663 14.268 10.4755
O 0.155653 17.0634 7.02403
O 3.52773 10.465 11.9679
Si 3.72213 14.5779 4.98434
Si 7.08505 10.9802 4.3539
Si 6.35699 15.2906 8.93658
Si 9.43577 12.4767 7.35601
Si 4.49992 11.8836 5.8533
Si 7.22411 15.8985 6.51618
O 4.90707 14.2601 9.5394
O 7.67179 8.52513 12.5548
O 10.7999 9.3194 5.64111
O 9.59969 2.04221 5.63627
O 6.193 11.3227 5.722
O 7.58228 15.1992 5.12861
O 4.12884 13.5007 6.16495
O 6.11338 17.2934 6.28004
O 6.30559 15.0217 7.28434
O 9.38583 13.211 8.77023
O 5.91952 16.6197 9.73818
O 8.57067 12.9287 5.79254
Si 8.97834 14.2927 4.92913
Si 1.88939 8.63982 5.48392
Si 9.83545 15.9884 7.09802
Si 13.9583 10.9991 9.56808
Si 11.5702 10.7278 6.01538
Si 12.3131 16.0467 9.04256
O 8.35972 16.2088 7.53376
O 12.9717 9.90052 10.1296
O 1.30698 9.66929 4.25116
O 12.8603 14.5635 9.49837
O 13.0311 10.2739 5.92021
O 2.13412 0.209393 5.06663
O 10.1413 14.6582 6.1373
O 13.1947 17.0952 5.5688
O 10.7322 15.952 8.35707
O 15.0051 10.0384 8.89622
O 11.3055 2.05756 15.5545
O 14.3535 11.7839 10.9369
Si 14.1032 4.33311 9.90529
Si 6.17921 0.674461 15.8174
Si 2.71041 6.76595 16.2603
Si 4.01742 2.3667 2.1796
Si 3.61734 2.15414 16.4359
Si 4.73465 4.7181 15.5781
O 1.1064 6.25851 16.4412
O 5.22557 17.3725 15.3864
O 2.91732 1.87074 0.949287
O 5.82119 5.77516 16.2477
O 1.06126 2.79852 12.9704
O 3.43918 3.29819 12.9556
O 15.3719 0.0360317 13.7987
O 4.60831 8.56515 7.70966
O 3.64762 5.96617 15.2319
O 6.98454 15.7207 12.1952
O 2.55031 8.35586 16.2072
O 4.33097 3.98889 1.86633
Si 4.49883 3.95345 11.7723
Si 5.81388 16.4464 11.4094
Si 6.69551 7.02833 16.036
Si 12.8173 2.03708 15.0962
Si 7.20202 3.15256 14.5126
Si 7.88493 7.1627 13.4823
O 7.94073 6.09853 16.5985
O 9.97523 0.693851 0.568819
O 6.99022 1.4886 14.5592
O 9.60412 7.03688 13.847
O 8.086 3.37851 13.2359
O 7.38118 5.78174 12.7097
O 5.20802 1.68364 16.5302
O 5.82927 8.60037 10.4241
O 6.81351 7.71914 14.6195
O 13.3177 3.02573 13.8476
O 5.28695 4.6486 4.28311
O 7.82539 3.35181 16.0499
Si 8.49979 4.63637 12.4273
Si 11.6083 0.305211 11.5985
Si 10.4124 5.6661 14.1445
Si 13.7732 17.4751 13.7584
Si 13.3603 2.63714 12.2134
Si 11.8543 6.18028 9.66398
O 9.95513 4.91055 15.6382
O 0.641902 1.41756 15.9689
O 14.4234 17.3655 16.1661
O 3.38042 3.7924 16.1324
O 13.6214 15.8986 13.7307
O 13.4154 5.76518 9.50857
O 10.2579 4.5654 12.8393
O 11.6688 7.55705 10.5324
O 13.4612 4.14956 11.4812
O 12.6624 0.423057 14.6339
O 12.0843 5.89004 14.3031
O 13.0449 17.7826 12.3061
Si 1.44453 13.4913 13.011
Si 3.71755 10.0993 8.27217
Si 2.17 15.5448 14.813
Si 4.6935 11.3148 11.0839
Si 2.35285 10.9602 13.017
Si 2.4584 2.10966 13.4099
O 0.742441 14.6016 15.7164
O 2.31594 9.51915 13.9348
O 6.30377 10.8524 11.6429
O 2.37523 0.842166 12.4375
O 1.48184 11.9502 11.9058
O 5.56159 3.73 14.5486
O 2.08121 12.3664 14.2098
O 4.19513 15.7899 11.5604
O 2.32232 14.9986 13.1711
O 9.89839 13.7561 11.257
O 2.99419 1.55104 15.0162
O 4.29101 12.8304 11.7124
Si 1.29545 14.8818 9.27418
Si 6.91092 9.39735 11.3516
Si 7.42388 14.8275 13.4641
Si 9.27852 10.8967 14.6965
Si 8.69433 13.6362 10.1018
Si 10.1385 16.4728 13.816
O 3.53356 12.9469 1.37558
O 10.9217 15.1128 14.0416
O 7.91101 13.3689 13.3456
O 9.30671 12.1078 15.9405
O 8.20416 12.2654 10.7586
O 7.67039 14.7753 9.90344
O 4.30184 11.076 9.32495
O 12.0998 2.04142 11.488
O 8.59561 16.1742 13.8084
O 10.3825 9.63796 15.0459
O 8.86436 16.3975 1.66351
O 8.00481 10.0272 15.3238
Si 12.6314 14.6884 13.7694
Si 11.6896 9.20701 10.8536
Si 10.819 0.666516 16.2036
Si 14.511 10.1764 16.5983
Si 11.6369 9.65313 14.1574
Si 13.353 12.035 14.6966
O 10.1023 17.2371 15.4331
O 13.7044 8.91499 0.36211
O 12.5034 8.46324 14.7441
O 1.7147 17.1805 15.628
O 11.2741 9.45044 12.4741
O 14.5407 11.8907 13.8539
O 12.2282 11.232 13.7506
O 12.9616 13.4573 12.5463
O 12.5988 13.5267 14.9821
O 0.17912 9.69785 15.5329
O 12.107 17.6974 0.0199602
O 13.5675 11.3644 16.328
324
 Atoms. Timestep: 7500
Si 0.296337 5.31661 0.43092
Si 5.11509 15.6352 15.0414
Si 4.6308 8.26948 4.07707
Si 3.70689 2.55375 6.94437
Si 2.45735 2.16662 4.48951
Si 3.89245 5.53575 4.45062
O 4.3406 5.72321 6.08116
O 4.04405 1.43975 9.83569
O 3.01941 3.15863 5.6683
O 6.52047 8.35822 17.0225
O 3.89219 2.10674 3.49157
O 2.47864 5.38162 3.77723
O 1.19438 4.90286 1.7767
O 2.96223 6.69302 1.15891
O 4.35508 6.74721 3.47386
O 4.72673 1.16965 7.00126
O 3.79722 9.27543 3.14872
O 4.88352 3.60799 7.32664
Si 2.67983 5.45584 2.18669
Si 8.25062 17.7618 1.36395
Si 8.32715 5.67505 5.35691
Si 9.83467 3.05434 4.64321
Si 6.42924 1.08737 3.31507
Si 8.76619 4.64055 2.57545
O 7.16358 5.07004 6.37629
O 6.04253 1.5329 4.77493
O 8.62909 3.21608 3.5209
O 12.6694 4.52675 1.67839
O 7.21084 0.200777 0.128954
O 8.64425 4.00322 1.06912
O 6.06198 2.25631 2.22617
O 9.03722 9.26304 0.593439
O 8.09284 5.77459 3.76271
O 11.2571 3.27723 3.7732
O 7.32799 11.2037 3.51728
O 10.2983 5.4263 2.39383
Si 8.72249 4.67664 16.6452
Si 0.543498 17.6321 15.7177
Si 13.8414 4.71493 5.393
Si 0.132232 1.60213 2.55293
Si 15.0382 2.41406 16.7066
Si 13.1776 5.90327 0.957966
O 12.4744 5.30058 4.52936
O 14.6124 1.3948 4.0271
O 14.603 2.28765 1.38369
O 12.0879 6.95683 1.5648
O 13.7505 2.75085 15.63
O 0.2233 3.87717 16.5429
O 14.6236 5.73834 1.55566
O 13.438 6.50317 16.3645
O 15.5011 4.36477 5.10197
O 1.52134 2.56036 3.36828
O 1.33141 6.92728 5.45255
O 13.1092 3.4881 6.03804
Si 0.955016 15.1577 0.170155
Si 1.84102 9.80075 15.6019
Si 2.37563 17.0046 4.66177
Si 3.77702 13.1601 2.37707
Si 1.23817 11.7351 0.999762
Si 3.87967 14.9174 0.64188
O 14.7124 14.4582 6.90845
O 3.21627 10.9645 5.0022
O 2.37797 11.5813 2.33224
O 3.40868 17.0186 3.43189
O 1.9603 10.9183 16.728
O 3.5936 15.4072 14.6278
O 0.930458 13.3014 0.525246
O 5.01476 15.2512 16.5284
O 2.54046 15.6553 0.30541
O 5.23193 12.4528 2.49076
O 2.56266 2.33269 8.06427
O 3.15173 13.4327 3.79431
Si 8.20465 12.7461 12.2496
Si 7.55258 9.59892 0.253165
Si 4.89745 16.3092 3.13241
Si 9.97218 9.86453 4.65104
Si 6.66711 11.7728 1.9659
Si 9.48626 15.1065 1.9263
O 5.04197 15.2952 4.51674
O 8.63519 9.94531 5.20501
O 7.49861 12.7409 0.716576
O 9.28667 14.0508 3.2078
O 6.35902 10.2109 1.2084
O 9.3947 14.2535 0.600389
O 8.1257 11.4342 13.0838
O 8.28006 0.405469 2.95192
O 4.65899 15.1901 2.09956
O 9.74977 9.54899 3.15787
O 6.04447 17.3868 2.81895
O 11.2419 10.9477 4.60723
Si 9.06463 12.6655 0.0477597
Si 12.6012 7.30135 15.2637
Si 11.526 17.4488 1.67828
Si 12.3334 8.37971 0.74029
Si 10.0777 10.1032 1.75065
Si 0.193607 16.7768 2.69379
O 11.1519 11.4101 6.98443
O 1.30392 9.15154 7.07489
O 11.6286 9.72476 1.48382
O 0.907396 16.5364 3.98679
O 11.4273 7.97345 16.4393
O 0.500567 15.6554 1.58397
O 9.81692 11.881 1.13039
O 0.892259 0.190494 2.29327
O 10.6164 16.2263 2.07062
O 15.3365 10.9509 1.21103
O 11.9163 0.153306 3.02726
O 14.0244 16.8872 3.01411
Si 13.4241 2.43438 7.52899
Si 2.54875 1.42723 9.35852
Si 0.85121 6.02979 9.25079
Si 5.48162 1.6596 10.6678
Si 14.4522 17.6507 6.85848
Si 3.85883 5.47845 9.92934
O 0.0581665 5.00628 10.3554
O 5.3026 0.313393 11.5317
O 1.1469 1.66403 10.4201
O 6.66197 7.91592 7.60153
O 0.918941 16.317 9.83876
O 5.05282 6.35614 8.92212
O 14.5053 1.41041 7.0134
O 2.46679 6.14187 9.50031
O 3.65596 3.93697 10.4181
O 6.69638 1.58374 9.6612
O 0.484739 7.53655 9.29552
O 5.40419 2.63533 11.8914
Si 5.53011 4.62766 6.0866
Si 6.11523 1.16794 6.36858
Si 5.58084 7.97474 8.82327
Si 9.15495 4.57433 9.03677
Si 7.98128 1.72097 8.69949
Si 8.32035 7.43838 7.6159
O 4.69077 5.68547 11.4387
O 11.0772 17.1106 12.8711
O 8.4551 3.27662 8.64562
O 9.28047 8.40384 8.38388
O 7.20789 1.59982 7.18626
O 8.61545 5.92083 8.45739
O 9.20084 4.34826 5.66212
O 8.81612 6.93851 6.30425
O 6.14338 8.91138 4.43922
O 10.7692 4.94761 8.86864
O 7.60107 9.75976 9.91411
O 9.31164 4.18243 10.5939
Si 11.8023 4.72062 3.00404
Si 13.4074 0.174666 3.88659
Si 8.98998 9.85697 9.00724
Si 0.896202 1.68804 12.0496
Si 10.5471 1.35475 7.3804
Si 0.417541 5.73565 6.14201
O 10.315 10.0069 9.88569
O 11.7346 16.5654 10.239
O 11.7411 2.18611 8.03878
O 1.04214 5.39882 7.61199
O 11.0682 17.7511 6.6657
O 14.0471 3.21968 8.94227
O 9.44907 0.9631 8.45915
O 13.8372 12.2698 8.60655
O 14.1408 6.17871 6.04393
O 13.6193 16.9968 8.11261
O 8.82503 10.6585 7.61534
O 14.5614 1.52955 11.99
Si 14.3217 13.7504 8.44394
Si 2.69129 10.4103 3.59677
Si 13.9908 13.0357 12.4182
Si 3.95482 14.2978 10.7136
Si 0.881941 9.22406 8.79612
Si 1.45412 16.6457 8.24554
O 5.90828 14.9016 13.9209
O 2.41966 9.82972 9.46959
O 3.73359 11.2518 7.44365
O 2.2634 15.1446 8.17019
O 3.52571 8.15276 5.51791
O 2.78196 15.653 5.64925
O 0.579719 13.3417 9.1006
O 2.46333 17.9465 8.28229
O 14.9176 14.2934 11.9031
O 2.25035 14.3658 10.8742
O 0.317353 16.9658 6.88484
O 3.36975 11.0554 12.126
Si 3.94078 14.3627 5.04813
Si 7.0041 10.3114 4.77607
Si 6.04642 15.2453 8.88305
Si 9.65795 12.0079 7.17954
Si 4.3457 11.6336 5.99522
Si 7.3778 15.9696 6.37168
O 4.82403 14.1705 9.33508
O 7.54374 8.63572 12.6025
O 10.9012 8.8435 5.74536
O 10.2274 1.89869 5.68492
O 5.85571 11.2294 5.72045
O 7.76071 14.6279 5.19406
O 4.48494 13.3426 6.18545
O 6.78962 17.5636 5.87612
O 6.44699 14.9802 7.233
O 9.43047 12.9441 8.56355
O 5.90722 16.6876 9.44317
O 9.82645 12.9131 5.74989
Si 9.22666 14.2731 4.83708
Si 1.84997 8.48696 5.59455
Si 10.6697 16.1975 6.8589
Si 13.9706 11.1117 9.66108
Si 11.9154 10.1777 6.26333
Si 12.6623 16.0036 9.0104
O 8.75641 16.4 6.82583
O 13.0596 9.73685 9.83813
O 1.52466 9.32723 4.09133
O 13.4209 14.6429 9.48183
O 13.3208 9.88606 6.71447
O 2.2034 0.678259 5.0135
O 10.3973 15.3541 5.40823
O 13.4593 17.441 5.55507
O 11.3722 15.3878 8.06033
O 15.3441 10.4221 9.25175
O 11.1076 1.98596 15.8248
O 13.7991 11.774 11.28
Si 13.8927 4.28134 10.2203
Si 6.49028 0.625383 15.7548
Si 2.48906 6.95034 16.6525
Si 4.3748 2.77848 2.1543
Si 3.84873 2.33676 16.2673
Si 4.66692 5.21446 15.1546
O 0.832729 6.63937 16.4981
O 6.13388 17.1429 14.9849
O 3.33614 2.00316 0.818566
O 5.92916 5.62077 16.1806
O 1.05337 3.23576 12.8786
O 3.44059 3.77226 13.2527
O 15.0913 0.0829015 14.4918
O 4.49822 9.03952 8.36194
O 3.4956 6.16838 15.3314
O 6.86558 15.8931 11.6975
O 2.66259 8.44832 15.9793
O 4.12693 4.49248 1.93313
Si 4.49 4.0603 11.8923
Si 5.61964 16.6046 11.1479
Si 7.00468 6.88645 16.2891
Si 12.6072 2.0528 14.956
Si 7.21615 3.22333 14.3776
Si 7.96438 7.09797 13.2992
O 8.49461 6.28798 16.886
O 10.0026 0.429805 0.864092
O 7.37898 1.44958 14.6753
O 9.46128 7.12357 13.7322
O 7.82645 3.39708 12.6294
O 7.77014 5.99265 11.9882
O 5.35086 1.82295 16.155
O 5.74784 8.01326 10.6339
O 7.20203 7.23166 14.6965
O 12.5755 2.73396 13.5394
O 4.94497 4.00568 4.34018
O 7.42987 3.97489 15.7721
Si 8.71675 4.65772 12.1718
Si 11.9933 17.4642 11.5948
Si 10.3584 5.72769 14.2583
Si 13.8255 16.8801 14.1016
Si 13.1361 2.24166 12.1997
Si 11.6086 6.13163 9.29857
O 9.88293 4.95305 15.6082
O 0.466845 1.14261 16.4167
O 15.2828 16.5575 16.48
O 3.98842 3.93074 16.2006
O 13.5494 15.6283 15.073
O 13.1211 5.67358 9.54493
O 10.1291 4.92115 13.0153
O 11.4178 7.65895 9.67919
O 12.9902 3.67656 11.3119
O 12.5597 0.402872 14.8532
O 11.8821 6.14187 14.4881
O 13.4509 16.6379 12.4045
Si 1.12515 13.9986 12.3587
Si 3.73183 10.4541 8.84644
Si 2.04322 15.6947 14.5393
Si 4.80078 11.4916 11.5216
Si 2.31659 11.7173 13.1054
Si 2.34381 2.5629 13.7047
O 1.12666 14.8672 15.6055
O 2.2456 10.3947 14.0483
O 6.10257 10.4854 11.7021
O 1.86683 0.673898 12.8914
O 0.823376 12.3125 12.457
O 5.48889 4.34116 13.9339
O 2.63181 13.3367 13.3661
O 4.14933 15.8282 11.4992
O 1.3121 15.5788 13.1222
O 9.37651 13.0458 11.1115
O 2.54604 2.15455 15.3301
O 4.71504 13.2667 11.6904
Si 1.32703 14.7092 9.40234
Si 6.75435 9.2269 11.2832
Si 7.33007 15.3845 13.0971
Si 8.66668 11.0546 14.6833
Si 8.3545 13.4914 9.66895
Si 10.1104 16.5127 13.9858
O 3.62799 13.3962 0.714607
O 10.7363 15.2529 14.7852
O 8.2777 14.0657 13.1558
O 9.39153 12.3002 15.4566
O 7.25324 12.6888 10.5209
O 7.66966 14.8758 9.38845
O 4.57341 11.5282 9.85802
O 12.3601 1.07737 11.5261
O 8.58699 16.3991 13.4944
O 9.74847 10.083 14.1381
O 8.16794 16.0712 1.56719
O 7.45587 10.3162 15.6698
Si 12.3737 14.5969 14.463
Si 11.685 9.06142 10.3048
Si 10.7563 0.368527 16.4109
Si 14.8111 9.97405 17.008
Si 11.2161 9.62264 13.6801
Si 13.038 11.6882 15.0611
O 9.75309 17.3487 15.4384
O 13.9332 8.64993 0.657975
O 12.7493 8.45144 14.2953
O 2.05393 17.1942 15.2091
O 11.3158 9.29145 12.0144
O 14.1285 12.3892 13.884
O 12.0478 10.8466 14.2166
O 12.5786 14.3487 12.7707
O 12.3115 13.0885 15.2292
O 0.242309 9.34199 15.7351
O 12.0652 17.8231 0.238708
O 13.95 11.0791 16.3499
324
 Atoms. Timestep: 8000
Si 0.5188 5.14613 0.084077
Si 5.10777 15.7044 14.812
Si 4.47991 8.47429 4.58188
Si 3.72927 2.01372 6.67454
Si 2.03415 1.97884 4.4852
Si 3.94123 5.59986 4.40437
O 4.32774 5.76401 6.11421
O 4.36263 1.20286 9.78487
O 2.56675 2.7692 5.80169
O 6.34999 8.54195 16.7099
O 3.09039 2.023 3.22644
O 2.72828 5.79502 3.31111
O 1.73566 4.60121 1.08338
O 3.63212 6.56965 0.63688
O 4.79423 6.92311 3.93628
O 4.51761 0.857727 5.92335
O 3.87276 9.70823 3.30216
O 4.99664 3.03246 6.99451
Si 2.95473 5.42392 1.70153
Si 8.33524 -0.00781782 1.01536
Si 8.29358 5.22359 5.50065
Si 10.3849 3.16098 4.60526
Si 6.4041 1.26654 3.08252
Si 9.19476 4.44425 2.87962
O 7.12161 4.28882 5.91036
O 6.83908 1.75996 4.6704
O 9.30539 2.83549 3.37986
O 12.809 4.34189 1.2442
O 7.47094 0.626504 16.6088
O 8.99736 4.49039 1.21712
O 5.61076 2.45738 2.23032
O 8.73138 9.01554 0.669328
O 8.07492 5.0802 3.83731
O 11.8011 2.70221 3.84029
O 7.08932 11.0006 3.57715
O 10.7689 4.83491 2.63498
Si 8.92618 4.66299 16.7189
Si 0.55183 17.8239 15.7483
Si 13.7647 4.89311 5.23345
Si 15.314 1.84476 2.77497
Si 15.1007 2.51794 16.7819
Si 13.3214 5.93346 0.795223
O 13.4716 4.7395 3.64176
O 13.9494 1.34479 3.52093
O 15.2717 2.68433 1.32903
O 12.4963 7.12132 1.61058
O 13.5821 2.61873 15.7801
O 15.6209 3.90759 16.2183
O 14.9155 5.87776 1.02584
O 13.1233 5.98697 16.2626
O 0.221444 4.7967 5.71799
O 0.599683 2.74934 3.94802
O 0.709888 7.47375 5.47839
O 13.0601 3.72679 5.97835
Si 1.41756 15.3853 0.356308
Si 2.17657 10.1768 15.7769
Si 2.0332 16.8848 4.6387
Si 3.6661 12.9627 2.44032
Si 1.45199 12.0715 0.959883
Si 4.37726 15.322 0.850988
O 14.2401 13.6756 6.77833
O 3.33546 11.7346 4.93855
O 2.47286 11.7489 2.38509
O 3.05002 16.8005 3.29892
O 2.54113 11.0646 17.0273
O 3.75837 15.7991 13.9215
O 1.19177 13.7404 0.533948
O 5.25694 15.2727 16.2935
O 2.93726 16.1929 0.837462
O 5.13174 12.3583 2.52161
O 2.83704 1.51887 7.88997
O 3.18088 13.7322 3.73852
Si 8.55174 12.7922 12.0031
Si 7.46182 9.70511 16.903
Si 4.78945 16.6294 3.11061
Si 9.69882 9.44715 4.83562
Si 6.51341 11.6753 2.16424
Si 9.7646 15.195 2.07942
O 5.12013 15.5106 4.33611
O 8.36467 9.93938 5.65578
O 7.29257 12.922 1.59457
O 9.45825 14.093 3.29781
O 6.77732 10.7649 0.819046
O 9.47293 14.227 0.756384
O 8.55776 11.7929 13.2618
O 7.59548 0.659069 2.21456
O 5.62528 15.8277 1.68115
O 9.33881 9.09436 3.22896
O 5.11893 0.295853 3.07773
O 10.833 10.5219 4.80214
Si 8.77817 12.6631 0.588662
Si 12.3324 7.1773 15.2422
Si 11.194 17.4309 1.94407
Si 12.366 8.60011 0.923806
Si 9.75217 9.78314 1.75297
Si 0.110987 16.6117 2.74454
O 10.9334 11.3154 6.96162
O 0.772581 9.80415 6.91053
O 11.4154 9.80247 1.60356
O 0.572501 16.153 4.20661
O 11.4976 8.29154 16.4182
O 0.657075 15.4508 1.79358
O 9.57998 11.5339 1.56619
O 0.418002 0.232965 2.08858
O 10.9712 15.9652 2.41099
O 0.0728386 11.2754 1.5207
O 11.628 17.7817 3.51291
O 14.01 16.6643 2.92487
Si 13.4171 2.67232 7.30974
Si 2.8403 1.40913 9.56994
Si 0.742496 6.53522 9.19492
Si 5.91814 1.68727 10.2642
Si 14.3025 17.8161 7.08789
Si 3.5198 5.68734 10.2398
O 15.281 5.37725 9.92218
O 6.16234 0.531524 11.3584
O 1.4456 2.0912 10.0405
O 6.47964 7.54452 7.6651
O 0.514732 15.8762 10.0381
O 4.67357 6.18968 9.34396
O 14.4457 1.44476 6.98315
O 2.0439 6.49351 10.1361
O 3.30868 3.98315 10.1703
O 7.39852 2.37991 9.77316
O 0.325602 7.99802 9.20021
O 5.52862 3.08653 11.0682
Si 5.35473 4.28494 5.96056
Si 6.25289 0.814948 5.98178
Si 5.49847 7.57203 8.96312
Si 9.15091 4.91462 9.13775
Si 8.04889 2.17426 8.28345
Si 8.16713 6.99237 7.68401
O 4.31398 5.83475 11.6785
O 10.8996 17.0915 12.8427
O 8.83905 3.70805 8.16926
O 8.71289 8.43819 8.079
O 6.72602 1.33668 7.46585
O 7.93562 5.96594 8.9547
O 9.90603 4.4532 5.56141
O 8.65537 6.63728 6.24807
O 5.91284 8.9659 4.8061
O 10.3137 5.86736 8.47461
O 7.63166 9.68068 9.95998
O 9.55932 4.11041 10.5372
Si 12.2492 4.02162 2.75243
Si 13.3624 17.6929 3.89304
Si 8.75257 9.97448 8.81539
Si 0.846971 2.15315 11.7597
Si 10.6885 1.30884 7.19403
Si 15.498 6.23265 6.30417
O 10.1635 9.91255 9.5058
O 11.5791 16.389 10.28
O 11.8439 2.14746 7.90375
O 1.20748 5.96649 7.70871
O 10.7678 17.6836 6.95038
O 14.4087 3.85143 8.08487
O 9.45264 1.36957 8.44633
O 13.5583 11.9503 8.64952
O 13.62 6.33271 6.16073
O 13.2317 16.8516 7.83373
O 8.44397 11.0899 7.696
O 14.8161 1.35176 11.74
Si 14.3223 13.349 8.46431
Si 2.72865 10.6233 3.9351
Si 13.9031 13.0192 12.674
Si 4.09246 14.267 10.8213
Si 0.530773 9.49645 8.61501
Si 1.15976 16.548 8.66161
O 6.0147 14.8684 13.6294
O 2.17438 9.91795 9.22334
O 3.64463 11.229 7.59971
O 2.02976 15.1443 8.14002
O 3.3142 8.50484 5.66823
O 2.727 15.6732 5.70313
O 0.429573 13.2132 8.86662
O 1.95985 17.7151 9.31314
O 15.0412 14.1252 12.3811
O 2.40404 14.3526 10.6787
O 0.137109 16.9765 7.30792
O 3.52306 10.72 12.9081
Si 3.84701 14.674 4.96974
Si 7.03434 10.2963 4.96026
Si 6.29789 14.7792 8.84223
Si 9.70276 12.1113 7.26529
Si 4.24046 11.9596 6.27708
Si 7.41195 15.8537 6.25045
O 4.91514 14.0336 9.33049
O 8.05964 8.41379 12.4519
O 10.4017 8.68333 6.07057
O 9.97017 2.2347 6.00983
O 5.93146 11.4143 5.9343
O 7.82152 14.7094 4.87642
O 4.56069 13.6227 6.03618
O 6.86927 17.2663 5.67029
O 6.43133 14.9591 7.17543
O 9.77154 12.9955 8.55212
O 6.10577 16.4678 9.46159
O 9.85449 12.9968 5.75591
Si 9.50936 14.3432 4.96072
Si 1.38796 9.00125 5.74982
Si 10.3653 16.0906 6.91332
Si 13.9067 11.0757 9.97397
Si 11.5285 10.0106 6.30956
Si 12.6449 15.6042 9.00225
O 8.84066 16.1541 7.18886
O 13.0968 9.65092 10.1647
O 1.29473 9.99808 4.43448
O 13.4264 14.2588 9.59695
O 13.1029 9.76706 6.82572
O 1.86012 0.42162 5.25219
O 10.8084 15.258 5.44401
O 13.772 17.4246 5.55206
O 11.1585 15.3867 8.17351
O 15.341 10.3856 9.68318
O 11.0133 1.83384 15.9892
O 13.819 11.8902 11.4151
Si 13.998 4.56425 9.52949
Si 6.08027 0.700784 15.1624
Si 2.69473 7.06764 16.4214
Si 3.93216 2.73361 2.04305
Si 3.72626 2.36204 16.2729
Si 4.85114 5.06439 15.6005
O 1.12808 6.49038 16.3416
O 5.99376 17.2624 14.5639
O 3.03875 2.17513 0.752459
O 5.57993 6.14239 16.4301
O 0.759776 3.29092 12.9333
O 3.84994 3.62623 13.0772
O 14.9007 17.1167 14.8557
O 4.47471 8.84702 8.60299
O 3.47786 6.13106 15.2097
O 7.15559 16.5909 12.0305
O 2.93863 8.65014 15.9341
O 4.04872 4.32966 1.84268
Si 4.35643 4.02152 11.6298
Si 5.92484 16.7759 10.9422
Si 6.7281 7.04522 15.8586
Si 12.4891 1.91418 14.9554
Si 7.16919 3.3019 14.4805
Si 8.08666 6.99542 13.4317
O 8.17855 6.17276 16.3582
O 9.92548 0.510081 1.10096
O 6.09293 2.05211 14.4602
O 9.67448 6.93346 14.0819
O 7.60816 3.43501 12.9028
O 8.12178 5.89438 12.2504
O 4.56888 1.05551 16.1157
O 6.27282 7.5861 10.5131
O 6.75259 7.40959 14.2571
O 12.8405 2.46548 13.384
O 4.95712 4.39708 4.3798
O 8.07006 3.50021 15.8242
Si 8.77257 4.43524 12.1587
Si 11.873 17.4424 11.5162
Si 10.3392 5.53111 14.5187
Si 13.4454 16.8951 14.1581
Si 13.1881 2.24404 11.751
Si 11.9186 6.74699 8.90231
O 10.3841 4.87745 16.0358
O 0.363502 1.1958 16.3594
O 0.582147 16.8229 16.9735
O 4.44132 3.76148 16.4025
O 12.9135 15.4 14.7417
O 12.6693 5.23655 9.16958
O 9.94216 4.36646 13.3669
O 11.5636 7.5333 10.271
O 13.4897 3.34276 10.5637
O 12.4886 0.246358 15.0504
O 11.8583 6.28319 13.914
O 13.3048 16.9865 12.5562
Si 1.09544 13.7512 12.7171
Si 3.57961 10.1939 8.89867
Si 2.0357 15.7914 14.5086
Si 4.59356 11.0135 11.731
Si 2.14679 11.4349 13.1137
Si 2.26676 2.96669 13.501
O 1.74945 14.8056 15.8418
O 1.55727 10.4888 14.195
O 6.07973 10.1399 11.9343
O 2.11028 1.36216 12.4633
O 1.35569 12.2003 11.8128
O 6.08017 4.65881 14.5993
O 2.31853 12.9029 13.8156
O 4.99515 15.4751 11.4507
O 1.44627 15.2896 13.1589
O 9.95945 12.9216 10.9515
O 2.71974 2.76809 15.0608
O 4.6869 12.7051 11.8685
Si 1.28881 14.5271 9.48136
Si 7.03375 8.94376 11.2989
Si 7.56734 15.4124 13.1033
Si 8.71196 11.0263 14.6624
Si 8.87218 13.138 9.79382
Si 10.1097 16.5493 14.1646
O 3.97448 13.7603 1.10044
O 10.437 14.9907 14.4338
O 8.27683 14.2401 12.3142
O 8.61875 11.977 16.1443
O 7.53615 12.325 10.6736
O 7.80543 14.3219 9.62562
O 4.41808 10.9055 10.0845
O 12.133 1.03088 11.0292
O 8.55766 16.4656 13.8579
O 10.1668 10.2017 14.5965
O 8.64249 16.3777 1.33224
O 7.86029 9.97 15.3442
Si 11.9386 14.1989 14.2048
Si 11.3967 9.24616 10.4365
Si 11.2103 0.186819 16.3926
Si 14.8845 10.5351 0.242525
Si 11.4706 9.79434 13.7245
Si 13.2864 11.825 14.9656
O 10.3427 17.0466 15.6823
O 13.9112 9.19766 0.792471
O 12.414 8.29613 14.0527
O 1.83572 17.3656 14.7251
O 10.9008 9.6759 12.1027
O 14.66 12.1001 14.041
O 12.8252 10.7385 13.787
O 12.3078 13.4578 12.8394
O 11.9524 12.8486 15.3863
O 0.532455 9.78003 16.5633
O 12.2646 17.9002 0.687253
O 13.8424 11.255 16.3122
324
 Atoms. Timestep: 8500
Si 0.443226 4.78518 0.115674
Si 5.3661 15.8076 14.8153
Si 4.16683 8.8475 4.37931
Si 3.82368 2.2024 6.69527
Si 2.24039 2.10708 4.19231
Si 4.27924 6.14092 4.22847
O 4.51025 6.00453 5.77737
O 4.06448 1.99818 9.73949
O 2.73551 2.71093 5.6132
O 6.19829 8.20477 16.8914
O 3.01211 2.50901 3.0617
O 2.97055 5.94854 3.29053
O 1.7378 4.54463 1.19664
O 3.38164 6.7945 0.852109
O 4.88704 7.55021 3.85117
O 5.08948 1.29097 6.32462
O 3.319 9.58478 3.20029
O 4.59233 3.7377 6.81612
Si 2.88249 5.50894 1.7484
Si 8.10878 17.8733 0.772659
Si 8.21466 5.1499 5.31585
Si 10.1337 3.1403 4.40119
Si 6.199 1.0501 2.82881
Si 8.9951 4.64693 2.65573
O 6.86351 4.52488 5.77407
O 6.76711 1.76381 4.22874
O 9.09507 3.14687 3.0937
O 12.5867 4.55764 1.15645
O 6.92294 17.3086 16.8313
O 8.66204 4.14876 1.04644
O 5.3123 2.16935 1.94565
O 8.35245 9.38728 1.10788
O 7.87923 5.4691 3.76011
O 11.5331 3.64884 3.76704
O 7.01157 10.5482 3.21534
O 10.3776 5.48696 2.67219
Si 8.72533 4.78482 16.6348
Si 1.09165 17.5833 15.4584
Si 13.9483 4.94792 5.29194
Si 15.0827 1.33583 2.61178
Si 15.0784 2.13472 16.6911
Si 13.564 5.96523 0.883217
O 13.1195 5.086 3.84853
O 13.5446 0.960656 3.52981
O 15.3861 1.66651 1.03795
O 12.8283 7.03517 1.86647
O 13.5181 2.50696 16.2273
O 0.4588 3.60544 16.049
O 15.0995 5.5406 1.23106
O 13.6587 6.1675 16.3649
O 0.0517033 5.49891 4.86552
O 0.673356 2.15704 3.41438
O 0.44122 7.9337 5.39117
O 13.9644 3.64451 6.34907
Si 1.64516 15.4927 0.160166
Si 1.48585 9.5821 16.011
Si 2.06274 16.8108 4.59937
Si 3.67604 13.2205 2.54717
Si 1.60527 11.8828 0.594936
Si 4.49931 15.6141 0.937411
O 14.6732 14.8071 7.07557
O 3.40021 11.8015 4.9076
O 2.39679 11.6679 2.35993
O 3.08778 16.94 3.21018
O 2.30862 10.666 16.9349
O 3.94585 15.9969 14.0558
O 2.01965 13.2911 0.529973
O 4.66994 15.3649 16.3372
O 2.97555 15.8559 0.834432
O 4.86716 12.118 2.56479
O 2.82413 1.33193 7.58348
O 3.07433 14.0651 3.86907
Si 9.23994 12.752 12.3415
Si 6.99317 9.77827 16.842
Si 4.68915 16.6471 3.44837
Si 9.47557 9.5453 4.77556
Si 6.20047 11.473 1.98347
Si 9.68179 15.2154 1.82011
O 5.18225 15.4424 4.43041
O 8.10076 10.2593 5.41079
O 7.55643 12.1693 1.28288
O 9.54016 14.7414 3.53906
O 5.95798 10.5419 0.664207
O 9.36189 13.7498 1.17018
O 9.51199 11.6606 13.5537
O 7.55742 0.500844 2.17365
O 5.51203 16.4641 1.96545
O 9.02665 8.93909 3.42895
O 5.1499 0.131104 3.83974
O 10.807 10.3429 4.5311
Si 9.26813 12.1847 0.949097
Si 12.7579 7.1337 15.4287
Si 12.1076 16.9531 1.52883
Si 12.3526 8.49666 1.08773
Si 9.69978 9.72811 2.0212
Si 15.5719 16.2536 2.6618
O 10.7518 10.705 7.20844
O 0.872139 9.71298 7.16381
O 10.9052 8.92986 1.53623
O 0.708778 16.0869 4.21852
O 12.0681 7.85713 16.5558
O 0.429416 15.2268 1.51079
O 10.4215 11.43 2.03788
O 0.249973 17.9368 2.55677
O 11.0751 15.6581 1.20338
O -0.0772401 11.4372 0.937075
O 11.6084 17.093 3.20119
O 13.5932 16.585 2.42201
Si 13.3645 2.64671 7.35965
Si 2.50021 1.60077 9.22014
Si 0.396426 6.55807 9.19428
Si 5.51954 1.66522 10.4848
Si 14.2251 17.7103 7.01662
Si 3.0435 5.99354 10.1872
O 15.1831 5.1931 9.78269
O 5.59273 0.1957 11.4065
O 1.16428 2.2821 9.82796
O 6.00341 7.40114 7.48684
O 0.811691 15.7594 10.3347
O 3.73324 6.71845 8.99396
O 14.2457 1.17349 6.7887
O 1.48567 6.79084 10.3261
O 2.83305 4.25176 10.3492
O 6.48758 1.52078 9.05036
O 15.5039 8.08371 8.9393
O 5.45768 3.1923 11.2584
Si 5.25781 4.59403 5.54089
Si 6.53289 1.14115 5.61267
Si 4.9645 7.80448 8.79659
Si 8.61854 4.85858 9.26057
Si 7.94788 2.0339 8.15075
Si 7.68506 7.10445 7.61767
O 3.92334 5.87259 11.9274
O 10.9515 17.1237 12.9178
O 8.15646 3.57726 8.45428
O 8.60639 8.42773 7.84896
O 7.55994 2.09589 6.46705
O 7.48338 5.85922 8.91397
O 9.43014 4.12942 5.72351
O 8.58767 6.35904 6.38519
O 5.51504 9.44655 5.11973
O 9.99905 5.64586 8.6238
O 7.31903 9.45674 9.79273
O 8.89901 4.41662 10.7643
Si 11.9207 4.81344 2.73457
Si 13.0441 17.2915 3.86514
Si 8.60936 9.91305 8.95721
Si 0.816138 2.13676 11.4352
Si 10.5322 1.2008 6.73003
Si 15.4634 6.48281 6.25424
O 9.98239 9.78134 9.75282
O 11.6443 16.7616 10.552
O 11.6621 2.29724 7.3618
O 0.942376 6.06525 7.49122
O 10.8132 17.7058 6.64004
O 13.6791 2.9962 8.95251
O 9.50632 1.33537 8.02302
O 13.3192 12.3003 8.56306
O 13.8726 5.92092 6.68598
O 13.3623 17.441 8.48797
O 8.37422 11.226 8.07794
O 14.8862 1.81488 11.4464
Si 14.1861 13.7393 8.35515
Si 2.60561 11.0071 3.86695
Si 14.4104 13.021 12.3187
Si 4.34573 14.1805 10.7398
Si 0.685151 9.53363 8.84427
Si 1.19408 16.7792 8.9609
O 6.38526 14.6276 14.6507
O 2.37421 9.67453 9.53253
O 3.93636 11.5414 7.47669
O 2.02966 15.4559 8.29841
O 3.08003 8.62756 5.79601
O 2.95972 16.1498 5.76909
O 0.287099 13.3654 8.96304
O 2.16245 17.8817 9.71803
O 0.10348 13.9237 12.127
O 2.86276 13.7173 10.0463
O 0.26118 16.9724 7.6204
O 3.8128 10.9548 13.1705
Si 3.83325 14.7924 5.14726
Si 6.74013 10.7193 4.83434
Si 6.80922 14.8687 9.04959
Si 9.63543 11.8497 7.04682
Si 4.44919 12.2909 6.02888
Si 7.34067 16.2028 6.40089
O 5.39015 13.9513 9.24162
O 7.17498 8.08835 12.114
O 10.2455 8.30681 5.51547
O 10.3978 1.74076 5.20028
O 6.12797 12.2481 5.49309
O 7.75818 15.2686 4.9309
O 4.25535 13.88 6.39598
O 6.75239 17.5704 5.88963
O 6.64939 15.148 7.33541
O 10.4364 12.8009 8.55834
O 6.60233 16.5631 9.6485
O 9.32646 12.814 5.77811
Si 9.20174 14.5783 5.09279
Si 1.42363 9.28138 5.74882
Si 10.3564 16.1472 7.27646
Si 13.9014 11.1416 9.83642
Si 11.4401 9.51478 5.93118
Si 12.4167 16.0305 9.24407
O 8.77546 16.3821 7.2513
O 12.6317 10.0896 10.1126
O 1.35333 10.4887 4.68518
O 13.3751 14.734 9.63295
O 12.8598 8.95183 6.06348
O 1.76732 0.452034 4.95684
O 10.2848 14.9157 6.21543
O 13.7322 17.0554 5.4205
O 11.0482 15.5657 8.49756
O 15.3332 10.7347 9.48404
O 11.2685 1.92911 15.0083
O 13.7674 12.0878 11.2553
Si 13.6653 4.38894 9.75944
Si 6.3142 0.350275 15.6878
Si 2.74981 6.68156 16.4225
Si 3.74714 2.89225 1.71736
Si 3.59087 2.0247 16.1656
Si 4.83197 4.69254 15.3528
O 1.35893 5.93059 16.3575
O 6.12373 17.3349 14.485
O 2.79879 2.17524 0.529631
O 5.94584 5.73708 15.8913
O 1.13852 3.50159 12.4327
O 3.61192 3.57535 13.0971
O 0.111764 16.7231 14.3659
O 4.66814 9.28461 8.13189
O 3.70031 5.92312 15.3632
O 6.77423 15.7785 11.9654
O 2.56455 8.39343 16.0319
O 4.17388 4.46245 1.38761
Si 4.12847 4.24882 11.6098
Si 5.73162 16.6356 11.1067
Si 6.93539 6.99457 16.0976
Si 12.8835 1.78493 15.0118
Si 7.22608 3.20035 14.3397
Si 7.98996 7.15474 13.3727
O 8.03826 6.30419 17.02
O 9.15882 0.763235 16.9616
O 7.25947 1.6092 15.0649
O 9.58841 6.98936 13.9779
O 8.00335 3.05996 12.9054
O 7.5936 5.70689 12.9026
O 4.87924 0.669325 16.2858
O 5.20632 8.44185 10.3443
O 7.22083 7.47688 14.7054
O 13.8323 2.59489 13.9017
O 5.21114 4.77483 3.97829
O 7.79733 4.12586 15.4274
Si 8.6676 4.4941 12.3391
Si 12.3378 17.4477 11.9473
Si 10.4509 5.56782 14.3432
Si 14.0796 16.778 14.0919
Si 13.4138 2.47568 12.2435
Si 11.3215 6.19349 9.63863
O 10.0277 4.49459 15.602
O 0.504177 1.07405 15.7392
O 0.794829 16.8392 16.8253
O 4.18868 3.69829 16.2668
O 13.0879 15.8346 15.0585
O 12.6537 5.51276 9.32481
O 10.3697 4.75672 12.91
O 11.4805 7.60846 10.5899
O 13.2862 3.95562 11.4961
O 13.1853 0.263456 14.6385
O 12.0896 5.76512 14.7635
O 13.5954 16.6123 12.4669
Si 1.49331 13.3652 13.0878
Si 3.94965 10.5103 8.77002
Si 2.45526 15.5538 14.437
Si 4.83135 11.4618 11.822
Si 2.25555 11.1305 13.6959
Si 2.29997 2.42551 13.1427
O 1.74468 14.7754 15.7241
O 1.19564 10.108 14.5348
O 6.1473 10.476 12.0141
O 2.01583 1.15631 12.1325
O 1.43917 11.8536 12.4712
O 5.72326 3.90491 14.1731
O 2.35438 12.8544 14.4625
O 4.35931 15.8252 11.0164
O 2.25403 14.983 12.8575
O 10.2761 13.9045 11.4716
O 2.57908 1.8883 14.8766
O 4.78601 13.2967 11.9293
Si 1.4501 14.4079 9.52723
Si 6.44068 9.1061 11.0138
Si 7.41105 15.0631 13.4576
Si 9.34895 10.842 15.1241
Si 9.48152 13.3501 9.8928
Si 10.2545 16.2283 14.0612
O 4.70863 14.2067 1.64936
O 10.7893 14.6951 14.1926
O 8.09204 13.718 13.0202
O 9.6736 11.7225 16.4472
O 8.73004 12.1482 10.8138
O 8.30023 14.3861 9.52965
O 4.37197 11.0954 10.2533
O 12.3985 1.06872 12.0435
O 8.62878 16.1751 13.9157
O 10.5507 9.66384 15.1862
O 8.58531 16.3018 1.56857
O 7.83068 10.3078 15.4281
Si 12.3262 14.5539 14.0046
Si 11.3242 9.31035 10.6372
Si 10.6748 0.540398 16.2372
Si 14.6933 10.2979 0.185744
Si 11.7236 9.66312 13.9144
Si 13.4239 12.0679 15.0388
O 10.858 17.0822 15.5118
O 13.6308 9.65491 1.13117
O 13.011 8.23509 14.0454
O 2.52168 17.1944 15.2218
O 11.4243 9.55632 12.2674
O 14.4384 12.4596 13.8503
O 12.77 10.7489 14.1268
O 12.9763 14.0191 12.8134
O 12.5736 13.2945 15.2821
O 0.0789915 9.09252 16.6754
O 11.8483 0.399165 0.60508
O 13.6736 11.1041 16.3537
324
 Atoms. Timestep: 9000
Si 0.604257 4.55793 0.41399
Si 5.59182 15.506 15.0554
Si 4.16435 8.59808 4.64724
Si 3.37539 2.73016 6.45897
Si 2.00287 1.74782 3.98352
Si 3.93363 5.94095 4.48072
O 4.19083 6.28149 6.04789
O 3.99927 1.37852 9.44833
O 2.52253 2.96389 5.02374
O 6.34096 8.25232 16.5628
O 3.17704 1.66753 2.89603
O 2.99962 5.72497 3.04648
O 1.79456 4.19335 1.51633
O 3.5356 5.91736 0.392592
O 4.94956 7.4586 4.00391
O 4.20071 1.36779 5.766
O 3.52564 9.53006 3.42205
O 4.31587 3.93381 7.11807
Si 3.27641 5.0402 1.61791
Si 8.41151 17.5985 1.33318
Si 7.83819 5.68623 5.37505
Si 9.674 3.2428 4.55002
Si 6.71159 1.26035 3.04334
Si 8.80719 5.04211 2.71557
O 6.70371 5.06166 6.4378
O 6.62584 2.21872 4.52406
O 8.84208 3.40793 3.14533
O 12.4163 4.83614 1.8788
O 7.42724 17.724 16.9948
O 8.5575 5.25351 1.11617
O 5.64868 1.78937 1.85773
O 8.63584 9.28812 0.4016
O 7.66455 5.82709 3.53655
O 11.2773 3.31336 4.09973
O 6.2094 11.2953 3.48428
O 10.3298 5.55601 3.31419
Si 8.69557 5.15037 16.5614
Si 0.900416 17.459 15.5831
Si 13.7877 5.28404 5.50327
Si 15.4266 1.15088 2.72419
Si 15.1785 2.0475 16.8193
Si 13.5796 6.13191 0.915611
O 12.5627 5.6554 4.50483
O 14.5312 0.734767 3.87843
O 14.6405 2.07216 1.39483
O 13.6037 7.66411 1.52431
O 13.9915 2.48375 15.7133
O 0.526768 3.27439 16.6894
O 14.9151 5.20869 1.1878
O 13.3526 5.96675 16.4107
O 15.3908 5.12889 5.11395
O 0.912427 2.1405 2.97132
O 0.374704 7.46177 5.28551
O 13.2795 3.51271 5.69904
Si 1.46789 15.4798 17.0479
Si 1.74051 9.43444 16.1575
Si 2.08603 16.9737 4.25535
Si 3.56985 13.3363 1.6206
Si 1.51065 11.6655 1.15769
Si 4.27285 16.0714 0.62158
O 13.5965 15.1249 7.85181
O 3.18301 11.3326 5.50107
O 2.15272 11.5499 2.73917
O 3.10056 17.3631 3.01096
O 2.3622 10.5238 -0.00415419
O 4.27441 14.6493 14.6547
O 2.096 13.2679 0.910469
O 4.94064 16.5603 16.3653
O 2.59393 16.1072 0.881693
O 4.73347 12.3051 1.85384
O 2.22176 2.36558 7.52491
O 3.42877 14.1882 3.19908
Si 9.13627 12.9867 12.2338
Si 7.37366 9.5562 16.7698
Si 4.65492 17.1229 3.23816
Si 9.32379 9.2983 4.66134
Si 6.13827 11.7463 1.7623
Si 9.92578 14.6194 2.32593
O 5.0068 15.9495 4.30698
O 7.80704 9.98141 5.24827
O 7.49255 12.762 1.39894
O 9.37856 13.8303 3.62428
O 6.38581 10.5871 0.718212
O 10.0437 13.6375 1.10034
O 9.46333 12.0152 13.5919
O 8.18298 0.613004 2.75784
O 5.06401 16.8651 1.7514
O 9.01569 8.92131 3.11467
O 5.64487 0.184575 3.77587
O 10.4012 10.7052 4.52293
Si 8.91367 12.3051 0.884759
Si 12.7093 7.22867 15.5638
Si 12.1952 16.7327 2.19435
Si 12.4254 8.54198 0.868176
Si 9.68217 9.39201 1.77448
Si -0.0155925 16.2691 2.15661
O 11.4252 10.8745 7.2365
O 0.767676 9.45938 7.04396
O 11.2469 8.94916 1.91617
O 0.635256 16.101 3.61374
O 11.8711 7.93186 16.7408
O 0.343173 15.1867 1.00937
O 9.6977 10.8873 1.56137
O 0.146997 17.876 1.74548
O 11.4093 15.2509 2.45415
O 15.5223 11.1816 1.05901
O 12.0562 17.6937 3.50246
O 13.9409 16.4098 2.62582
Si 13.2648 2.73118 7.04595
Si 2.40216 1.49869 8.89728
Si 0.630721 6.38799 9.32051
Si 5.59117 1.34463 10.272
Si 14.4464 17.869 6.80107
Si 3.60812 5.65961 9.58586
O 14.9919 5.82574 10.1083
O 5.61555 0.0911507 11.4731
O 1.18307 1.84919 9.99647
O 6.23434 8.00409 7.99285
O 1.23895 16.3802 9.74012
O 3.85999 7.03539 9.00015
O 14.3232 1.42927 6.33582
O 2.12269 5.82226 10.1755
O 3.7223 4.04196 9.4002
O 6.76101 1.07698 9.25014
O 0.606661 7.96409 9.40997
O 5.73902 2.7602 11.4037
Si 5.09018 4.88404 6.22787
Si 5.88325 0.974287 5.63711
Si 4.96114 8.31432 9.11536
Si 8.46091 4.63963 9.54452
Si 7.49563 2.17488 8.18132
Si 7.61753 7.11804 7.99502
O 4.53797 5.46476 11.0698
O 11.0681 17.1612 12.5735
O 7.7905 3.73313 8.44379
O 8.87308 8.12453 8.43403
O 6.64997 1.95835 6.90875
O 7.40265 5.86158 9.13388
O 8.95718 4.34846 5.44354
O 8.27149 6.80694 6.29556
O 5.38767 9.3352 5.60567
O 9.92259 5.44345 9.15705
O 7.44423 9.71505 9.8767
O 8.77909 3.9874 10.9955
Si 11.7567 4.69448 3.34766
Si 13.6734 17.5522 4.1682
Si 8.84726 9.65713 9.09221
Si 0.555456 1.62625 11.629
Si 10.2469 1.29875 6.94161
Si 0.0928956 6.10344 6.42032
O 9.90168 9.85807 10.2305
O 12.4761 17.6038 10.0905
O 11.5013 2.42713 7.11418
O 0.904154 6.20391 7.75062
O 10.9212 17.876 6.51904
O 14.0759 3.71906 8.31692
O 9.05111 1.80676 8.00915
O 13.6065 12.4827 8.75349
O 13.9346 6.20564 6.85323
O 13.2721 17.6866 7.89069
O 8.76146 11.1642 8.11512
O 14.6465 1.38708 12.0028
Si 14.1887 13.9692 9.09115
Si 2.64195 10.8245 4.08586
Si 14.1217 12.7464 12.358
Si 4.31976 14.0452 10.8004
Si 0.608153 9.52575 8.65734
Si 1.53424 16.7495 7.88829
O 7.0871 14.7253 14.8572
O 1.92868 10.5687 9.67707
O 3.77974 12.1802 7.85941
O 2.2903 15.2782 7.8471
O 2.77152 8.6693 5.68674
O 2.82478 16.0448 5.32125
O 0.223269 13.9668 9.54621
O 2.1903 0.0480649 8.07038
O 15.3412 13.9091 12.2903
O 2.86894 14.1763 10.1048
O 0.34481 16.9405 6.94539
O 3.54826 10.6463 12.6335
Si 3.90937 14.7504 4.61324
Si 6.31567 10.5556 5.06912
Si 6.87911 14.9518 9.22322
Si 10.0723 11.9554 7.5705
Si 4.18574 12.4246 6.29919
Si 7.451 16.1382 6.63821
O 5.45262 13.9076 9.62113
O 7.96111 8.48617 12.1665
O 10.205 8.65548 5.83535
O 9.4959 1.78501 5.49284
O 5.64424 11.7121 6.02671
O 8.04587 14.9676 5.46491
O 4.28022 14.0772 5.99042
O 6.57358 17.5704 5.89006
O 6.40228 15.5344 7.72619
O 10.4936 12.8268 8.9867
O 6.95651 16.3118 10.1784
O 9.72471 13.0546 6.31202
Si 9.7098 14.21 5.28452
Si 1.16297 8.94644 5.67744
Si 10.6669 16.4492 7.33428
Si 13.5377 11.0651 9.53495
Si 11.3955 10.1929 5.70743
Si 12.7855 16.3053 9.06405
O 8.91677 16.7107 7.37371
O 12.1232 10.4263 9.89669
O 1.24205 9.97288 4.45612
O 13.2031 14.9279 10.3156
O 12.7406 9.58157 5.50615
O 1.43303 0.309848 4.85179
O 10.962 15.2867 6.23554
O 14.0949 16.8246 5.44005
O 11.2443 15.9063 8.75162
O 14.749 10.1863 9.03594
O 11.4949 1.43306 16.1073
O 13.907 11.9718 11.1016
Si 13.9957 4.59323 9.75686
Si 6.43255 0.272814 15.6284
Si 2.55914 6.30343 16.2311
Si 3.96573 2.26178 1.63566
Si 3.70009 2.21747 15.8251
Si 4.63056 4.91997 15.1589
O 1.13846 5.77712 16.6217
O 6.51594 16.9115 14.4138
O 3.19521 1.60258 0.199443
O 5.6428 5.82507 16.1942
O 0.96413 3.12125 12.3616
O 3.45873 3.36416 12.1317
O 15.4462 17.6458 14.2154
O 3.96064 9.47953 8.69662
O 3.28646 5.80549 14.6666
O 6.23073 15.6067 12.6675
O 2.296 7.8263 16.4466
O 4.23862 3.659 1.69993
Si 4.51783 3.83943 10.9682
Si 5.92065 16.5354 11.331
Si 6.65638 7.03973 15.7249
Si 12.9255 1.47293 15.2675
Si 7.31134 3.05197 14.7139
Si 7.8739 7.18316 13.0309
O 7.97076 6.62881 16.3786
O 9.90747 0.135462 0.878545
O 7.53905 1.44452 15.1809
O 9.45295 7.00497 13.5763
O 8.01358 2.89394 13.3205
O 7.61201 5.67299 12.6343
O 5.09702 1.38232 15.5183
O 5.73623 8.14584 10.7971
O 6.47078 7.08559 14.1124
O 12.8309 1.97532 13.6919
O 4.67159 4.61403 4.55348
O 8.09566 3.90481 15.848
Si 8.55198 4.20506 12.6114
Si 12.2098 17.8791 11.5653
Si 10.4525 5.88139 14.2263
Si 13.974 17.0263 13.9812
Si 13.2322 2.37322 12.0819
Si 11.266 6.18612 9.37499
O 10.2227 5.05955 15.6014
O 0.502802 0.497974 16.7357
O 0.457044 16.0279 16.0547
O 4.28612 3.73131 16.227
O 13.8862 15.5047 14.3055
O 12.5153 5.21962 9.68445
O 10.1548 4.58555 13.1896
O 11.6513 7.8352 9.2877
O 13.9479 3.61427 11.036
O 13.0684 17.9254 15.1502
O 12.0102 6.23905 14.5249
O 13.4376 17.114 12.4145
Si 1.25227 13.6029 12.9076
Si 3.47698 10.9589 9.15582
Si 2.79416 15.0647 14.7278
Si 4.73442 11.4677 11.8176
Si 2.19296 11.3808 13.2869
Si 2.37368 2.33974 12.8869
O 1.98509 14.2819 15.778
O 1.52088 10.175 14.6453
O 6.16047 10.5841 12.2623
O 2.01167 0.77024 12.3303
O 1.81997 12.1443 11.9377
O 5.80752 3.81062 14.522
O 1.53811 12.6943 14.191
O 4.50309 15.7483 11.05
O 2.41808 14.8733 13.2141
O 10.3227 13.6802 11.343
O 2.43848 2.15611 14.7354
O 4.8123 13.0605 12.0969
Si 1.59912 14.7388 9.41769
Si 6.7883 9.34586 11.3671
Si 7.74031 15.3553 13.3983
Si 9.21101 10.8867 14.9604
Si 9.42133 13.3455 9.98438
Si 10.4528 16.4865 13.9425
O 4.53298 14.5252 0.556984
O 11.3461 15.2349 14.648
O 8.01186 14.0934 12.5341
O 9.03478 11.8356 16.4999
O 8.67111 12.0966 10.8271
O 8.08034 14.1171 9.57769
O 4.22681 11.6461 10.3059
O 12.0051 1.54996 11.2036
O 8.96215 16.2149 13.4205
O 10.3016 9.55545 14.613
O 9.03352 16.0199 1.87703
O 7.66214 10.4402 15.3117
Si 12.604 14.4592 14.2261
Si 11.395 9.18413 10.4378
Si 10.983 -0.00117826 16.7265
Si 14.6535 10.2691 0.00864932
Si 11.7004 9.52694 13.7602
Si 13.4266 11.9197 14.8749
O 10.273 17.4055 15.3056
O 13.2162 10.042 0.455293
O 13.1409 8.42846 14.4222
O 2.61042 16.8558 14.9973
O 11.7395 9.07293 12.0768
O 14.4229 11.9432 13.6859
O 12.1422 10.8392 14.3672
O 12.9291 13.8788 12.5583
O 12.7269 13.1977 15.3807
O 0.150872 9.18182 16.715
O 12.2292 17.253 0.654
O 14.4893 11.5263 16.0291
324
 Atoms. Timestep: 9500
Si 0.645269 4.70473 0.187902
Si 5.7343 16.392 14.8513
Si 4.40916 8.55914 4.60922
Si 3.45468 2.31589 6.39765
Si 2.08272 1.69529 4.17581
Si 3.98501 5.69951 3.91369
O 3.90357 5.45805 5.6453
O 4.46018 0.845367 9.37962
O 2.30758 2.60279 5.35451
O 6.29237 8.23422 16.4494
O 3.38036 2.10667 3.20838
O 2.60328 5.65383 3.09403
O 1.59356 4.28931 1.30918
O 3.34663 6.58477 0.512605
O 4.78556 7.17102 3.68012
O 4.51095 0.907453 6.27268
O 3.76141 9.40835 3.43939
O 4.73922 3.3561 6.55487
Si 3.06462 5.2055 1.67704
Si 8.20968 17.3801 1.3141
Si 7.86961 5.85116 5.71842
Si 9.85874 3.86723 4.7921
Si 6.69972 0.818976 3.44028
Si 8.81984 5.68233 2.92797
O 6.66579 5.29901 6.56382
O 6.55146 1.76213 4.76271
O 8.7265 4.10715 3.48707
O 12.0615 4.81633 1.51705
O 7.37653 0.372041 0.216255
O 8.15715 5.58062 1.28562
O 6.0084 2.18578 2.24008
O 8.72326 8.60242 0.651067
O 7.88004 6.4121 4.23427
O 11.1521 4.12033 3.65514
O 6.74763 11.4444 3.57586
O 10.391 6.38582 2.51381
Si 8.52076 5.5782 16.9283
Si 0.713277 17.4418 14.9774
Si 13.4597 4.84036 5.48237
Si 15.6154 0.961969 2.12403
Si 0.0455081 1.99888 16.3803
Si 13.0867 5.89902 0.706211
O 12.9802 5.73059 4.06688
O 14.3019 1.10604 3.06296
O 15.2594 1.50007 0.65127
O 13.0234 7.12983 1.66065
O 14.6028 2.36412 15.2132
O 0.698425 3.5352 16.1548
O 14.7233 5.36615 0.557264
O 13.2842 6.25358 16.1321
O 15.092 4.59463 5.42137
O 0.967954 1.89025 3.00134
O 0.676071 7.17532 5.38101
O 12.9018 3.70601 6.52641
Si 1.42351 15.7593 0.0291063
Si 1.92859 9.52466 15.9114
Si 2.21393 16.7738 4.23032
Si 3.68237 13.0923 1.48985
Si 1.74915 11.2659 1.13359
Si 4.33041 16.2639 0.58319
O 14.4209 14.5372 6.84294
O 2.86313 11.553 5.37731
O 1.89193 11.1199 2.76141
O 3.05444 16.3832 2.94734
O 2.44619 10.4485 -0.053062
O 4.32283 15.9587 14.1259
O 2.27738 12.811 0.83867
O 4.75343 16.8103 16.246
O 2.651 16.538 0.486835
O 4.81519 12.0606 1.78671
O 2.61935 1.78775 7.72783
O 3.1394 13.4457 3.23958
Si 8.61864 12.8999 12.4503
Si 7.26415 9.41046 17.0344
Si 4.73216 16.4978 3.12248
Si 9.47331 9.94434 4.62589
Si 6.48886 11.6362 1.96044
Si 9.67372 14.5403 2.31324
O 5.06559 15.1968 3.98734
O 8.20427 10.7205 5.5445
O 7.21264 12.7086 1.02015
O 8.87401 14.0232 3.71539
O 6.32968 10.0727 1.20281
O 9.99667 13.4673 0.998734
O 8.90098 11.8393 13.7026
O 8.04406 0.199328 2.78407
O 5.3001 17.0226 1.68632
O 8.67536 9.19829 3.24938
O 5.64942 17.6814 3.94041
O 10.3159 11.2834 4.21646
Si 8.81481 12.3997 0.535086
Si 12.0983 7.16963 15.5109
Si 11.1669 17.2058 1.89151
Si 12.319 8.54437 0.985031
Si 9.40019 9.60464 1.72556
Si 15.4867 16.1344 2.71416
O 11.2514 11.4353 6.44555
O 0.992827 9.0686 7.33336
O 11.3402 9.43773 1.86044
O 0.520085 16.2044 4.14887
O 11.4538 7.67961 16.9049
O 0.462492 14.9665 1.61532
O 9.24175 11.2749 1.6864
O 0.41464 17.439 1.83058
O 11.0039 15.5255 2.4808
O -0.0331228 11.2466 1.00664
O 11.8149 -0.0333979 3.08422
O 13.8533 16.5039 3.05849
Si 13.1139 2.3716 7.62983
Si 2.84984 0.742026 9.07108
Si 0.729083 6.14623 9.1704
Si 5.85825 1.08508 10.348
Si 14.1707 17.5286 7.11466
Si 3.59939 5.52298 10.2471
O 15.1723 5.22181 9.80931
O 5.84208 -0.019213 11.688
O 1.52834 0.961339 9.87776
O 6.22961 8.12948 8.02932
O 0.629076 15.9291 9.51536
O 4.55878 6.47192 9.34395
O 14.1591 1.23715 7.0353
O 2.026 6.00742 10.1456
O 3.73233 3.85734 9.86699
O 7.14306 1.20235 9.40634
O 0.275661 7.7565 9.48733
O 5.87691 2.49651 11.0439
Si 5.2853 4.66801 5.66744
Si 6.09606 0.809569 6.18264
Si 4.98827 8.08992 8.95177
Si 8.57172 4.91897 9.26695
Si 7.839 2.16174 8.29262
Si 7.646 7.44267 8.20212
O 4.46243 5.27739 11.77
O 10.6878 -0.0601709 12.5835
O 8.09603 3.71277 8.51108
O 8.91593 8.30322 8.91386
O 6.65303 2.05259 7.1436
O 7.66836 6.22722 9.0613
O 9.01316 4.74718 6.02779
O 8.34393 7.1693 6.69853
O 5.83851 9.26345 5.08087
O 10.0799 5.62248 8.70594
O 7.3477 10.0538 9.98418
O 9.05728 4.24308 10.7462
Si 11.6774 5.51345 3.06786
Si 13.3675 17.9033 3.80048
Si 8.89858 9.77792 9.41431
Si 1.22953 1.6871 11.3823
Si 10.483 1.47971 6.73495
Si 15.4821 6.01618 6.22502
O 9.92709 9.99862 10.6165
O 11.4563 16.8208 10.2289
O 11.5727 2.03153 7.79025
O 1.1135 6.04645 7.49299
O 10.8256 -0.00851813 6.23908
O 13.6976 2.95261 9.02967
O 9.42792 1.66117 8.00617
O 13.4293 12.3152 8.46794
O 13.8548 6.34507 6.48971
O 13.2117 17.2974 8.48648
O 9.21585 10.897 8.03032
O 15.2774 1.60533 11.4661
Si 14.3215 13.8259 8.27656
Si 2.31031 10.3689 4.11424
Si 14.2996 12.9666 12.1386
Si 4.10283 14.2376 10.7263
Si 0.550314 9.28087 8.71525
Si 1.28832 16.6056 7.9643
O 6.76363 14.9937 15.2219
O 1.83305 10.0383 9.43454
O 3.98222 11.4968 7.87369
O 1.95578 15.1392 7.61352
O 3.33299 8.29319 5.84498
O 2.97694 15.546 5.33102
O 0.15087 13.5974 8.79917
O 2.60463 17.4417 8.25713
O 0.0135225 13.7853 12.0649
O 2.61927 14.2072 9.85599
O 0.0677444 17.4058 7.23071
O 3.85898 11.3172 13.4348
Si 3.77171 14.4647 4.52146
Si 6.6899 10.5097 4.93912
Si 6.47368 14.7133 9.49251
Si 10.0854 12.2066 7.47903
Si 4.23926 12.061 6.15609
Si 7.37288 16.1245 7.02441
O 5.29175 13.7482 9.64285
O 7.37643 8.72315 12.173
O 10.6481 9.40252 5.602
O 10.3106 2.23563 5.1681
O 5.72664 11.4677 6.07611
O 7.50532 15.0219 5.8484
O 4.25913 13.6181 5.78595
O 6.51745 17.2855 6.25252
O 6.35906 15.4963 8.10516
O 10.5459 12.9758 8.95625
O 6.81294 16.0199 10.4978
O 9.63156 13.5473 6.71337
Si 9.05831 14.5376 5.28315
Si 1.4406 8.4258 5.84832
Si 10.337 16.4513 6.91327
Si 13.8173 11.2647 9.62433
Si 11.7981 10.6694 5.16538
Si 12.6502 15.9005 9.28034
O 8.88553 16.7148 7.76738
O 12.4994 10.3859 10.0906
O 1.16322 9.59929 4.82586
O 13.6297 14.7108 9.5432
O 12.9266 9.69022 4.67621
O 2.08087 0.201498 4.73925
O 10.0952 15.6775 5.49473
O 13.4777 17.3754 5.39654
O 11.4763 15.8827 7.84056
O 14.8662 10.1367 9.17878
O 12.024 1.56079 15.9614
O 14.2303 11.7889 11.0167
Si 13.7557 4.32375 9.86514
Si 6.82536 0.858495 15.9236
Si 2.72478 6.55165 16.2369
Si 4.31338 2.49301 1.93409
Si 4.00174 1.85537 16.4585
Si 4.71097 4.78301 15.7039
O 1.14037 5.95642 16.4019
O 6.55113 17.7355 14.7343
O 3.35937 1.76326 0.798233
O 5.56869 6.02605 16.3327
O 1.76249 2.98266 12.5354
O 4.4126 2.66576 12.9168
O 15.4916 17.4678 13.6786
O 3.76805 8.96542 8.43468
O 3.28073 5.54393 15.1053
O 6.34094 16.0585 13.1094
O 2.39866 8.14744 16.0353
O 4.37769 4.37058 1.4661
Si 4.69593 3.46721 11.5209
Si 5.8992 16.4508 11.7333
Si 6.57637 6.96835 15.7443
Si 13.2977 1.49269 14.6432
Si 7.14054 3.75092 14.9117
Si 7.79954 7.34611 12.8087
O 8.06254 7.05763 16.3122
O 9.90566 17.7776 0.709171
O 7.47819 2.15842 14.8632
O 9.27811 7.24194 13.5636
O 7.73308 4.15349 13.4962
O 7.98247 6.04995 11.799
O 5.49351 1.33569 16.3968
O 5.2548 8.46734 10.4651
O 6.5641 6.99486 14.1357
O 12.9447 1.97698 13.2221
O 5.32807 4.52099 4.05821
O 7.63313 4.08053 16.5487
Si 8.76478 4.69241 12.2469
Si 11.7388 17.9495 11.457
Si 10.041 5.83947 14.148
Si 13.7824 16.9997 13.5131
Si 13.5276 2.12537 11.587
Si 11.213 6.18537 9.73063
O 9.52119 5.13031 15.6336
O 0.840786 0.829101 15.6948
O 0.176149 16.7817 16.3226
O 4.1236 3.53115 16.5412
O 14.0841 15.589 14.2169
O 12.422 5.23853 9.46654
O 10.1606 4.64483 13.002
O 11.2917 7.39492 10.6621
O 13.3792 3.78968 11.3043
O 13.2595 17.9877 14.582
O 11.5318 6.01946 14.4962
O 13.2764 17.3861 12.0055
Si 1.05223 13.0759 13.1095
Si 3.20466 10.5285 9.12724
Si 2.85209 15.4503 14.2745
Si 4.33339 11.5433 11.9483
Si 2.38161 11.2442 13.7725
Si 3.06134 1.85619 13.2077
O 1.95336 15.0961 15.8195
O 2.04638 9.86378 14.3732
O 5.74009 10.7096 11.8293
O 2.19775 0.639477 12.3409
O 1.50238 11.4622 12.2157
O 5.48037 4.04047 14.4694
O 1.66023 12.5199 14.6406
O 4.33595 15.6814 11.4668
O 2.08429 14.4776 13.1542
O 9.85965 13.8488 11.6784
O 3.18463 1.7659 14.7811
O 4.44749 13.2467 12.1185
Si 1.4273 14.6435 9.10281
Si 6.47326 9.46449 11.2065
Si 7.65387 15.2714 13.8365
Si 9.21401 11.1919 15.2124
Si 9.41939 13.2551 10.0089
Si 10.4244 16.7975 13.6629
O 4.65191 14.6983 0.841275
O 11.6868 15.8248 13.6362
O 7.39384 13.9734 12.9297
O 9.75608 11.9519 16.4409
O 8.44844 12.0176 10.9729
O 8.02631 14.0606 9.63128
O 3.60724 11.1935 10.4627
O 12.0643 1.37799 10.8112
O 9.1767 15.6002 13.7454
O 10.0988 9.87427 14.9761
O 8.2571 15.635 1.44951
O 7.67021 10.6148 16.0754
Si 12.7244 14.5958 13.7393
Si 11.4562 9.54082 10.9647
Si 11.4999 -0.0395481 16.2204
Si 14.8525 10.275 0.0445229
Si 11.5987 9.84519 14.1719
Si 13.5273 12.0546 15.0702
O 10.5069 17.117 15.4129
O 13.6639 9.53753 0.69832
O 12.3989 8.5076 14.5946
O 2.32564 17.0584 14.5834
O 11.7387 9.9617 12.5057
O 14.5286 11.9142 13.6052
O 12.2699 11.0552 15.0136
O 12.9736 14.0683 12.2195
O 12.6155 13.5245 14.9393
O 0.0635003 9.45404 16.0809
O 11.981 17.1502 0.313802
O 14.2204 11.742 16.4303
324
 Atoms. Timestep: 10000
Si 0.380707 4.70756 0.270791
Si 5.47927 16.3017 15.4152
Si 4.83525 8.57105 3.91061
Si 3.64109 2.2287 6.58651
Si 1.83423 1.37603 4.31817
Si 4.25579 5.65054 4.2774
O 4.70122 5.92037 5.8879
O 4.5976 0.839519 9.69488
O 2.1761 2.07611 5.78091
O 5.75205 8.49569 16.7131
O 2.70042 1.19566 2.94457
O 2.86455 5.4981 3.37955
O 1.15026 4.16015 1.46078
O 2.80094 6.49354 0.855361
O 4.96893 7.04066 3.45248
O 4.59564 1.08409 6.07253
O 3.77712 9.45234 3.12182
O 4.52261 3.53527 6.72837
Si 2.62594 5.02643 1.84248
Si 8.41892 -0.00285185 1.21542
Si 8.25665 5.7331 5.30836
Si 9.81003 3.50215 4.72081
Si 6.39395 0.953243 3.24969
Si 9.25464 5.21514 2.71914
O 7.09475 4.75242 5.8693
O 6.55328 1.70332 4.57708
O 8.6533 3.72412 3.58919
O 12.6662 4.65755 1.62315
O 8.13471 0.45033 16.9498
O 9.42239 4.73301 0.898552
O 5.08357 1.81962 2.32286
O 8.28046 9.14062 0.748348
O 8.16535 6.1751 3.45308
O 11.3458 3.41196 4.00963
O 6.46397 11.7115 3.80314
O 10.6782 5.7387 2.95128
Si 8.5571 5.19092 16.9048
Si 0.989374 18.0281 14.8496
Si 14.1229 5.03563 5.46891
Si -0.0385984 1.13453 2.23571
Si 15.4606 1.99907 16.5412
Si 13.3889 5.86657 0.877885
O 13.1699 5.42396 4.15081
O 14.0465 0.891594 2.72806
O 0.0327451 2.0681 0.930018
O 13.1936 7.37901 1.58411
O 13.8364 1.89028 16.3112
O 15.6234 3.64826 16.5441
O 14.7618 5.15542 0.85055
O 13.5259 6.32995 16.3729
O 15.6371 4.37006 5.53746
O 0.382705 1.90764 3.56268
O 1.78308 6.42034 5.66329
O 13.1498 3.87265 5.91824
Si 1.25965 16.1045 16.7295
Si 1.38489 9.70062 16.1186
Si 2.29873 16.7849 4.30439
Si 3.22032 13.4145 1.87835
Si 1.31135 11.3569 1.23444
Si 4.14484 16.068 0.763241
O 14.3112 13.3125 6.39887
O 2.9796 11.3011 5.14936
O 1.98088 11.2468 2.70615
O 3.62456 17.0018 3.38252
O 2.12572 10.4689 0.195654
O 4.32613 15.4297 14.3062
O 1.88166 12.8335 0.902896
O 5.27002 16.4895 16.9205
O 2.81264 16.7724 0.146759
O 4.51259 12.5632 1.79544
O 2.97668 1.9859 8.03371
O 3.08663 13.6248 3.6085
Si 8.52222 12.7586 12.5164
Si 7.19107 9.63852 17.0945
Si 5.08061 16.4627 3.36668
Si 9.7051 10.1084 4.68119
Si 6.02155 11.6788 1.94809
Si 9.11096 15.4092 1.97268
O 5.01048 15.282 4.5199
O 8.2182 10.2487 5.39667
O 7.21407 12.553 1.19171
O 8.76989 14.6149 3.41169
O 6.13432 10.3988 1.11076
O 8.85772 14.2636 0.869005
O 9.33951 11.8408 13.5808
O 7.52874 1.24272 1.93019
O 5.2861 16.2282 1.86155
O 9.19532 9.41298 3.41698
O 6.26089 17.6235 3.56495
O 10.4997 11.5531 4.4285
Si 8.82211 12.6208 0.635567
Si 12.4435 7.31838 15.6423
Si 11.1645 17.6135 1.68411
Si 12.4395 8.60838 0.884651
Si 9.65982 9.83454 1.71781
Si 0.475442 16.175 2.183
O 11.2619 11.8679 7.09272
O 1.33745 8.89304 6.99817
O 11.1608 8.98187 1.75323
O 1.54157 15.6813 3.21535
O 11.7057 7.8625 17.0523
O 0.586421 15.3022 0.741382
O 9.65594 11.2767 1.31329
O 0.662219 17.8574 1.91757
O 10.3025 16.2351 1.16818
O 15.4383 11.4375 1.01966
O 12.3616 17.3081 2.86807
O 14.8532 16.3367 2.82503
Si 13.2351 2.90269 7.19945
Si 2.99085 0.999916 9.25168
Si 0.687961 5.94937 9.44851
Si 5.96621 1.31969 10.6006
Si 14.5323 17.953 6.41467
Si 3.55218 5.2754 10.5168
O 15.3118 5.21613 10.2586
O 6.21498 0.0608298 11.8058
O 2.11417 1.35887 10.8636
O 6.24685 7.75649 8.25793
O 0.326439 16.1254 9.72718
O 4.51955 6.22689 9.68578
O 14.1307 1.35874 6.93327
O 1.99438 5.8909 10.5494
O 3.30656 3.75684 10.0762
O 7.44307 1.39979 9.7954
O 0.441042 7.49865 9.1179
O 5.5638 2.89024 10.9968
Si 5.50147 4.46533 5.78417
Si 6.19704 1.05873 6.00456
Si 5.27399 7.66463 9.5301
Si 8.81074 4.72618 9.57973
Si 8.18255 1.8868 8.51616
Si 7.87881 7.36813 7.93193
O 4.05215 4.90181 11.8818
O 10.9433 17.6353 11.9707
O 9.03172 3.3902 8.64279
O 8.88331 8.51514 8.27456
O 7.07363 1.64498 7.26723
O 8.22202 6.02284 8.7234
O 9.75669 4.88718 5.836
O 8.14873 7.06376 6.28639
O 6.00113 9.37313 4.48913
O 10.3428 5.14041 10.1042
O 7.38301 9.87005 10.1259
O 8.19078 4.27656 11.026
Si 11.9563 4.67645 3.26448
Si 13.8732 17.6025 3.24906
Si 8.67411 9.82591 9.11823
Si 1.0945 1.66755 12.0541
Si 10.4969 1.48795 6.91756
Si 0.459061 5.83636 6.36211
O 10.0608 9.97408 10.1381
O 12.6211 16.7525 9.86016
O 11.6956 2.33379 7.31477
O 1.00507 5.38504 8.0045
O 10.6716 18.0858 6.09432
O 13.5788 4.00916 8.57331
O 9.3431 0.964964 8.08518
O 13.2865 11.9252 8.90805
O 14.7829 6.35933 6.24285
O 13.375 17.1315 7.18243
O 8.63471 11.135 8.21219
O 15.4453 1.38153 11.2539
Si 14.087 13.3367 8.09789
Si 2.45873 10.1178 3.88481
Si 14.1078 12.4716 12.1056
Si 4.08063 14.3255 10.4094
Si 0.599473 8.972 8.41618
Si 0.923386 16.8048 8.31627
O 6.90138 15.5467 15.4099
O 1.66698 10.0051 9.04478
O 3.62198 11.1863 7.85208
O 1.69943 15.3978 7.97189
O 3.74967 8.28442 5.19262
O 2.98211 15.9446 5.51891
O 15.5336 13.4627 8.96621
O 2.01887 17.993 8.88995
O -0.102924 13.3464 11.9946
O 2.60515 14.0663 10.0095
O 15.5366 17.3436 7.43804
O 3.99898 11.0382 13.3542
Si 3.81202 14.3372 4.90716
Si 6.65122 10.7327 5.13516
Si 6.53234 14.8275 9.18233
Si 9.78679 12.2174 7.3691
Si 3.88336 11.6992 6.30861
Si 7.23733 16.3191 6.59679
O 5.19163 14.085 9.23754
O 7.89087 9.05134 12.7049
O 10.9603 9.70042 5.82104
O 9.61214 2.20141 5.66179
O 5.48513 11.0596 6.13517
O 7.49579 15.1897 5.59129
O 4.18355 13.3099 6.01938
O 6.63817 17.6057 5.98035
O 6.35578 15.5233 7.69696
O 10.165 13.1894 8.81598
O 6.88258 15.878 10.29
O 9.1031 13.3444 6.29338
Si 8.78443 14.4957 5.09266
Si 2.0938 8.04354 5.60253
Si 10.0848 16.5769 6.66454
Si 13.962 10.6377 9.7761
Si 11.6358 11.3501 5.61866
Si 12.7387 16.2729 8.25343
O 8.60981 16.6495 7.22316
O 12.7133 9.77483 10.2339
O 1.48189 8.77897 4.12627
O 13.3055 14.697 8.78713
O 13.1431 11.5413 5.18024
O 1.31406 18.0484 4.80717
O 9.92179 15.4761 5.63454
O 14.3254 17.556 4.83079
O 11.281 15.9264 7.58599
O 14.8069 9.57773 8.72459
O 11.5033 1.35966 15.2827
O 14.6666 11.2068 11.071
Si 13.7724 4.36682 10.1432
Si 6.87433 0.947694 15.9462
Si 2.45343 6.68636 16.5121
Si 3.67293 2.23279 1.91736
Si 4.1031 2.1792 16.3141
Si 4.38734 4.91764 15.3099
O 1.14613 5.76534 16.5045
O 6.07456 17.7894 15.1737
O 3.17796 1.62676 0.338649
O 5.2938 6.09534 16.2688
O 1.59208 2.98639 13.1961
O 4.04862 2.47539 12.7199
O 15.4586 17.8844 13.8808
O 3.85083 8.49704 8.97307
O 3.25625 6.03861 15.1009
O 6.15908 15.8296 12.7725
O 1.75067 8.16608 15.9518
O 3.63271 3.87029 1.75117
Si 4.16632 3.48982 11.565
Si 5.86476 16.638 11.4151
Si 6.41743 7.15709 15.7971
Si 13.1281 1.40586 15.0278
Si 7.19044 3.52636 14.7343
Si 7.59295 7.59714 13.4025
O 7.59026 6.65507 16.8338
O 10.021 0.583075 1.54829
O 7.4114 1.89103 14.7044
O 8.71443 7.3953 14.5844
O 7.97737 3.79998 13.4684
O 7.70784 6.1819 12.5708
O 5.71155 1.70717 16.7253
O 5.66027 8.29034 10.9789
O 6.09928 7.64276 14.2302
O 13.482 2.09248 13.4404
O 5.0361 4.22157 4.0664
O 7.54215 4.15873 16.2283
Si 8.49208 4.8085 12.4779
Si 12.405 17.6461 11.1358
Si 10.0385 6.34488 14.3932
Si 13.9307 16.9538 13.7839
Si 13.8255 1.75351 11.6579
Si 11.5004 6.4781 10.3164
O 9.89729 5.51877 15.7757
O 0.808539 1.2122 15.6148
O 0.118297 17.0446 16.2853
O 3.64715 3.86948 16.2096
O 13.8477 15.415 13.9748
O 13.0453 5.98006 10.4626
O 10.004 5.16958 13.0029
O 11.1397 7.74701 11.0978
O 13.2383 3.196 11.0031
O 13.0262 17.6761 14.9826
O 11.6599 6.42098 14.3978
O 13.5252 17.0072 12.2518
Si 1.34863 13.2795 12.9068
Si 3.21178 10.1093 9.14362
Si 2.72425 15.5136 14.3501
Si 4.35135 11.3383 11.7687
Si 2.35119 11.2682 13.6531
Si 2.82726 1.86526 13.5146
O 2.05784 14.9554 15.6479
O 1.50617 10.2377 14.3936
O 5.94624 10.8162 11.9537
O 1.80746 0.522125 13.0659
O 1.91546 11.8547 12.2373
O 5.8144 4.19852 14.5553
O 2.22884 12.7935 14.3595
O 4.48734 16.1228 10.9071
O 1.91105 14.85 12.8349
O 9.56756 13.8749 11.5165
O 3.23689 1.81448 14.9329
O 4.29007 13.2576 11.8517
Si 1.02267 14.4914 9.30616
Si 6.75526 9.49144 11.531
Si 7.37199 15.2985 13.7262
Si 9.41665 11.2541 15.3402
Si 9.03524 13.2243 10.1313
Si 10.3677 16.7238 13.2749
O 3.32768 14.8325 1.24283
O 11.2499 15.2727 13.2165
O 7.5676 13.7135 13.2703
O 9.55382 12.3776 16.5291
O 8.09475 12.1613 11.0709
O 7.9331 13.9461 9.0763
O 3.70884 10.6921 10.4971
O 12.9456 0.91864 10.7241
O 8.78838 16.2427 13.1555
O 10.2272 9.62179 15.1496
O 8.00716 16.6169 2.04016
O 7.92789 10.5736 15.9434
Si 12.7302 14.3647 13.3796
Si 11.3499 9.34737 10.9274
Si 11.3545 17.9872 15.7907
Si 14.6458 10.6534 0.014135
Si 11.5851 9.83674 14.2642
Si 13.2967 12.0854 14.8782
O 10.6986 16.7059 15.1261
O 13.1648 9.93435 0.439766
O 12.7157 8.63588 14.6433
O 2.56659 17.225 14.6681
O 11.2452 9.79642 12.6355
O 13.7362 11.5247 13.4636
O 11.7744 11.3951 14.7312
O 12.8792 13.428 11.9111
O 12.6055 13.7285 14.8168
O 15.5521 9.6209 16.5365
O 11.8072 17.9126 0.0886819
O 14.2236 11.9144 16.1254
324
 Atoms. Timestep: 10500
Si 0.00578935 5.21817 0.0483191
Si 5.54304 16.0955 15.5401
Si 4.78207 8.54317 4.09191
Si 3.66276 2.36707 6.86296
Si 1.57697 1.64806 4.53529
Si 4.29723 5.77552 3.55234
O 4.71932 6.03211 5.25145
O 4.5925 1.4989 9.20732
O 2.47947 2.41948 5.55663
O 6.35567 8.07687 0.121293
O 2.20452 2.12702 3.02527
O 2.78074 5.51917 3.05098
O 1.00573 4.64678 1.25492
O 3.05859 6.00587 0.543523
O 5.13096 7.27006 3.04744
O 4.72211 1.0714 6.40993
O 3.88903 9.68101 3.24273
O 4.33596 3.82535 6.61583
Si 2.55113 4.8819 1.55287
Si 8.28325 -0.0975251 1.04389
Si 8.25082 5.12449 5.36305
Si 10.4724 3.08002 4.30208
Si 6.11607 0.951683 3.28875
Si 9.08622 4.83729 2.5886
O 7.02408 4.1706 5.98864
O 6.3223 1.65331 4.71629
O 9.63367 3.49462 3.06428
O 13.0254 4.88241 1.67489
O 7.75596 0.235734 16.7668
O 8.69355 4.52027 1.04952
O 4.9559 1.73354 2.52335
O 8.36485 9.7778 0.490514
O 7.86711 5.33317 3.73327
O 11.9748 3.50627 4.12437
O 6.66571 11.7724 3.28069
O 10.8028 5.51575 2.94498
Si 8.58649 5.11933 16.6839
Si 0.928998 0.111466 14.7827
Si 14.7162 4.56937 5.09423
Si -0.0941483 1.2349 2.33247
Si 15.3387 2.2789 16.6205
Si 13.4303 6.24161 0.683676
O 13.866 5.41797 3.96073
O 13.9786 0.929711 2.53283
O 0.146438 1.8408 0.969717
O 12.8406 7.67492 1.46233
O 13.9138 1.80567 16.1374
O 15.1088 3.94233 16.9413
O 15.1947 6.56218 0.948385
O 13.0086 6.19768 16.4999
O 0.664713 4.42965 4.92136
O 0.108405 1.72412 3.82037
O 2.24749 6.4999 5.82358
O 13.9041 3.5 6.00011
Si 1.55641 16.2976 -0.153799
Si 1.25775 9.60335 16.2678
Si 2.27252 16.9239 4.73262
Si 3.41751 13.1957 2.31448
Si 1.18699 11.0141 1.74661
Si 4.21343 15.7143 0.81815
O 15.2996 12.4103 7.11027
O 2.30066 11.1253 4.94131
O 1.16002 9.74412 2.69381
O 3.60363 17.5578 4.10948
O 1.82068 10.6474 0.239657
O 4.4332 15.1093 14.4471
O 2.00095 12.4099 2.27135
O 5.39849 15.3229 17.0802
O 3.16006 16.8238 0.234806
O 4.88114 12.9681 1.65758
O 2.50031 2.43619 8.0744
O 3.52877 13.7294 3.89588
Si 8.55696 12.8262 12.4425
Si 6.71778 9.70798 -0.115128
Si 4.89197 16.625 3.65247
Si 9.1758 11.0277 4.64436
Si 6.2031 11.9525 1.69887
Si 9.44807 15.2832 1.84141
O 5.27143 15.3914 4.54551
O 7.77834 11.0657 5.5241
O 7.08461 13.0439 0.835945
O 9.23998 14.4322 3.22644
O 5.79194 10.4404 1.19721
O 9.32094 14.3671 0.646045
O 8.6934 11.4934 13.4751
O 7.31606 0.547461 2.24518
O 4.85552 16.5978 2.00705
O 8.78467 10.3898 3.07782
O 6.14158 17.6107 3.9618
O 10.24 12.4294 4.49362
Si 8.72569 12.8934 0.400906
Si 11.9324 7.37568 15.4257
Si 11.108 17.5683 1.30815
Si 11.9175 8.98944 0.879828
Si 9.58007 10.4278 1.42587
Si 0.323372 16.4674 2.52368
O 11.1851 12.1135 7.04166
O 1.40919 9.03021 7.10478
O 10.7907 9.47373 2.0136
O 1.18518 16.0848 3.75891
O 11.0925 8.40375 16.6776
O 0.367638 15.7876 0.901434
O 9.60839 12.0803 1.4384
O 0.753412 17.867 2.12502
O 10.8471 16.0183 1.66192
O 15.2957 11.1936 1.29381
O 11.9535 17.844 2.68147
O 14.5244 16.5428 3.14081
Si 13.3126 2.92466 7.46555
Si 2.77273 1.46748 9.25986
Si 0.9054 5.95307 8.99234
Si 5.76436 1.0848 10.3635
Si 14.3441 -0.13513 6.66227
Si 3.68375 5.47911 10.3919
O 15.3576 5.02386 9.5225
O 5.4754 -0.120536 11.3692
O 2.03223 2.19973 10.6391
O 6.72464 7.24993 8.54601
O 0.450717 16.3748 9.64036
O 4.64971 6.3951 9.63367
O 13.9731 1.22905 7.42454
O 2.01555 5.57093 10.1663
O 3.85772 3.7567 10.2635
O 7.24853 0.932048 9.82681
O 0.457593 7.45287 8.87964
O 5.9201 2.42075 11.2538
Si 5.41941 4.47685 5.36847
Si 6.32808 1.14184 6.2005
Si 5.4973 7.68038 9.21695
Si 9.11441 4.67763 9.5115
Si 8.00514 1.6518 8.59785
Si 8.17784 7.2566 7.8006
O 4.2883 5.07705 12.2476
O 11.0885 16.9795 11.7335
O 8.40239 3.11801 9.34138
O 8.90054 8.54912 8.09247
O 6.94524 2.24405 7.35342
O 8.97433 6.20224 8.8041
O 9.81589 4.30257 5.53936
O 8.16393 6.66651 6.10442
O 6.28498 9.11996 4.58959
O 10.6404 4.59112 9.90322
O 7.81235 9.65993 9.97699
O 8.03305 5.06432 10.7132
Si 12.3298 5.0057 3.10316
Si 13.4168 17.7788 3.28252
Si 9.01789 9.90779 8.84452
Si 1.16523 2.27974 11.9412
Si 10.6516 1.1287 6.73605
Si 1.04797 5.36934 6.16438
O 10.3398 10.0124 9.86586
O 12.4404 17.1863 9.50306
O 11.9124 2.32218 6.83879
O 1.37709 5.18422 7.78963
O 10.9779 17.5951 6.64166
O 13.3337 3.536 8.96045
O 9.32986 1.13551 7.69263
O 13.6256 12.2778 9.19431
O 15.1617 5.70929 6.47585
O 13.6832 16.7129 7.27311
O 8.63787 11.1904 7.82445
O 15.4852 1.50663 11.5103
Si 14.4904 13.2402 8.19786
Si 2.33152 9.81016 3.87492
Si 14.7987 12.4376 12.4587
Si 3.83266 14.459 10.7022
Si 0.768871 8.99323 8.54974
Si 0.977487 17.1014 8.3467
O 7.03518 15.7614 14.824
O 1.94935 9.73526 9.403
O 3.59473 11.2512 7.82025
O 1.9252 15.3496 8.27472
O 3.82427 8.38138 5.50199
O 2.69534 15.6127 5.63797
O -0.163484 13.6938 9.22734
O 2.14888 -0.0227931 8.76754
O -0.0935409 13.8224 12.5734
O 2.26097 14.2426 10.3368
O 0.0418986 17.7401 7.11877
O 3.65983 10.7435 13.182
Si 3.86328 14.6663 5.14311
Si 6.38924 10.794 4.62809
Si 5.83309 14.9629 8.69006
Si 9.59491 12.6848 7.37011
Si 3.77625 11.6106 6.29363
Si 7.55626 16.288 6.43779
O 4.5304 14.208 9.31636
O 7.61306 8.95828 12.8007
O 10.2386 10.0438 5.19669
O 10.2103 1.74259 5.15719
O 5.29103 11.1196 5.6525
O 8.02149 15.8027 4.97351
O 4.0345 13.3454 6.25887
O 7.04291 17.9499 6.23604
O 6.59453 15.0388 7.12534
O 9.5907 13.5912 8.65062
O 5.66625 16.2118 9.57142
O 8.76191 13.6906 6.32206
Si 9.27019 14.8169 4.83234
Si 2.232 8.17031 5.80598
Si 10.4168 16.107 6.96276
Si 14.0316 10.9093 9.98481
Si 11.2867 11.38 5.43406
Si 12.7269 16.0769 8.32729
O 8.83499 16.4859 7.50513
O 12.9278 9.71024 10.2808
O 1.56819 8.52728 4.44906
O 13.3706 14.4301 8.43893
O 12.8691 11.2944 5.24312
O 1.38086 -0.00812222 5.32852
O 10.6304 15.3193 5.47086
O 13.6932 17.8235 5.04026
O 11.3739 15.3396 7.96798
O 15.2579 9.89702 9.20428
O 11.5241 1.15199 15.4927
O 15.0049 11.0842 11.3723
Si 14.0166 4.51225 9.9789
Si 6.2747 0.714412 16.0931
Si 2.48372 6.56753 16.4232
Si 3.58224 2.22597 2.02563
Si 3.59033 2.12067 16.7266
Si 4.71068 4.86393 16.012
O 1.0363 5.52428 16.1217
O 5.15959 17.6611 15.6427
O 2.87146 1.72597 0.694915
O 5.80923 5.77867 17.057
O 1.47318 3.39999 13.3686
O 3.91954 2.60933 12.9753
O 15.4072 17.6988 13.9707
O 4.45194 8.70968 8.37116
O 3.59407 5.96914 15.4591
O 6.55123 15.4443 12.0832
O 2.04717 8.23359 16.6067
O 3.82221 3.77258 1.55437
Si 4.63681 3.28399 11.7211
Si 5.48516 16.5265 11.2119
Si 6.73193 7.02286 16.4196
Si 13.0472 1.44152 14.8719
Si 6.89012 3.3941 14.5624
Si 7.57813 7.56868 13.532
O 8.26514 6.74153 16.9889
O 9.80065 0.24868 1.16338
O 6.55481 1.84174 14.86
O 9.20274 7.29669 14.0323
O 7.37185 3.68035 12.9644
O 7.11383 6.27175 12.7062
O 5.20215 1.38357 17.0398
O 5.79345 8.36712 10.7708
O 6.51237 7.8179 14.948
O 13.5938 2.4279 13.5703
O 5.22237 4.36016 3.76069
O 7.64423 3.86437 16.0915
Si 8.03542 5.04726 12.3554
Si 12.5867 17.6494 11.0621
Si 10.0335 5.85094 14.2661
Si 14.1163 16.9038 13.3984
Si 13.9481 2.14567 12.0481
Si 11.5215 5.90996 10.7684
O 9.86611 4.99364 15.7127
O 0.507851 1.77815 15.4384
O 0.946826 17.5316 16.4338
O 3.81375 3.65003 16.5005
O 14.0751 15.2669 13.8086
O 12.9856 5.71377 9.98118
O 9.75813 5.01571 12.9216
O 11.1506 7.47804 10.8157
O 14.1648 3.47544 11.2122
O 13.1864 -0.0375484 14.0516
O 11.5673 6.31132 14.1944
O 13.8369 17.0665 11.8617
Si 1.34235 13.4379 13.2968
Si 3.51188 9.95461 9.00191
Si 2.80927 15.7597 14.48
Si 4.4958 11.3884 11.7882
Si 2.19378 11.0327 13.7674
Si 2.53613 2.37328 13.9279
O 2.04926 15.1828 16.0121
O 1.51491 9.80551 14.5601
O 6.02861 10.7965 11.9992
O 1.64552 1.0616 12.9789
O 1.40472 11.7326 12.4129
O 5.59376 4.30684 14.823
O 1.97593 12.4759 14.6982
O 3.85938 15.785 11.4985
O 2.3212 14.7563 13.2773
O 9.6022 14.039 11.4585
O 2.93057 1.53227 15.2648
O 4.38212 13.0926 11.7888
Si 1.07112 14.6881 9.34763
Si 6.9973 9.54458 11.3551
Si 7.69317 15.175 13.3906
Si 8.51076 10.9355 15.087
Si 8.57754 13.446 10.0328
Si 10.4712 16.2537 12.9245
O 3.30393 14.366 0.989855
O 11.5591 15.1369 13.4446
O 8.32476 13.6632 13.6899
O 9.08812 12.2474 16.1517
O 8.24686 12.0675 10.9629
O 6.9863 14.0556 9.50237
O 3.82675 10.8041 10.3581
O 12.8973 0.968427 11.3849
O 8.93572 16.0959 12.8388
O 9.70286 9.84007 15.0026
O 8.27281 16.5751 1.71799
O 7.02125 10.1681 15.7071
Si 12.8585 14.188 13.5602
Si 11.565 9.07202 10.9515
Si 11.2298 17.7119 15.6492
Si 14.6043 10.4994 0.0632009
Si 11.1397 9.65347 14.1033
Si 13.383 11.6767 14.969
O 10.5892 17.1763 14.3084
O 12.9723 9.98888 0.278441
O 12.3582 8.65478 14.4098
O 2.50036 17.2206 14.3384
O 10.97 9.28982 12.408
O 14.539 11.6745 13.9682
O 11.8929 11.085 14.2872
O 13.1888 13.1576 12.3444
O 12.7353 13.3112 14.7865
O 15.4415 9.44374 16.4686
O 11.6164 16.891 17.0037
O 14.0223 11.733 16.3082
324
 Atoms. Timestep: 11000
Si 0.535579 5.13626 17.1367
Si 5.1468 16.1393 15.2097
Si 4.68867 8.77892 4.2997
Si 3.83815 2.26048 6.66729
Si 2.03021 1.9614 4.43422
Si 4.23322 6.08499 4.1577
O 4.52608 6.06927 5.78349
O 4.22143 0.750578 10.2365
O 2.33528 2.39021 5.93884
O 6.56934 8.24171 17.1504
O 3.30442 1.6793 3.22841
O 2.79692 5.8492 3.39861
O 1.34914 4.5105 1.21932
O 3.29503 6.3532 0.826296
O 4.96473 7.42849 3.58926
O 4.46943 0.87578 6.10182
O 3.55548 9.78173 3.42955
O 4.74104 3.36335 5.83117
Si 2.6868 5.2049 1.84864
Si 8.12574 17.8933 1.31681
Si 8.65742 5.32061 5.10809
Si 10.3128 2.73542 4.13714
Si 6.36554 0.808581 3.26685
Si 9.59999 4.95438 2.48332
O 7.25186 4.78749 5.86555
O 6.70382 1.35959 4.78556
O 9.51584 3.34068 2.87738
O 13.299 4.47989 1.62299
O 7.10181 0.229401 0.138194
O 9.59589 4.5589 0.872366
O 5.70915 1.95227 2.28957
O 8.1607 9.82737 0.654775
O 8.44566 5.81188 3.41701
O 11.9689 2.97345 3.6796
O 6.20178 12.037 2.84698
O 11.0812 5.22282 3.05544
Si 8.76481 4.57506 16.8914
Si 1.01445 -0.0177441 15.0672
Si 14.3808 4.78187 5.65187
Si 0.00447632 1.82593 2.3812
Si 15.3375 2.23335 16.4605
Si 13.4663 5.80844 0.592589
O 13.5577 5.2577 4.0967
O 14.1252 1.7088 3.14382
O 15.63 2.3419 0.737335
O 12.5404 6.96704 1.35314
O 13.7689 2.24348 15.8606
O 15.6593 3.95972 16.0977
O 15.1646 5.89172 0.80125
O 13.2462 6.44184 16.2645
O 0.223959 4.50716 5.43855
O 1.14461 2.84074 3.26371
O 1.80431 6.58872 6.07157
O 13.7174 3.3509 6.19111
Si 1.62967 16.5364 0.113963
Si 1.54475 9.5245 16.1192
Si 2.16052 16.8774 4.31762
Si 2.97296 13.5428 1.9904
Si 1.07602 11.3363 1.21603
Si 4.42328 15.791 0.761475
O 14.6796 14.0041 7.31273
O 2.35027 11.4879 4.95044
O 0.895744 10.3472 2.52936
O 3.38208 16.5585 3.3551
O 1.97838 10.7081 17.0864
O 3.95587 15.5002 14.5501
O 1.5534 12.632 2.01476
O 5.35178 15.7193 16.7665
O 3.10966 16.9571 0.658935
O 4.29314 12.5948 1.39793
O 3.47267 2.03768 8.3936
O 2.93474 13.7464 3.5482
Si 8.04866 12.8141 12.116
Si 6.7543 9.8753 16.9594
Si 4.89413 16.0536 3.33554
Si 9.31623 11.1279 4.30339
Si 5.90053 12.1736 1.35717
Si 9.08323 15.1725 1.87588
O 4.71874 14.8385 4.97473
O 7.78446 11.3307 4.89764
O 7.34373 12.8559 0.794576
O 8.82591 14.598 3.4308
O 5.6604 10.7667 0.349608
O 9.52485 14.3587 0.528173
O 8.26336 11.6908 13.1968
O 7.89407 0.154427 2.96296
O 5.55225 15.5309 1.85796
O 9.37726 10.5032 2.88578
O 5.67522 17.4786 3.52806
O 10.185 12.567 4.20081
Si 8.69503 12.8378 0.125977
Si 12.2863 7.37881 15.4563
Si 11.0909 17.2154 1.55058
Si 12.0502 8.33132 0.710979
Si 9.69171 10.2347 1.37717
Si 0.00791587 17.1827 2.55308
O 11.275 12.2386 6.99942
O 1.44702 8.40553 7.53301
O 11.0338 9.41237 1.55317
O 0.52455 16.7237 3.96101
O 11.1165 8.01952 16.4815
O 0.578276 16.5752 1.26092
O 9.62403 11.6588 0.578438
O 0.780674 0.545488 2.25231
O 10.6957 15.7471 1.77716
O 15.3983 11.5219 0.554719
O 11.7795 -0.00521479 2.59902
O 14.055 17.1809 2.47431
Si 13.404 2.27338 7.35626
Si 2.77831 0.801158 9.39172
Si 0.931295 5.3609 9.51336
Si 5.92367 1.33009 10.6587
Si 14.3128 17.5446 6.71775
Si 4.10249 5.40282 10.0537
O 15.6757 4.32257 10.3533
O 5.81504 0.0526197 11.731
O 1.55396 1.79657 10.2091
O 6.66577 6.82041 7.89951
O 0.381255 16.1215 9.86161
O 4.48632 6.53949 9.04171
O 14.2288 0.786192 7.39136
O 2.30785 5.41299 10.2115
O 4.10445 3.78195 10.1312
O 6.72325 1.14959 9.15104
O 0.383437 6.87725 9.45667
O 6.16937 2.74432 11.3257
Si 5.59984 4.67937 5.50057
Si 6.11202 0.862468 6.19121
Si 5.63559 7.72587 8.77084
Si 9.01217 4.67608 9.65852
Si 7.72577 2.01751 8.22026
Si 8.43248 7.0915 7.61913
O 4.78642 5.54055 11.5473
O 11.5425 17.4798 12.2828
O 8.29106 3.4249 8.82408
O 9.02258 8.42645 7.90048
O 6.47339 2.27723 6.99433
O 8.70242 6.1086 9.0373
O 9.99512 4.04304 5.13051
O 8.86909 6.6378 6.09857
O 6.06284 9.59558 4.40999
O 10.654 5.17452 10.0349
O 8.29528 9.16574 10.3741
O 8.27213 4.09094 10.9812
Si 12.4554 4.49545 3.30443
Si 13.2675 0.237493 3.33963
Si 9.02744 9.73655 8.98013
Si 1.14291 2.05257 11.7286
Si 10.4884 1.10577 6.59412
Si 0.675109 5.58221 6.65157
O 10.6596 9.91667 9.6477
O 13.2723 16.7182 9.83015
O 11.7485 2.01771 7.24121
O 0.989175 4.74158 7.87781
O 10.966 17.7136 6.83754
O 13.9575 3.16787 8.52664
O 9.04458 1.20191 7.61806
O 14.387 11.725 8.94423
O 14.6413 5.83581 6.91808
O 13.7131 16.2799 7.37293
O 8.86994 11.0267 7.91915
O 15.2067 2.0881 11.9816
Si 14.3978 13.253 8.68922
Si 1.88848 10.1662 3.84333
Si 14.5455 12.6178 12.4901
Si 3.91557 14.4656 10.782
Si 1.08227 8.34756 9.02371
Si 0.823904 16.948 8.38882
O 6.71876 15.7354 14.8437
O 2.57081 8.95411 9.4576
O 3.50468 10.7082 7.40372
O 1.62349 15.0189 8.21509
O 3.80344 8.46168 5.62359
O 2.35429 15.7539 5.46494
O -0.118624 13.3929 9.60786
O 2.15033 17.93 8.35835
O 0.157804 13.8631 13.0153
O 2.33979 14.4265 10.6726
O 0.14496 17.3545 7.12376
O 3.95918 10.5678 12.9878
Si 3.12945 14.4793 5.20764
Si 6.17782 11.1901 4.38542
Si 6.04392 15.1211 8.95725
Si 9.80437 12.666 7.43385
Si 3.46483 11.7563 6.08382
Si 7.02034 16.2175 6.57817
O 4.85568 14.0544 9.46428
O 7.31615 8.427 12.8236
O 9.92563 10.4476 5.85687
O 9.86894 1.5758 5.23385
O 5.08413 11.6186 5.53408
O 7.35947 15.6087 5.14542
O 2.96577 13.347 6.38519
O 6.11976 17.4993 6.57693
O 6.24051 15.0744 7.39727
O 9.77914 13.2644 8.93898
O 5.54917 16.7496 9.52227
O 9.10526 13.5527 6.28169
Si 8.73595 14.6142 5.00515
Si 2.17132 8.31452 6.15018
Si 10.3053 16.2455 7.05389
Si 14.3998 10.5746 10.0101
Si 11.3085 11.4387 5.33012
Si 12.8529 15.5287 8.61266
O 8.57899 16.7078 7.36334
O 13.1879 9.3961 10.0569
O 1.4401 8.91806 4.77925
O 13.0945 14.2001 9.38556
O 12.8112 10.9918 5.07123
O 2.06965 0.28473 4.62566
O 10.0507 15.7069 5.54757
O 13.7634 17.8537 4.86681
O 11.2856 15.6059 8.30642
O 15.4024 9.05683 9.77071
O 11.3857 1.09327 15.1043
O 14.5844 11.3287 11.4353
Si 13.9553 4.31021 9.73446
Si 6.04389 0.671011 16.1436
Si 2.81997 6.8378 16.712
Si 3.94645 2.27107 2.06658
Si 3.71658 2.43032 16.4978
Si 4.65956 5.01142 15.8379
O 1.21884 6.09397 16.1983
O 5.05796 17.8441 15.4858
O 3.11233 1.82051 0.73003
O 5.54276 5.87925 16.9544
O 1.80494 3.39436 12.7478
O 4.21101 3.0209 13.0767
O 0.244407 17.3561 13.7407
O 5.11692 9.22936 8.45345
O 3.65413 6.24066 15.4063
O 6.64188 16.0557 12.1905
O 2.68153 8.50187 16.797
O 3.84699 3.91478 2.14027
Si 4.63824 3.52086 11.5235
Si 5.55404 16.8097 11.251
Si 6.76891 6.77041 16.4821
Si 12.9044 1.68364 14.7041
Si 6.96377 2.97142 15.1027
Si 7.51273 7.03513 13.6673
O 7.88782 5.9077 17.3228
O 9.74755 18.0113 0.9307
O 7.1493 1.29367 15.1713
O 8.95495 6.90343 14.4231
O 7.75512 3.54069 13.7243
O 7.01402 5.83938 12.7067
O 5.20234 1.8326 16.6414
O 6.00891 7.78383 10.5119
O 6.42129 6.77359 15.0156
O 12.8333 2.32751 13.2709
O 5.43383 4.95511 3.94955
O 7.75257 3.25552 16.6498
Si 8.18842 4.74303 12.5861
Si 12.8285 17.6029 11.2758
Si 9.99882 5.64984 14.3495
Si 14.2203 17.2675 13.8992
Si 13.4668 1.97364 11.7843
Si 11.598 6.19484 10.0456
O 9.47796 4.7356 15.5651
O 0.464594 1.55186 15.0843
O 0.771492 17.6529 16.5854
O 3.50979 4.02395 16.4315
O 13.7772 15.6991 13.98
O 13.0718 5.71811 9.31454
O 9.75235 4.96953 12.8469
O 11.491 7.68875 10.7522
O 13.2604 3.5805 11.2587
O 13.5122 0.18045 14.8132
O 11.3088 6.3165 14.5313
O 13.9985 17.7154 12.3165
Si 1.64199 13.3128 13.4293
Si 3.79063 10.1489 8.82233
Si 2.50178 15.8535 14.685
Si 4.69162 11.2246 11.701
Si 2.54339 11.0939 13.5785
Si 2.74592 2.37134 13.4906
O 1.7311 15.4463 16.2453
O 1.86595 9.91882 14.4637
O 5.83306 10.0565 11.5365
O 2.06516 0.999038 12.5328
O 1.59639 11.8317 12.5416
O 5.64914 3.91488 15.2898
O 2.64486 12.4656 14.6555
O 4.12452 15.9495 11.6422
O 2.0473 14.9676 13.6377
O 9.36293 13.6736 11.4518
O 3.24674 1.82568 14.9683
O 4.4711 13.0585 11.4545
Si 1.0207 14.5867 9.5656
Si 6.95311 8.83582 11.2757
Si 7.46596 15.4502 13.4332
Si 8.49158 11.1746 14.875
Si 8.61126 13.4988 9.94914
Si 10.5536 16.5967 13.2727
O 3.12569 14.9567 1.18838
O 11.2844 15.2485 13.3868
O 7.42194 13.9235 13.0512
O 8.55152 12.5654 15.7443
O 7.53684 12.222 10.6538
O 7.45294 14.6969 9.68973
O 3.80824 10.9531 10.2911
O 12.7115 0.973713 10.8482
O 8.99223 16.2311 13.2887
O 9.70744 10.0619 14.7189
O 7.91109 16.3036 1.54234
O 7.30054 10.2552 15.4779
Si 12.7344 14.5222 13.5557
Si 11.7417 9.3457 10.9497
Si 10.9763 18.0985 16.129
Si 14.5604 10.2085 17.007
Si 11.3139 9.94151 14.2235
Si 13.2301 12.0165 14.9816
O 10.696 17.2513 14.8693
O 13.3989 9.38601 0.28223
O 12.3363 8.7539 14.5955
O 2.47519 17.5415 14.8551
O 11.3302 9.80963 12.3261
O 14.4254 11.7929 13.9202
O 11.878 11.3989 14.6408
O 13.3563 13.7101 12.253
O 12.5512 13.6271 14.9876
O -0.0867607 9.37863 16.1577
O 11.9485 17.646 0.00821817
O 13.4601 11.3263 16.3802
324
 Atoms. Timestep: 11500
Si 0.677538 5.28989 0.0243622
Si 5.40794 16.0929 15.4663
Si 3.98471 8.71018 4.38743
Si 3.81164 2.22811 6.71836
Si 2.00607 1.92033 4.11141
Si 4.38016 5.80255 4.33941
O 4.7138 5.85654 5.88456
O 4.5544 1.20899 9.45647
O 2.62609 2.61551 5.44193
O 6.11751 8.0535 16.9586
O 3.44321 1.56489 3.01648
O 3.16833 5.55136 3.3002
O 1.68846 4.82919 1.31597
O 3.59027 6.75209 1.01089
O 4.76274 7.42569 3.94481
O 4.73077 0.969208 6.53464
O 3.11065 9.62847 3.43988
O 4.9438 3.45772 6.70836
Si 3.23034 5.29061 1.77391
Si 8.23713 17.8668 1.14068
Si 8.59214 5.22436 5.54874
Si 10.4564 2.91147 4.73754
Si 6.37928 1.25339 3.00683
Si 9.28233 4.79142 2.88553
O 7.21611 4.42099 5.97609
O 6.86653 1.89753 4.57964
O 9.34191 3.29973 3.58509
O 12.3297 4.2507 1.4597
O 7.60662 18.0755 16.9246
O 8.85993 4.78258 1.25713
O 5.57262 2.18511 1.91383
O 8.51897 8.96083 0.5488
O 8.68546 5.74317 4.04476
O 11.8341 2.96205 3.86336
O 5.62379 11.6788 3.01145
O 10.8045 5.44736 3.14299
Si 9.05285 5.37222 16.8882
Si 0.990455 -0.127199 15.1905
Si 14.2607 4.50236 5.30581
Si 15.5869 1.56341 2.14931
Si 15.487 2.5342 16.523
Si 13.3203 5.7363 0.596657
O 13.7631 4.9873 3.83108
O 14.4541 1.05842 3.10853
O 15.0108 2.36605 0.872536
O 12.7336 6.81829 1.60159
O 14.0318 2.82815 15.6579
O 0.658129 3.8673 16.5674
O 14.9014 5.30066 0.708802
O 13.2479 6.38488 16.2001
O 0.0399484 3.91908 5.57682
O 0.902673 2.44577 2.74261
O 0.835398 6.64533 5.75885
O 13.1721 3.3833 6.10483
Si 1.71184 16.057 17.0968
Si 1.73233 9.9353 16.0433
Si 1.70943 16.9706 4.41632
Si 2.86184 13.4242 1.80448
Si 0.905827 11.3521 1.35451
Si 4.44303 15.7436 0.824605
O 15.3258 14.4329 7.28705
O 2.16916 11.0909 5.26164
O 1.05577 11.2453 2.96896
O 2.77167 17.1547 3.21202
O 1.99898 10.618 0.308488
O 4.10698 15.6256 14.705
O 1.42974 12.8814 1.44243
O 5.57645 15.4352 16.9939
O 3.48858 17.1238 0.388487
O 4.29736 12.4578 1.11898
O 2.46686 2.30973 7.76952
O 2.95965 13.6655 3.39291
Si 8.2706 12.6631 12.6826
Si 6.91977 9.4956 17.0826
Si 4.41074 16.9787 3.37548
Si 9.11797 10.7812 4.34786
Si 5.70506 11.6608 1.33683
Si 9.2794 15.2791 1.99834
O 4.22041 15.7149 4.56486
O 7.56111 10.9023 5.00135
O 7.11852 12.1986 0.572888
O 9.09823 14.5434 3.53775
O 5.71111 10.0688 0.726665
O 9.48855 14.0695 0.667155
O 8.4284 11.2836 13.4749
O 7.60733 0.34666 2.6111
O 5.057 15.9023 2.24839
O 8.93219 9.98155 2.91679
O 5.2524 0.000564209 3.13413
O 10.2359 11.9348 4.17764
Si 8.8894 12.4407 0.32244
Si 12.2273 7.37545 15.6161
Si 11.1384 17.7175 1.75482
Si 12.2464 8.44299 0.978294
Si 9.64976 9.81812 1.4249
Si -0.0671833 16.7392 2.24852
O 11.2272 11.8967 7.05273
O 0.770276 9.11288 7.08298
O 11.2635 9.59415 1.6765
O 0.244853 16.4932 3.7258
O 11.2756 8.12126 16.8993
O 0.496208 15.6742 1.03646
O 9.85751 11.2954 0.862321
O 0.379916 0.118789 1.56433
O 10.8516 16.1982 2.23867
O 15.0384 11.4706 0.850948
O 11.9835 0.363967 2.99798
O 14.0585 17.0063 2.22897
Si 13.1735 2.4273 7.36561
Si 2.92426 1.50599 8.96376
Si 0.668528 5.99346 9.38682
Si 5.93939 1.17215 10.8484
Si 14.3664 17.5947 6.73963
Si 3.84749 5.39521 10.015
O 15.3653 4.9311 10.0757
O 5.55558 -0.0572588 11.9179
O 1.73283 1.70702 10.0921
O 6.77988 7.28695 7.6728
O 0.746133 16.1653 9.86296
O 4.66568 6.48492 9.09452
O 14.1324 1.02145 7.10482
O 2.19072 6.0175 10.0363
O 3.62072 3.70441 9.57916
O 7.01407 0.737852 9.59663
O 0.271809 7.63206 9.51515
O 5.84255 2.64348 11.5025
Si 5.65838 4.41191 5.6611
Si 6.17457 0.966187 5.76106
Si 5.63707 7.79805 8.66855
Si 8.96184 4.63245 9.51116
Si 7.7664 1.71928 8.48325
Si 8.27816 6.89057 7.9857
O 4.92578 5.1953 11.429
O 11.0383 17.6888 12.7481
O 8.13065 3.46552 8.69855
O 9.31136 8.15489 8.49014
O 6.9276 1.47376 7.0712
O 7.95539 5.9406 9.32501
O 9.77635 4.05583 5.89175
O 8.79469 6.55692 6.48788
O 5.25982 9.6081 5.04593
O 10.3696 5.20461 8.9626
O 8.16131 9.74582 10.2354
O 9.46052 4.07433 10.9562
Si 12.2 4.55282 3.08121
Si 13.3937 17.8852 3.48918
Si 9.18128 9.5782 8.93199
Si 0.877835 1.87991 11.5742
Si 10.5446 1.16418 7.16796
Si 0.223409 5.37726 6.40455
O 10.9461 9.77731 9.40797
O 11.3869 16.8392 10.3597
O 11.8847 1.77227 7.94617
O 0.950794 5.30167 7.88809
O 10.7695 17.7531 6.80781
O 14.0602 3.17691 8.63091
O 9.33656 1.40391 8.42342
O 13.7716 12.2047 9.08277
O 14.4351 5.84699 6.30169
O 13.0694 16.9198 7.80279
O 8.85975 10.7877 7.8736
O 14.9498 1.44859 11.4956
Si 14.6265 13.6757 8.65918
Si 1.66955 10.2252 3.93359
Si 14.5774 12.4799 12.7172
Si 4.1832 14.3355 10.8656
Si 0.900367 9.00891 8.70407
Si 1.18007 16.9402 8.39147
O 7.0814 15.6587 15.0949
O 2.51852 9.40024 9.11062
O 3.35884 11.0479 7.33374
O 2.05361 15.3312 8.24303
O 2.92977 8.24902 5.80713
O 1.70583 15.3726 5.15311
O 0.112124 13.7343 9.71953
O 2.12118 18.0498 7.9128
O 15.6116 13.7114 13.0304
O 2.54886 14.3938 10.7983
O 15.6101 16.8368 7.36433
O 3.9005 10.7669 12.8374
Si 3.0543 14.4577 4.8998
Si 5.93694 11.1317 4.66235
Si 6.31684 15.2905 9.13822
Si 9.62173 12.432 7.54947
Si 3.56115 11.805 5.8996
Si 7.10023 16.1011 6.23234
O 5.07172 14.3217 9.66093
O 7.21136 8.30276 12.4363
O 10.0485 9.8411 5.2952
O 10.1452 1.57909 5.74983
O 5.10568 12.1858 5.72413
O 7.52916 14.663 5.48116
O 2.97376 13.4683 6.11562
O 6.3178 17.5152 5.54293
O 6.11311 15.7209 7.56921
O 9.56481 12.8907 9.19988
O 5.92233 16.6722 9.92979
O 8.91993 12.9453 6.2539
Si 9.10481 14.1973 5.10136
Si 1.20275 8.23909 5.78528
Si 9.90339 16.2885 6.99303
Si 14.3859 10.9599 9.92693
Si 11.368 11.3147 5.27354
Si 12.2128 16.0289 8.85825
O 8.36343 16.4475 7.39526
O 13.4571 9.50509 10.2191
O 0.573571 9.12424 4.57395
O 13.1957 14.8661 9.4358
O 12.8684 11.391 5.32143
O 1.66629 0.348343 4.84231
O 10.3377 15.1572 5.83263
O 13.8846 17.4697 5.13589
O 10.6029 15.7005 8.17708
O 15.5795 10.0012 9.36218
O 11.8893 1.43829 15.8523
O 14.8786 11.6064 11.3091
Si 13.9052 4.05938 9.97569
Si 6.4726 0.770713 16.0394
Si 3.00248 7.06731 16.6828
Si 3.96541 2.31718 1.71832
Si 3.61387 2.27261 16.2412
Si 4.86642 5.01665 15.723
O 1.35002 6.62413 16.8303
O 5.44523 17.8832 15.4702
O 2.9871 1.8331 0.450027
O 6.01309 5.59531 16.7214
O 0.996045 3.26101 12.8035
O 3.94331 2.95725 12.9363
O 15.635 17.4356 14.2045
O 5.12395 9.38742 8.04681
O 4.04835 6.48887 15.5342
O 7.23704 15.8593 12.3366
O 2.84806 8.6822 16.0023
O 4.17212 3.92927 1.37852
Si 4.6019 3.57959 11.6071
Si 5.93683 16.6045 11.5161
Si 6.95352 6.88081 16.1837
Si 13.1119 1.9244 14.9505
Si 7.37418 3.25563 14.8169
Si 7.77293 6.93196 13.2642
O 8.3495 6.76075 16.7427
O 9.77903 0.378012 1.23927
O 7.57626 1.82524 15.4614
O 9.27463 6.79063 13.8065
O 8.40029 3.29402 13.5253
O 7.57044 5.56446 12.472
O 5.22745 1.86091 16.3406
O 5.98966 8.09184 10.2238
O 6.63843 6.9459 14.5767
O 12.9936 1.94351 13.3468
O 5.30873 4.36209 4.11899
O 8.24028 4.14077 16.0067
Si 8.74568 4.47193 12.5353
Si 12.0872 17.6644 11.6019
Si 10.4099 5.82146 14.1933
Si 13.8912 16.8772 14.0047
Si 13.2159 1.93919 11.7418
Si 11.5259 6.07967 9.65812
O 10.2725 5.69729 15.9619
O 0.568338 1.47762 15.7345
O 1.17465 17.4451 16.5651
O 3.65535 3.94193 15.9324
O 13.7912 15.4129 14.3849
O 12.8879 5.32854 9.50333
O 10.3034 4.78127 12.8856
O 11.3369 7.46097 10.1807
O 13.1452 3.61217 11.5146
O 13.4572 0.0298016 15.0348
O 11.8316 6.47502 14.0402
O 13.6097 17.2076 12.418
Si 1.5479 13.7375 12.9527
Si 3.88978 10.4804 8.77865
Si 2.46803 16.0046 14.3445
Si 4.58717 11.4276 11.5972
Si 2.56758 11.6282 13.4336
Si 2.62423 2.32562 13.3364
O 1.69336 15.2689 15.522
O 2.19519 10.9259 14.8395
O 5.73146 10.1269 11.6147
O 1.94316 1.06371 12.486
O 1.73932 12.02 12.0962
O 5.91438 4.03149 14.5097
O 2.69393 13.335 14.0136
O 4.82351 15.4754 11.7554
O 1.88329 15.4139 12.7325
O 9.46128 13.4087 11.7236
O 2.93584 1.85031 14.8649
O 4.22848 12.929 11.8591
Si 1.34741 14.781 9.60532
Si 6.85923 9.06236 11.0753
Si 7.84144 15.2878 13.7653
Si 8.82826 10.7167 14.9836
Si 8.57695 13.5598 10.358
Si 10.7212 16.557 13.8213
O 3.12061 14.7123 0.640529
O 11.3013 15.0696 13.669
O 7.39652 13.6305 13.6048
O 9.18414 12.2618 15.8719
O 7.40229 12.7346 11.1832
O 7.82475 15.0613 9.78629
O 4.25234 11.4355 9.91607
O 12.0704 1.05771 11.048
O 9.31535 15.9787 13.5957
O 9.92745 9.66575 14.4263
O 7.98925 16.2765 1.41909
O 7.45765 9.74182 15.5255
Si 12.7206 14.14 14.2127
Si 11.85 9.10189 10.4096
Si 11.9562 18.0633 16.2635
Si 14.4389 10.1822 17.186
Si 11.3253 9.63747 13.668
Si 13.2343 11.5538 14.9433
O 10.9277 17.1367 15.5394
O 13.6991 8.98937 0.606692
O 12.4546 8.81051 14.5918
O 2.53389 17.5481 14.5293
O 11.2491 9.20689 11.9145
O 14.5761 11.269 13.9175
O 11.8053 11.1897 14.2487
O 13.0105 13.4159 12.5712
O 12.994 13.0582 15.2484
O 0.131625 9.93433 15.9446
O 12.3503 17.7712 0.627493
O 13.3153 11.097 16.4272
324
 Atoms. Timestep: 12000
Si 0.610634 5.13782 0.104743
Si 5.58442 16.1463 15.2515
Si 4.07246 8.64454 4.21107
Si 3.62434 2.24718 6.42959
Si 1.60844 1.91954 4.03993
Si 4.60967 5.93391 4.21085
O 4.52349 5.77398 5.68539
O 3.86573 1.58153 9.96697
O 2.84943 2.70359 5.06133
O 6.30959 8.08644 16.9688
O 2.43931 2.41131 2.63134
O 3.10429 5.63687 3.46142
O 1.63212 5.03495 1.4917
O 3.10126 6.74187 0.575943
O 5.25846 7.50185 3.60013
O 4.67796 1.11969 6.54453
O 3.26052 9.76629 3.04145
O 4.92664 3.26348 6.38813
Si 3.11317 5.41277 1.80793
Si 8.24582 17.7569 1.44065
Si 8.48066 5.54459 5.33921
Si 10.0322 2.87329 4.54938
Si 6.10652 1.12762 3.19565
Si 9.24354 4.80928 2.80728
O 7.25299 4.59461 6.18826
O 6.55561 1.9142 4.65235
O 9.04388 3.26166 3.30644
O 12.7644 4.65863 1.13457
O 7.63203 0.316921 0.0898302
O 8.89894 4.72124 1.19076
O 5.30988 1.83217 2.02839
O 8.21558 9.2037 0.934334
O 8.56291 5.99138 3.74682
O 11.3866 2.78678 3.312
O 6.6271 10.9419 3.2151
O 10.939 5.40692 3.19107
Si 8.79181 4.92623 16.7373
Si 0.892964 17.9737 15.0544
Si 13.8334 4.41305 5.27586
Si 15.0237 1.22588 2.40491
Si 15.377 2.46543 16.665
Si 13.5254 5.9495 0.722636
O 13.1768 4.75736 3.84111
O 13.4931 0.657195 2.7429
O 15.2843 2.09841 1.04195
O 12.9264 7.26288 1.48761
O 13.7274 2.57893 16.1693
O 0.61759 3.67514 16.4402
O 15.0724 5.69779 1.08633
O 13.52 6.0759 16.2731
O 15.483 4.28115 5.27369
O -0.0144885 2.22658 3.37586
O 0.520649 6.86046 5.1146
O 12.7836 3.14714 6.03411
Si 1.34599 16.2286 16.8082
Si 1.64895 9.30746 16.3649
Si 2.11443 16.8314 4.23643
Si 3.28283 13.5376 2.21734
Si 1.21095 11.46 1.16097
Si 3.91245 16.3028 0.804028
O 14.8486 14.1697 7.22017
O 2.70683 11.2372 5.22196
O 0.994273 11.3209 2.96177
O 3.00616 16.762 2.76256
O 1.98813 10.1877 0.508599
O 4.42433 16.2938 14.1441
O 2.30004 12.5742 1.29767
O 5.11253 15.8726 16.9342
O 2.67362 17.1341 0.496911
O 4.88216 12.8672 2.22517
O 2.71095 2.45886 7.64074
O 3.01037 14.0048 3.91566
Si 8.82447 12.9544 12.2403
Si 7.04915 9.58125 16.9164
Si 4.6841 16.7915 3.26049
Si 8.81228 9.95498 5.1771
Si 6.14614 11.771 1.78901
Si 9.38156 15.0172 1.79353
O 4.89571 15.4414 4.30721
O 7.28458 10.0758 5.91978
O 7.36011 12.5289 0.957201
O 9.19443 14.0753 3.24522
O 6.12234 10.6611 0.601787
O 9.6094 13.9511 0.36126
O 8.6831 11.8494 13.4194
O 7.65119 0.504213 2.77931
O 5.2537 16.7749 1.75737
O 8.87479 9.47575 3.66999
O 4.99267 -0.0370095 4.11845
O 9.06714 11.5148 4.9081
Si 8.98377 12.411 0.608986
Si 12.7948 7.35733 15.3145
Si 11.1242 17.1808 1.82368
Si 12.0813 8.55655 0.96182
Si 9.33745 9.77651 1.99816
Si 0.0992593 16.3158 2.23379
O 10.8023 12.363 6.59489
O 0.602815 8.98608 6.98741
O 10.6681 8.85505 1.66277
O 0.635071 15.901 3.83391
O 11.9275 8.19278 16.462
O 0.600652 15.5489 0.951848
O 9.72643 11.3422 1.80601
O 0.383193 18.0176 1.84555
O 10.8992 15.4652 1.73242
O 15.446 11.2766 0.506091
O 11.4064 17.1333 3.37051
O 14.0632 16.1296 2.49898
Si 13.3458 2.37171 7.39531
Si 2.56731 1.73403 8.87358
Si 0.463924 6.51038 9.19276
Si 5.35218 1.39495 10.7063
Si 14.3978 17.6266 6.84381
Si 3.61572 5.96159 10.0628
O 15.3979 5.3328 9.88618
O 5.58092 -0.0438502 11.6773
O 1.42356 1.95806 9.9397
O 6.56907 8.1417 7.90908
O 0.964899 16.8071 9.70631
O 4.72453 6.60971 9.06031
O 14.4484 1.07335 6.97831
O 2.06022 6.5709 9.73524
O 3.46587 4.39412 9.90458
O 6.5735 1.18386 9.70726
O -0.0141258 8.05739 9.33855
O 5.63116 2.89423 11.3268
Si 5.67867 4.51534 5.74552
Si 6.16029 0.744746 5.9499
Si 5.42785 8.19484 8.95678
Si 9.11913 4.42539 9.17329
Si 7.74485 1.63341 8.61482
Si 7.87698 7.11304 8.02392
O 4.11768 5.61669 11.722
O 10.9081 17.408 12.7247
O 8.60714 3.27657 8.2257
O 8.93675 8.26898 8.91542
O 7.01307 1.22196 7.24167
O 7.89852 5.64638 8.91047
O 9.59992 4.31715 5.64624
O 8.2016 7.02273 6.3449
O 5.12049 9.66786 5.05787
O 10.4331 5.42361 8.82571
O 7.56382 10.0232 10.179
O 9.30039 3.96043 10.7983
Si 11.925 4.23401 2.72919
Si 13.3194 17.1965 3.41136
Si 8.76465 9.81628 9.12879
Si 0.84521 1.8044 11.5022
Si 10.6363 1.11425 6.9289
Si -0.0293324 5.7032 6.1598
O 10.3872 10.1935 9.88691
O 11.7426 16.781 10.4452
O 11.925 1.44713 7.80795
O 0.839583 6.02222 7.69916
O 10.6523 17.5325 6.21125
O 14.0907 3.17457 8.61798
O 9.35597 1.14272 8.26631
O 13.6119 12.4102 9.37519
O 14.0677 6.04028 6.15116
O 13.9499 17.0816 8.25833
O 8.40103 10.9839 7.98847
O 15.076 1.11734 11.6045
Si 14.5153 13.8591 8.79407
Si 2.0587 10.5446 3.99552
Si 14.7361 12.9258 12.5486
Si 4.17392 14.2109 10.531
Si 0.380523 9.412 8.54748
Si 1.32135 16.8523 8.17585
O 6.77565 15.0022 15.0605
O 1.63538 10.4758 8.92046
O 3.67763 11.447 7.69211
O 2.14853 15.2369 8.25908
O 3.01171 8.00315 5.3049
O 2.71837 15.9783 5.50311
O 0.0887131 13.83 9.79294
O 1.95484 0.18379 8.19423
O 0.155821 13.9487 13.1229
O 2.56955 13.9922 10.3499
O 0.267866 17.1804 6.91738
O 3.85731 10.6809 13.5366
Si 3.76642 14.7703 5.06887
Si 6.21871 10.8824 4.78622
Si 6.57864 14.8999 9.01955
Si 9.20039 12.2499 7.38188
Si 3.92764 11.9576 6.26086
Si 7.51042 16.0312 6.53201
O 5.02176 14.3126 8.99571
O 7.89572 8.628 12.6086
O 10.2669 9.3715 5.81387
O 10.0537 1.77537 5.66685
O 5.39606 12.0728 5.41489
O 7.86699 15.2924 5.10171
O 3.75884 13.6551 6.32071
O 6.75923 17.4021 5.73834
O 6.2197 15.5609 7.42306
O 9.94577 12.6516 8.89424
O 6.79233 16.1896 10.0352
O 8.18624 13.0389 6.39362
Si 9.02597 14.0781 5.03193
Si 1.42571 8.23774 5.62437
Si 10.4449 16.1071 6.85284
Si 14.1467 11.1226 10.1101
Si 10.856 10.8387 5.37263
Si 12.7686 16.1614 9.12733
O 8.93072 15.8685 7.21936
O 12.8912 10.07 10.7478
O 1.17878 9.37231 4.63915
O 13.2824 14.7846 9.49799
O 11.7856 11.0356 4.21893
O 1.96686 0.319778 4.26492
O 10.4412 14.9689 5.62272
O 13.8004 17.2354 5.11069
O 11.5669 15.9512 8.04318
O 14.7224 10.1321 8.99979
O 11.667 1.69053 15.7503
O 14.7247 11.7024 11.4316
Si 14.1983 4.34991 9.78714
Si 6.56952 0.893844 16.1954
Si 2.80424 6.61657 16.1849
Si 3.61213 2.6643 1.70063
Si 3.74764 2.42945 16.0629
Si 5.02779 5.13094 15.2448
O 1.35006 6.01872 15.9808
O 6.14627 17.7244 15.4498
O 2.87992 2.43296 0.334481
O 5.83006 5.70092 16.481
O 0.793266 2.89068 12.6679
O 3.65194 3.6162 12.8274
O 0.0876987 17.3962 13.8225
O 3.89346 8.95949 8.52573
O 3.90288 6.37068 15.0013
O 6.75815 16.3301 12.7717
O 2.62109 8.21613 15.9685
O 4.18505 4.15331 1.79857
Si 4.2383 4.05876 11.3918
Si 5.9574 16.541 11.3648
Si 6.92691 6.85988 16.2063
Si 12.9297 1.97298 14.7722
Si 7.28583 3.31665 14.3195
Si 8.35851 7.2059 13.435
O 8.40399 6.6189 16.692
O 9.76127 0.0761796 1.7273
O 7.06841 1.90703 14.9011
O 9.6833 7.18994 14.329
O 8.04419 3.28077 12.8843
O 8.57348 6.00287 12.3263
O 5.30033 1.7753 16.4425
O 5.90119 8.14669 10.5942
O 7.11848 6.8209 14.5261
O 13.9106 2.4633 13.5907
O 5.75195 4.75648 4.0683
O 7.98427 4.12657 15.6559
Si 8.96229 4.40575 12.3499
Si 12.2294 17.6099 11.7331
Si 10.7436 5.52305 14.4647
Si 14.1461 16.7777 14.143
Si 13.704 2.08787 12.0501
Si 11.6742 6.21445 9.23541
O 10.348 4.92132 16.1553
O 0.699068 1.38116 15.7494
O 0.145053 16.8527 16.161
O 3.86681 3.96159 15.6488
O 14.0069 15.5612 14.9551
O 13.0339 5.49988 9.27624
O 10.2312 4.38788 13.4481
O 11.7888 7.64919 9.78214
O 13.9568 3.45697 11.0705
O 13.494 17.9097 15.3347
O 12.1258 6.08023 14.3644
O 13.467 16.9303 12.6511
Si 1.60839 13.3641 13.6236
Si 3.23595 10.3786 8.90197
Si 2.83215 15.7738 14.515
Si 4.53535 10.9159 11.8341
Si 2.44944 11.2647 13.9022
Si 2.54292 2.33252 13.2521
O 2.05668 15.0482 15.8198
O 1.88524 10.0985 14.8288
O 5.83185 10.1351 12.2582
O 2.4627 1.28872 11.9893
O 1.40215 11.7891 12.7308
O 5.89002 4.50453 14.0234
O 2.53865 12.64 14.7216
O 4.70224 15.5487 11.1704
O 2.51857 14.8003 13.3993
O 9.8529 13.7693 11.2261
O 3.0996 1.61484 14.708
O 4.33834 12.817 11.6906
Si 1.30093 14.8686 9.65001
Si 6.94572 9.05657 11.4072
Si 7.73683 15.391 13.6288
Si 8.88833 10.9956 14.8178
Si 8.89556 13.2647 9.87488
Si 10.6189 16.6487 14.1608
O 3.4571 14.7264 1.15257
O 11.3513 15.1815 13.8581
O 8.03068 13.967 13.1008
O 9.03534 11.7287 16.328
O 7.86288 12.4197 10.9865
O 7.68928 13.8983 8.94534
O 3.8406 10.6265 10.3852
O 12.2781 1.25438 11.9293
O 8.94872 16.3475 14.1117
O 10.2604 10.0503 14.8114
O 8.24492 16.1348 1.76347
O 7.52555 9.93204 15.4424
Si 12.7269 14.4709 14.2312
Si 11.4892 9.33318 10.4803
Si 12.0627 0.0583588 16.3272
Si 14.4464 10.2004 -0.0353701
Si 11.3981 9.62631 13.6858
Si 13.3194 11.5947 14.7522
O 11.0587 17.0948 15.8138
O 13.293 9.75978 1.11746
O 13.0006 8.59716 14.1444
O 2.42386 17.3844 14.8212
O 11.1751 8.80422 12.1543
O 14.6467 12.0275 13.8995
O 12.1438 11.0657 13.6998
O 13.3198 13.9234 12.5978
O 12.9482 13.2967 15.3121
O 15.4244 8.9562 16.4286
O 12.1852 17.5567 0.626569
O 13.1392 10.641 16.1409
324
 Atoms. Timestep: 12500
Si 0.764465 4.82622 0.299344
Si 5.61268 16.0379 15.1769
Si 3.83639 8.84687 4.32789
Si 3.71028 2.7149 6.25459
Si 1.89718 1.38102 4.55422
Si 4.41723 6.29188 3.72376
O 4.74346 6.50489 5.32373
O 4.7292 1.23431 8.93061
O 2.54651 2.58351 5.24553
O 6.17187 8.47695 16.5836
O 2.80334 1.04854 3.06227
O 3.03788 6.155 2.85934
O 1.73163 4.48593 1.50565
O 3.75714 6.11807 0.310116
O 4.55809 7.87209 3.35523
O 4.71988 1.54837 6.33964
O 3.26682 9.93489 3.43342
O 4.48888 4.07853 6.04094
Si 3.37299 5.08664 1.65206
Si 8.16074 17.7833 1.53539
Si 8.36113 5.54673 5.17874
Si 9.94651 3.60799 4.66375
Si 6.24866 0.952082 3.5499
Si 8.99456 4.56447 2.58299
O 6.98708 4.87519 5.71295
O 6.76221 1.86062 4.90437
O 8.89181 3.23865 3.36399
O 12.8107 4.51635 1.36536
O 7.88759 0.267597 -0.0158582
O 8.20297 4.41369 1.15957
O 5.14903 1.41758 2.42081
O 8.39279 9.20256 0.462172
O 8.31694 5.77923 3.36533
O 11.4038 3.20089 3.76906
O 6.24413 10.7335 3.41534
O 10.3607 5.30684 2.37863
Si 8.46225 4.99779 16.7568
Si 0.592225 17.7829 15.1725
Si 13.6414 4.8289 5.11074
Si 15.1966 1.02219 2.75976
Si 15.1959 2.27187 17.0808
Si 13.6629 5.76795 1.03987
O 12.7763 5.36429 3.85125
O 13.9951 0.548081 3.72406
O 0.134053 1.54351 1.30066
O 12.9993 7.15031 1.62144
O 13.6057 2.1922 16.4794
O 0.0998807 3.84999 16.4606
O 15.2263 5.49197 1.25779
O 13.7591 6.27493 16.5978
O 15.3272 4.44988 5.03709
O 0.467754 1.80529 3.77241
O 0.0648236 7.34665 5.18487
O 12.9886 3.59116 5.95704
Si 1.4212 15.9188 0.253038
Si 1.48805 9.49014 16.2726
Si 2.196 16.5424 4.58105
Si 3.66172 13.3774 1.96951
Si 1.33557 11.8517 1.09021
Si 4.16762 16.075 0.840921
O 13.8217 14.8506 7.42664
O 2.8221 11.4429 5.66173
O 1.50689 11.8997 2.87294
O 3.28673 16.716 3.40043
O 1.9354 10.7899 -0.00362882
O 4.14072 16.101 14.6546
O 2.43274 12.9647 0.897653
O 5.08288 16.3808 16.6524
O 2.66814 16.7834 0.811501
O 4.93061 12.259 2.06614
O 2.84488 2.45883 7.77508
O 3.16722 13.8229 3.4747
Si 9.13212 13.0103 12.5232
Si 7.03479 9.85727 16.8731
Si 4.93542 16.4054 3.58739
Si 9.21929 9.18657 4.32545
Si 6.33478 11.3836 1.86241
Si 9.42792 15.0714 1.95369
O 5.3987 15.1053 4.28608
O 7.77731 9.22223 5.08641
O 7.55632 12.2494 1.26969
O 9.14966 14.4311 3.42364
O 5.87387 10.3085 0.865859
O 9.30196 13.9625 0.792923
O 9.41514 12.069 13.7538
O 7.65078 0.713599 2.74222
O 5.36476 16.5922 2.06192
O 9.36257 8.37718 2.75338
O 5.78926 17.5346 4.24798
O 9.25497 10.8255 4.34519
Si 9.10952 12.3841 0.928625
Si 12.6748 7.11397 15.6831
Si 11.0474 17.4625 1.83596
Si 12.3491 8.44122 0.869017
Si 9.47882 9.36067 1.47141
Si 0.0393773 15.9962 2.77598
O 10.883 11.1607 6.57207
O 0.436184 8.82302 7.159
O 10.9103 8.89107 1.18107
O 0.757282 15.9956 4.2577
O 11.7685 8.13863 16.5676
O 0.875608 15.0935 1.62857
O 9.96309 11.1661 1.56607
O 0.378578 17.5562 2.55279
O 10.9199 15.8495 1.62327
O 15.4249 11.2764 1.04848
O 11.859 17.5063 3.39422
O 13.9454 15.8386 3.17112
Si 13.2159 2.45724 7.07299
Si 2.95622 1.2955 9.01053
Si 0.628702 6.07009 9.0547
Si 5.89506 1.72132 10.1787
Si 14.3525 17.7443 6.82403
Si 3.43938 5.48023 9.98303
O 15.4646 4.64738 9.58801
O 6.21782 0.321711 11.1665
O 1.73536 1.69203 10.1895
O 6.36501 8.05404 7.73411
O 0.953485 16.1107 9.82762
O 4.24687 6.34214 8.64915
O 14.4108 1.31784 6.63784
O 1.95883 5.78913 9.9672
O 2.99182 3.80735 10.5054
O 7.31624 2.0424 9.63506
O 15.47 7.49017 9.33065
O 5.27493 2.9217 11.416
Si 5.45477 4.84934 5.02789
Si 6.24393 1.38983 6.34437
Si 5.35446 7.82703 8.90802
Si 9.19873 5.14291 9.26824
Si 7.93866 2.4875 8.26262
Si 7.91246 7.43791 7.62645
O 4.57058 5.41291 11.2387
O 10.591 17.3613 12.3308
O 9.03667 3.73395 8.04028
O 8.90279 8.68592 7.68272
O 6.57227 2.51896 7.42165
O 7.95333 6.18689 8.70887
O 9.78724 4.86728 5.42638
O 8.2122 6.7953 6.11094
O 5.0473 9.1464 5.43439
O 10.507 6.14891 8.50389
O 7.65511 9.57474 9.69814
O 9.35446 4.89807 10.7753
Si 11.9187 4.41105 2.79553
Si 13.2813 17.2537 3.72994
Si 9.03546 10.0174 8.6293
Si 1.20922 1.63237 11.6701
Si 10.2976 1.46474 6.64592
Si 15.3654 6.06864 6.1779
O 10.2338 10.2171 9.75713
O 11.7683 17.2812 9.93562
O 11.724 1.49826 7.29323
O 0.971296 6.10197 7.45581
O 10.6177 17.897 5.97061
O 13.3031 3.03219 8.82963
O 9.09951 1.31068 7.76362
O 13.3903 12.4016 9.03036
O 13.6327 5.93711 6.28362
O 13.8996 17.2808 8.25422
O 8.82235 11.552 8.26532
O 15.2261 1.32217 11.6872
Si 14.134 13.9858 8.80651
Si 1.97811 11.0371 4.14471
Si 14.4899 12.8835 12.4225
Si 4.25504 14.2655 10.9967
Si 0.502984 9.06801 8.75872
Si 1.34835 16.6984 8.27069
O 6.17034 14.8581 14.3727
O 1.92172 9.57839 9.53363
O 3.56882 11.5578 8.19849
O 1.98417 15.1971 7.8621
O 2.56835 8.15976 5.19739
O 3.29408 15.612 5.65733
O 0.135109 13.5054 9.65122
O 2.45117 17.8636 8.59025
O 15.5848 14.0129 12.4278
O 2.61394 14.0983 10.338
O 0.45413 17.5541 7.12146
O 3.82273 10.877 13.4595
Si 4.08763 14.2689 4.99045
Si 6.36511 10.0785 5.0111
Si 6.42755 14.6087 9.06005
Si 9.97184 12.3155 7.42997
Si 4.36093 11.7823 6.71211
Si 7.60183 16.4001 6.85573
O 5.14425 13.7284 9.68411
O 7.81756 8.84928 12.474
O 10.5061 8.63549 5.18431
O 9.57946 2.4002 5.7099
O 5.81236 11.3662 5.94864
O 7.86616 15.5621 5.41807
O 4.49662 13.3417 6.30113
O 6.85676 17.869 6.91782
O 6.60983 15.0084 7.56662
O 10.6811 13.0001 8.86327
O 6.17432 16.1292 9.63408
O 9.51541 13.2807 6.05046
Si 9.29954 14.7466 5.0074
Si 1.065 8.64431 5.70409
Si 10.3842 16.4867 6.65383
Si 13.9862 11.2967 9.8794
Si 11.05 10.4486 4.97807
Si 12.7684 16.1624 8.79871
O 8.96513 16.4381 7.574
O 12.662 10.3733 10.0699
O 0.868426 10.089 5.01903
O 13.6293 15.1952 9.86104
O 12.2718 10.7631 4.03382
O 2.20084 18.015 5.23265
O 10.6268 15.4493 5.34433
O 13.4748 17.0134 5.54695
O 11.3839 16.0193 8.00639
O 15.1174 10.2516 9.22857
O 11.1146 1.68035 15.3512
O 14.5003 11.6666 11.3347
Si 13.8913 4.27178 9.81831
Si 6.84165 0.534895 15.704
Si 2.85972 6.60994 16.0791
Si 3.64273 1.87834 2.03648
Si 4.03901 2.03088 16.1441
Si 4.78615 4.80954 15.2334
O 1.39726 5.88513 16.1861
O 6.75779 17.155 14.9374
O 3.67521 1.5006 0.521108
O 5.96473 5.7422 15.9998
O 1.19977 2.98 12.7455
O 3.83691 3.5731 13.1084
O 15.0456 17.4631 14.2062
O 4.48534 9.17616 8.85736
O 3.59754 5.81144 14.9034
O 6.84641 16.4232 12.3114
O 2.51336 8.19571 15.997
O 3.63134 3.47458 2.13685
Si 4.10569 3.99529 11.594
Si 5.79075 16.7013 11.1206
Si 6.77215 7.14739 16.013
Si 12.6597 2.47335 15.0718
Si 7.29924 3.26552 14.3677
Si 7.96706 7.31658 13.191
O 8.17961 6.54203 16.768
O 9.66474 0.231172 1.86708
O 7.5049 1.55964 14.5018
O 9.7701 7.0982 13.6023
O 8.20057 3.59687 13.0954
O 7.67981 6.031 12.2249
O 5.47398 1.54125 15.8063
O 6.12514 7.85464 10.4643
O 7.24333 7.65556 14.5544
O 13.0336 2.7708 13.5168
O 5.48529 4.87221 3.3852
O 7.41144 3.75841 15.9561
Si 8.76995 4.8568 12.3295
Si 12.149 17.5348 11.3596
Si 10.3697 5.73794 14.3468
Si 13.6614 16.7918 14.0407
Si 13.6228 2.26542 11.8679
Si 11.6826 6.60496 9.65598
O 9.60632 4.87834 15.6792
O 0.341867 1.2832 15.9898
O 0.263334 16.7143 16.4925
O 4.25026 3.60432 16.2425
O 13.4905 15.3065 14.3625
O 13.0258 5.64033 9.4896
O 10.2262 4.81133 13.0064
O 11.8252 8.05019 10.1511
O 14.0032 3.79253 11.378
O 12.8781 17.8815 15.0062
O 11.8758 5.66046 15.1244
O 13.4295 17.0477 12.3747
Si 1.42516 13.4904 13.1038
Si 3.55172 10.2634 9.42897
Si 2.62475 15.6938 14.9339
Si 4.4876 11.3047 12.1548
Si 2.16419 11.2075 13.8217
Si 2.53003 2.50504 13.551
O 2.44268 14.9393 16.3852
O 1.52255 9.9915 14.5386
O 5.83647 10.621 11.6222
O 2.3053 1.03394 12.7435
O 1.96789 12.2849 12.2641
O 5.84351 3.90975 14.1288
O 1.78239 12.5523 14.6608
O 4.42792 15.7712 11.4897
O 2.37398 14.8948 13.389
O 9.924 13.947 11.4066
O 2.96274 1.67901 15.0079
O 4.65057 13.0396 12.186
Si 1.29593 14.4472 9.66652
Si 6.86351 9.39763 11.1619
Si 7.4525 15.3507 13.3075
Si 9.19805 11.2731 15.173
Si 9.25352 13.0251 9.99958
Si 10.2821 16.4265 13.8097
O 4.06872 14.5622 1.05488
O 11.1398 15.1925 13.5957
O 7.72567 13.8374 12.9958
O 9.66952 11.9222 16.5844
O 8.74008 12.0174 11.1822
O 7.65905 13.7253 9.66801
O 3.82895 11.1234 10.7351
O 12.2412 1.43047 11.6009
O 8.71923 16.2117 13.9523
O 10.3841 10.0787 14.9321
O 8.23636 16.1881 1.69306
O 7.46631 10.9043 15.4557
Si 12.4638 14.3277 13.6438
Si 11.3873 9.60243 10.6265
Si 11.4319 0.168195 16.0204
Si 14.4507 10.3841 0.294447
Si 11.4047 9.3545 13.9138
Si 13.1291 11.739 14.7243
O 10.4966 17.2416 15.2914
O 13.3761 9.66199 1.19316
O 12.4199 8.04914 14.2548
O 2.06707 17.2858 14.8428
O 11.2294 9.14094 12.287
O 14.439 11.8445 13.6598
O 12.4723 10.5243 14.0108
O 13.1409 13.8679 12.2783
O 12.2759 13.0871 14.844
O -0.0300835 9.16772 16.9738
O 11.7671 0.206287 0.574191
O 13.3837 11.1384 16.4046
324
 Atoms. Timestep: 13000
Si 0.582495 4.55934 0.0746665
Si 5.59312 15.8639 14.9241
Si 3.72866 8.69438 4.11237
Si 3.79422 2.54653 6.36949
Si 2.06958 1.40124 4.34526
Si 3.78014 5.76747 3.66525
O 4.14412 6.15006 5.1551
O 4.32756 1.20862 10.2965
O 2.52454 2.3444 5.50548
O 6.20065 8.65578 16.376
O 3.22116 1.3792 3.04778
O 2.53194 4.9446 3.11944
O 1.49363 3.6991 1.21653
O 3.21678 6.09937 0.82264
O 3.72294 7.25457 2.97745
O 4.76892 1.22189 6.35421
O 2.96946 9.79987 3.26129
O 4.59376 3.97179 6.20951
Si 3.01176 4.59004 1.53485
Si 8.33186 18.0117 1.03456
Si 8.33353 5.60385 5.20712
Si 9.96312 3.36712 4.34441
Si 6.69711 0.862024 3.65609
Si 8.98546 5.02432 2.25312
O 6.92056 4.93425 5.92899
O 7.32607 1.42555 4.96897
O 8.61009 3.61531 3.08577
O 13.0026 4.65974 1.79347
O 7.84289 0.644111 16.7877
O 8.45208 5.18234 0.73097
O 5.63134 1.90298 2.83412
O 8.73298 9.08489 0.416752
O 8.24849 6.15276 3.47172
O 10.9934 3.62388 3.17084
O 6.28494 11.2148 3.77275
O 10.3844 5.91133 2.22719
Si 8.43461 5.05586 16.2675
Si 0.298246 17.756 15.6723
Si 13.4001 5.10788 5.2922
Si 15.2599 1.28221 2.80009
Si 14.4796 2.23563 16.9872
Si 13.6276 5.81376 0.882735
O 12.4063 5.76582 4.18576
O 13.985 0.945666 3.67869
O 15.0058 2.14583 1.45848
O 13.209 7.17545 1.48077
O 12.9846 2.17636 16.5124
O 15.2788 3.80155 16.2282
O 15.1881 5.4974 0.913047
O 13.2891 6.18975 16.5084
O 14.9689 5.31721 5.03728
O 0.717902 2.23256 3.63438
O 15.4969 7.82156 5.39929
O 13.0208 3.73032 5.78282
Si 1.54161 15.6949 0.178179
Si 1.90948 9.57944 16.5191
Si 2.46944 16.3915 4.86287
Si 4.08812 12.9701 2.01965
Si 1.72686 11.5519 1.22194
Si 4.57511 15.51 0.73866
O 13.9383 15.421 7.84669
O 2.88367 11.8276 5.4121
O 1.40958 11.7394 2.90944
O 3.38221 16.382 3.50798
O 2.39985 10.134 0.811493
O 4.04 15.7066 14.5087
O 2.91303 12.7675 0.883835
O 5.36588 15.8982 16.4979
O 3.09481 15.8431 0.791763
O 4.58028 11.4697 2.02419
O 3.1786 2.97033 8.03948
O 3.35017 13.7 3.51431
Si 9.0501 12.4222 12.0571
Si 7.41817 9.58841 16.772
Si 5.11286 16.3604 3.57106
Si 9.04911 10.0943 4.59142
Si 6.35822 11.3783 2.09723
Si 9.38944 15.2057 2.00033
O 5.50248 15.0227 4.46967
O 7.68201 9.76408 5.31607
O 7.41012 12.6351 1.66761
O 9.14786 14.647 3.52271
O 6.8611 10.3287 0.999893
O 9.0929 13.98 1.0436
O 9.39064 11.888 13.5927
O 7.72533 0.333479 2.54207
O 5.22992 16.2665 2.05082
O 8.92573 9.4193 3.0332
O 5.91989 17.4838 4.26227
O 9.77505 11.5258 4.40969
Si 8.84929 12.3425 0.944441
Si 12.5902 7.18589 15.5201
Si 11.3291 17.3253 1.54028
Si 12.6796 8.57374 0.910476
Si 9.86743 9.67151 1.60728
Si 0.43762 16.2222 2.98673
O 11.1457 11.5159 6.88085
O 0.931962 9.52098 7.14237
O 11.364 9.06017 1.72404
O 1.02225 15.6812 4.46018
O 11.9057 8.31916 16.6385
O 0.822842 15.2224 1.63341
O 10.0786 11.3252 1.49588
O 0.406373 17.8175 2.49683
O 10.9322 15.7317 1.8956
O 0.22055 11.7476 0.537539
O 12.1304 17.7863 2.88225
O 14.4744 16.307 3.41926
Si 13.3358 2.94369 7.17334
Si 2.87599 1.63744 9.33326
Si 0.986175 5.97999 8.77628
Si 5.97311 1.2515 10.8352
Si 14.222 17.7684 7.44558
Si 3.78162 5.32635 10.063
O -0.0321175 5.06621 9.69002
O 6.11074 0.0406598 11.8345
O 1.53717 1.96826 10.3019
O 6.26648 7.68671 7.6361
O 0.955909 16.5123 9.98676
O 5.12559 6.17552 9.28572
O 14.102 1.45474 7.08779
O 2.51628 5.6758 9.35708
O 4.10143 3.80326 10.2971
O 7.23282 1.64836 9.85571
O 0.486759 7.53295 8.70799
O 6.00225 2.94016 11.7727
Si 5.42462 4.91082 5.18135
Si 6.34241 1.15773 6.38508
Si 5.45118 7.7621 9.00906
Si 9.13333 5.08801 8.94608
Si 8.15194 2.32902 8.83724
Si 7.76195 7.21955 7.49785
O 3.8054 5.47166 12.0731
O 10.1683 17.3963 12.5174
O 8.40772 3.8461 8.2794
O 8.40453 8.71286 7.63555
O 7.18254 1.9167 7.38874
O 7.92363 6.2582 8.77124
O 9.69177 4.70771 5.16014
O 8.69537 6.68183 6.39212
O 5.24743 8.85465 4.56961
O 10.7347 5.74301 8.71465
O 7.39699 10.229 9.71694
O 9.13445 4.63508 10.5043
Si 11.7314 5.05525 2.9856
Si 13.5332 17.6095 3.96951
Si 8.58025 9.93054 8.54342
Si 0.721523 1.42257 11.8041
Si 10.4825 1.706 6.99351
Si 15.2082 6.39242 6.0762
O 9.92974 9.76034 9.59385
O 11.4656 16.9831 10.3686
O 11.8302 2.33584 7.47268
O 0.989239 6.02967 7.02885
O 10.829 -0.0941978 6.98661
O 13.6151 3.91818 8.51141
O 9.50307 1.74265 8.23912
O 13.8978 12.3772 8.64549
O 13.5434 5.94146 6.60967
O 13.2512 17.5088 8.56911
O 8.36308 11.4907 7.96165
O 14.7089 1.11985 11.5415
Si 14.2258 13.9338 8.72037
Si 2.02708 11.0467 4.08139
Si 14.0883 12.9362 12.3324
Si 4.36411 14.2851 10.5266
Si 0.650178 9.2274 8.76684
Si 1.574 17.1019 8.53925
O 6.12628 14.3842 14.33
O 2.00514 9.88356 9.47187
O 3.44213 11.3897 7.9382
O 2.15324 15.5421 8.12534
O 2.69796 8.16827 5.34393
O 3.03232 15.2219 5.76465
O 0.396023 13.9124 9.34004
O 2.73653 0.258641 8.47682
O 15.4292 14.0622 12.321
O 2.62631 14.0561 10.2749
O 0.295714 17.7609 7.67768
O 3.89588 11.0326 12.9307
Si 4.14415 14.1815 4.94183
Si 6.12464 10.2014 5.14933
Si 6.85119 14.8554 9.04638
Si 9.67494 12.4122 7.04714
Si 3.99694 11.7989 6.41977
Si 7.42426 16.1041 6.78398
O 5.41854 13.9484 9.38777
O 8.24299 8.98635 12.2525
O 10.339 9.26029 5.43378
O 10.1909 2.1096 5.32005
O 5.54546 11.1373 6.36526
O 7.93052 15.7919 5.04607
O 4.70334 13.2057 6.09018
O 6.45393 17.2842 6.88329
O 6.59132 14.8577 7.49276
O 10.2183 13.0984 8.48646
O 6.63717 16.4093 9.73406
O 8.94472 13.4174 5.94975
Si 9.24559 14.7437 5.11799
Si 1.28271 8.88978 5.70998
Si 10.5729 16.5079 7.29089
Si 13.8681 11.0971 9.83722
Si 11.3251 10.5674 5.46283
Si 12.4934 16.075 9.27673
O 8.8091 16.4024 7.70355
O 12.5508 9.90726 9.96737
O 0.863721 10.3383 4.86818
O 13.1143 14.7836 9.98861
O 12.7737 10.0098 5.13083
O 1.9463 -0.0389333 5.48203
O 10.545 15.5024 5.96457
O 13.6721 17.6993 5.51233
O 11.1658 15.5509 8.48734
O 15.0495 10.1219 9.39844
O 11.2554 1.38152 15.0534
O 14.1282 11.8404 11.233
Si 14.2604 4.55237 10.0874
Si 6.84169 0.565765 15.4653
Si 2.56247 6.48233 16.3728
Si 4.17419 2.05114 1.97415
Si 3.97451 1.92148 16.1326
Si 4.71377 4.87939 15.2404
O 1.13276 5.73044 16.3268
O 6.54433 17.1093 14.7068
O 3.82785 1.48286 0.590951
O 5.32752 6.31344 15.8117
O 0.915352 2.73661 12.8126
O 3.55177 2.75288 12.7502
O 15.0562 17.1622 14.4879
O 4.42856 8.89418 8.40569
O 3.15411 5.4599 15.3175
O 6.52414 15.3714 12.1575
O 2.23578 8.00067 16.5225
O 4.31378 3.68398 1.48519
Si 4.56343 3.75124 11.9902
Si 5.92988 16.5801 11.2821
Si 6.39233 7.25733 15.3435
Si 12.6878 1.72265 14.8414
Si 7.01633 3.3951 14.2697
Si 7.94351 7.36515 12.9396
O 7.89279 6.43425 15.8472
O 9.97816 0.258999 0.863226
O 6.93655 1.80238 14.3811
O 9.42796 7.03321 13.5613
O 8.31029 3.537 13.1748
O 7.84262 5.86086 12.2188
O 5.19179 0.876733 15.8603
O 6.30352 8.18463 10.4153
O 6.57509 7.75237 13.7738
O 13.5311 2.39353 13.4292
O 5.18869 4.78983 3.49736
O 7.29951 4.04092 15.8462
Si 9.03032 4.80863 12.0174
Si 11.7219 17.5932 11.6955
Si 10.39 5.53695 14.2847
Si 13.6526 16.6589 13.9499
Si 13.5104 2.08826 11.6612
Si 11.7289 6.47545 9.76882
O 9.87208 4.67758 15.5864
O 15.4112 1.13379 16.2618
O 0.564613 16.7569 16.8098
O 4.41062 3.45005 16.0751
O 13.4937 15.1439 14.534
O 13.171 5.92355 9.92035
O 10.3845 4.75659 12.8847
O 11.2082 7.82622 10.5024
O 14.0212 3.52549 11.2264
O 12.6195 17.6996 14.758
O 11.9236 5.94014 14.5789
O 13.1223 16.9067 12.3977
Si 1.30775 13.6858 13.1129
Si 3.46769 10.1489 9.00425
Si 2.43686 15.8209 14.8052
Si 4.69088 11.4819 11.672
Si 2.65452 11.5116 13.893
Si 2.39071 2.16947 13.4971
O 1.59022 14.8449 15.9917
O 2.57727 10.3326 15.0771
O 6.08524 10.7565 11.8964
O 1.59347 0.583013 12.8434
O 1.38682 12.087 12.6627
O 5.4844 4.32218 14.0999
O 2.28588 12.9396 14.6289
O 4.342 15.8037 11.4179
O 1.79048 15.3486 13.2879
O 9.93958 13.7672 11.4832
O 2.86136 1.98378 14.9904
O 4.66861 13.0588 11.7994
Si 1.57698 14.9215 9.46781
Si 6.97361 9.59114 11.0956
Si 7.3036 14.4641 13.3109
Si 9.12386 10.9991 14.9505
Si 9.52035 13.3499 9.82728
Si 9.78792 16.222 13.8096
O 5.20956 14.1534 1.55903
O 11.0822 15.242 13.9928
O 7.69546 13.0987 12.7164
O 8.75584 11.8796 16.5833
O 9.02185 11.8646 10.3909
O 8.27031 14.4342 9.72236
O 4.16943 11.0212 10.2265
O 11.9353 1.22096 11.7015
O 8.67013 15.2282 13.5197
O 10.3612 9.93756 14.9456
O 8.40198 16.4013 1.18709
O 7.70365 10.3256 14.9788
Si 12.1627 14.2353 14.0863
Si 11.0818 9.47191 10.5114
Si 11.0875 -0.107127 15.7673
Si 14.7205 10.5904 0.0282472
Si 11.5517 9.56202 13.6996
Si 13.2997 12.0505 14.9653
O 9.71922 17.2673 15.2163
O 13.7847 9.68116 0.837447
O 12.4558 8.27149 14.3518
O 1.95987 17.6817 15.2141
O 11.0652 9.60506 12.2188
O 14.4514 12.1691 13.8658
O 12.8024 10.7936 13.9845
O 12.6197 13.363 12.7299
O 12.1272 13.175 15.2063
O 0.14628 9.70471 16.2602
O 11.9426 17.378 17.0473
O 13.7021 11.7437 16.5571
324
 Atoms. Timestep: 13500
Si 15.5217 4.86539 16.9899
Si 5.25535 15.9721 14.8466
Si 3.85494 8.54129 4.26067
Si 4.00268 2.39357 6.71675
Si 2.25958 1.8045 4.32228
Si 3.30543 5.54856 4.2497
O 3.18013 4.99611 5.68835
O 4.24818 0.835755 10.2328
O 2.70795 2.71977 5.74526
O 6.48287 8.38514 16.4793
O 3.64052 2.24833 3.28287
O 2.38232 5.39218 2.87309
O 0.917033 4.15502 1.15201
O 2.52435 6.30353 0.418706
O 3.77053 7.01804 3.83797
O 4.70919 1.03939 6.25978
O 2.92901 9.35368 3.16077
O 5.22067 3.48585 6.8106
Si 2.32748 4.87888 1.34744
Si 8.03342 17.7653 1.08483
Si 7.88157 5.694 5.5452
Si 9.73101 3.29152 4.48684
Si 6.63784 1.55053 3.03441
Si 8.93251 4.78563 2.57103
O 6.3206 5.48462 6.02434
O 6.68676 2.20458 4.73687
O 8.77522 3.1845 3.0016
O 12.6143 4.76894 1.44404
O 7.28831 17.8721 16.9057
O 8.47999 4.48094 0.957721
O 5.61702 2.16763 1.86205
O 9.05534 8.66491 0.82956
O 8.02846 5.77293 3.45117
O 11.2477 3.19106 3.60757
O 6.45622 11.2386 3.2328
O 10.302 5.39849 2.50314
Si 8.53548 4.72062 16.5279
Si 0.808042 17.9638 15.3782
Si 13.7703 4.88492 5.37198
Si 15.5638 1.11583 2.64341
Si 14.8104 2.01242 16.9013
Si 13.499 6.40757 0.736156
O 12.9193 5.53186 3.94641
O 14.1862 1.0173 3.60779
O 14.6039 1.98438 1.31651
O 13.2989 7.4893 2.01776
O 13.61 1.59569 16.1911
O 14.9213 3.5776 16.4839
O 14.943 5.89761 1.12727
O 13.6841 6.57026 16.306
O 15.3518 5.28275 5.07763
O 1.04219 2.16989 3.36446
O 0.840313 7.59355 5.7846
O 12.9668 3.61677 5.98213
Si 1.38237 15.6436 0.158728
Si 1.76732 9.56662 16.1127
Si 2.54197 16.8075 4.43081
Si 3.91858 12.9784 1.82565
Si 1.52103 11.4534 1.05041
Si 4.46134 15.5876 0.72219
O 14.7503 14.5159 7.16189
O 2.62261 11.7583 5.23466
O 1.26808 11.3761 2.71967
O 3.43007 17.356 3.26913
O 2.3414 10.2631 0.421393
O 3.87949 15.4115 14.0935
O 2.51223 12.96 0.985167
O 4.83905 16.0728 16.4314
O 2.87611 16.004 1.04057
O 4.84048 11.8848 1.11425
O 3.53883 2.54816 8.31136
O 3.75336 13.1377 3.50548
Si 8.741 12.6143 12.5539
Si 7.69986 9.13507 0.0866911
Si 5.0347 16.811 3.23739
Si 9.3468 9.86 4.77519
Si 6.53312 11.5709 1.49143
Si 9.57959 14.9688 1.96356
O 5.39209 15.643 4.33759
O 7.68431 9.59975 5.2693
O 7.3314 12.5778 0.498508
O 9.243 14.3572 3.36687
O 7.04642 10.1323 1.21764
O 9.8754 13.8735 0.81236
O 9.27522 11.2716 13.3118
O 7.83412 0.718972 2.29274
O 5.3375 16.9903 1.57526
O 9.00745 9.25365 3.19449
O 5.86638 0.248165 3.61219
O 10.1997 11.238 4.24464
Si 8.93743 12.6379 0.340181
Si 12.7691 7.69346 15.5657
Si 11.2962 17.4516 1.74992
Si 12.897 8.90999 1.39257
Si 9.89967 9.86298 1.78353
Si -0.0727193 16.4518 2.68741
O 11.5335 12.2686 6.71592
O 0.898095 9.76673 7.35586
O 11.5789 9.72361 1.86702
O 1.09778 16.0916 3.92529
O 12.3616 8.48563 16.9808
O 0.14136 15.3245 1.42786
O 9.83409 11.3422 0.965377
O 0.560426 17.8645 2.17615
O 11.0048 15.862 1.75594
O 0.126009 11.5725 0.0976095
O 11.7398 17.9691 3.26174
O 14.0361 16.5013 3.07183
Si 13.0364 2.68379 7.27395
Si 3.04367 1.75066 9.45174
Si 0.634568 6.04006 9.29892
Si 5.69556 1.3064 10.8806
Si 14.0781 17.7791 7.01958
Si 3.54872 5.14865 10.3999
O 15.4257 4.99946 10.2514
O 6.18713 17.9524 11.6256
O 1.86348 2.27271 10.3782
O 6.52869 7.80041 8.49096
O 0.598474 16.351 10.1164
O 4.60043 6.21889 9.4093
O 14.0248 1.36001 6.7522
O 2.16104 5.366 9.8643
O 4.34769 3.66322 10.5739
O 6.91142 1.74357 9.69162
O 0.611149 7.79754 9.54084
O 5.84425 2.404 12.0398
Si 4.90532 4.63029 5.70796
Si 6.48278 0.906354 5.71981
Si 5.16978 7.6949 9.36934
Si 9.11926 4.49283 9.20916
Si 7.61912 2.18512 8.37653
Si 7.93496 7.37972 7.89772
O 3.54225 5.21839 12.1192
O 10.9051 17.1313 12.9423
O 8.12464 3.74777 7.89427
O 9.07521 8.57161 8.23568
O 6.76421 1.36498 7.19386
O 8.88993 6.1621 8.93785
O 9.1369 4.43258 5.49233
O 8.45083 6.84939 6.4199
O 5.51074 8.86722 4.23675
O 10.7975 4.59691 9.54167
O 7.25989 10.3052 9.6123
O 8.57116 4.08717 10.7386
Si 11.757 4.6643 3.02031
Si 13.4157 17.7555 3.841
Si 8.80268 10.0912 8.96741
Si 1.13338 2.01808 11.6787
Si 10.3131 1.43534 6.92226
Si 15.3958 6.58516 6.45763
O 9.91278 9.96797 10.0055
O 11.6276 16.7566 10.2846
O 11.4971 2.48357 7.57811
O 0.365246 5.72806 7.82947
O 10.8553 0.0374747 6.19465
O 13.6507 3.47602 8.51471
O 8.95062 1.19733 7.74493
O 13.63 12.7008 9.38661
O 13.7779 6.27118 6.56018
O 13.2584 17.5721 8.36497
O 8.91894 11.3776 7.87719
O 15.1969 1.75179 11.449
Si 14.4389 14.0832 8.65303
Si 1.94716 10.516 3.92901
Si 14.4672 12.9339 12.584
Si 4.17612 14.0599 10.478
Si 0.698754 9.38392 8.91681
Si 1.16155 17.3292 8.60818
O 6.2078 14.6634 14.4572
O 1.97181 10.2968 9.50209
O 3.86441 11.3011 7.84522
O 1.78116 15.5637 8.01735
O 3.18797 9.23953 5.73
O 3.06075 15.3474 5.03267
O 0.171091 13.5992 9.36082
O 2.19773 0.495659 8.52602
O 0.207114 13.7637 12.2537
O 2.55592 14.1421 10.0944
O 0.116863 17.7477 7.08725
O 4.26833 11.2209 13.3892
Si 4.11762 14.2796 4.57287
Si 6.35118 10.3601 4.49852
Si 6.54645 14.9368 9.0215
Si 9.98089 12.8011 7.35429
Si 4.13917 11.6495 6.0544
Si 7.57684 16.2663 6.36356
O 5.05109 14.1917 9.15402
O 8.02844 8.66708 11.571
O 10.5395 9.71627 5.97649
O 9.61706 1.96186 5.36927
O 5.41378 10.6855 5.83867
O 7.94556 15.3166 5.0111
O 4.53515 13.2036 5.79085
O 6.92465 17.4822 5.65533
O 6.81609 15.3703 7.34091
O 10.0923 13.5525 9.00504
O 6.28785 16.2178 9.7621
O 9.44678 13.5264 5.98691
Si 9.29729 14.7762 4.86792
Si 1.45993 9.1124 5.99295
Si 10.7488 16.4433 6.43993
Si 14.0472 11.2677 10.1828
Si 11.5476 11.1371 5.44553
Si 12.5922 16.1505 9.04898
O 9.21439 16.3948 6.98429
O 12.67 10.021 10.5886
O 0.685928 9.67237 4.76413
O 13.4993 15.0549 9.72296
O 13.0909 10.8997 5.35229
O 1.71502 0.346334 4.93348
O 10.6672 15.7095 4.8971
O 13.2696 17.1471 5.58158
O 11.4945 15.7873 7.73006
O 15.2235 10.2584 9.65599
O 11.0068 1.50878 15.5667
O 14.6929 11.5345 11.7037
Si 13.9278 4.22002 9.98565
Si 6.39058 0.266995 15.6647
Si 2.38241 6.55474 15.9336
Si 3.96132 2.54173 1.9065
Si 3.68996 1.83389 16.2518
Si 4.65787 4.76084 15.1264
O 0.547381 6.03062 15.7995
O 6.3275 17.2597 14.5185
O 3.30751 1.81808 0.686463
O 5.64427 5.75927 15.9774
O 1.3049 2.77335 13.0139
O 3.55435 3.1229 13.3729
O 15.1927 17.6796 14.3423
O 4.11861 8.77984 8.68665
O 3.08251 5.42101 15.0901
O 6.473 15.3482 12.0887
O 2.60287 8.22707 15.8844
O 3.73947 4.0638 1.22307
Si 4.67722 3.66141 12.2673
Si 5.69305 16.3962 11.2452
Si 6.65006 7.00345 15.6309
Si 12.7479 1.52049 14.9286
Si 7.02501 3.21139 14.0918
Si 8.04274 7.42919 12.6852
O 8.15021 6.3291 16.3814
O 9.82004 -0.0622799 0.311033
O 6.89852 1.78959 15.012
O 9.45633 7.50749 13.9717
O 8.10491 3.04051 12.87
O 8.01807 6.02859 12.0509
O 4.74783 0.600193 15.9368
O 5.67931 8.43712 10.7339
O 6.88763 7.24957 13.9425
O 13.0463 2.23054 13.6824
O 4.7595 4.65738 4.15194
O 7.4864 3.78675 15.8061
Si 8.85586 4.52375 12.254
Si 11.9448 17.1937 11.7658
Si 10.2286 6.11188 14.4772
Si 13.7352 16.9748 14.0261
Si 13.5007 1.92353 11.9596
Si 11.4117 6.19356 9.79494
O 9.80861 4.96022 15.6001
O 0.267098 1.2081 16.0832
O 0.694423 16.9348 16.5767
O 4.47219 3.13742 15.8452
O 13.4386 15.7481 14.9883
O 12.9994 5.62887 10.03
O 10.2233 5.01446 13.0915
O 11.7075 7.73955 9.9471
O 13.0925 3.16664 10.9806
O 12.5802 18.0443 14.6609
O 11.6699 6.53048 14.9913
O 13.3674 16.7344 12.5152
Si 1.64459 13.2553 13.1997
Si 3.48747 10.276 8.9743
Si 2.48007 15.5294 14.87
Si 4.8869 11.6139 11.9393
Si 2.77055 11.4277 13.8845
Si 2.60108 1.87864 13.6152
O 2.25896 14.7588 16.283
O 2.16468 10.0942 14.6675
O 6.36567 10.8002 12.0449
O 2.17136 1.01331 12.315
O 1.58452 11.6394 12.8474
O 5.53847 4.24822 13.812
O 2.59063 12.8149 14.6011
O 4.1588 15.692 11.2421
O 1.52798 14.9538 13.6032
O 9.50871 14.0604 11.583
O 2.31188 1.80833 15.1859
O 4.33154 13.1615 11.7984
Si 1.34374 14.8748 9.47362
Si 6.67864 9.59272 10.9801
Si 7.35424 14.9531 13.4055
Si 9.18155 10.942 14.9957
Si 9.09532 13.406 10.2025
Si 10.2684 16.009 14.0619
O 4.99865 14.2536 1.51843
O 11.2066 14.8131 13.8877
O 7.46112 13.3734 13.0539
O 9.19996 12.3706 15.8912
O 8.82968 12.0162 10.9477
O 7.78714 14.2247 9.62961
O 4.20461 10.9594 10.5943
O 12.6364 0.656067 11.1763
O 8.65258 15.9912 13.5268
O 10.539 10.125 14.8407
O 8.41514 16.1456 1.56964
O 7.99206 10.0488 16.0203
Si 12.7216 14.4169 14.4857
Si 11.2353 9.24463 10.7625
Si 11.0885 18.0577 16.3941
Si 14.9254 10.2416 16.8845
Si 11.7127 9.69969 13.6888
Si 13.5054 11.7134 14.7256
O 10.2312 16.8129 15.469
O 14.245 9.83091 1.1002
O 12.9887 8.72523 14.2636
O 2.22732 17.3783 14.756
O 11.1548 9.14949 12.3448
O 14.8207 12.3789 14.0893
O 12.7086 11.1243 13.4946
O 13.1937 13.9268 13.0117
O 12.7483 13.1579 15.5412
O 0.155801 9.16888 16.2501
O 12.2817 17.6532 0.450104
O 13.5238 10.6767 15.9536
324
 Atoms. Timestep: 14000
Si 0.259008 4.9695 0.243213
Si 5.07983 16.2849 14.9909
Si 4.34845 8.71912 4.30308
Si 3.63819 2.04398 6.44955
Si 1.85395 1.77004 4.21353
Si 3.43172 6.24037 4.22116
O 3.949 6.16483 6.02386
O 4.17827 1.2933 10.1623
O 2.35615 2.42373 5.55478
O 6.47689 8.07766 16.6325
O 3.39234 1.64867 3.45641
O 2.20702 5.73669 3.22059
O 1.35504 4.21063 1.22039
O 3.12795 6.17413 0.551281
O 4.13123 7.5183 3.30668
O 4.66707 0.658159 6.50188
O 3.72181 10.0022 3.59421
O 4.57321 3.40357 6.51638
Si 2.59684 5.18569 1.69476
Si 8.24209 17.602 0.913868
Si 7.784 5.87353 5.07741
Si 9.58078 3.51786 4.81508
Si 6.44926 1.24774 2.95667
Si 8.913 4.96742 2.64555
O 6.68563 4.8212 5.67674
O 6.45499 1.9337 4.4205
O 8.62255 3.42954 3.26923
O 12.2188 4.58736 1.58641
O 7.82943 17.673 16.5043
O 8.62473 4.81196 1.13154
O 5.41924 2.26089 2.2979
O 9.17557 8.90677 0.572538
O 8.03973 6.22275 3.44914
O 11.2204 3.61068 4.44002
O 7.08719 11.5268 3.25211
O 10.3322 5.92035 2.98359
Si 8.54632 4.57643 16.6356
Si 0.530608 17.9477 15.4771
Si 13.871 5.00703 5.54295
Si 15.5135 1.09056 2.55102
Si 14.9563 2.24348 16.7077
Si 13.1258 5.82998 0.916484
O 12.8146 5.68543 4.38291
O 14.086 0.94254 3.32277
O 14.9051 2.0393 1.18239
O 13.0271 7.24562 1.90627
O 13.5523 1.79222 16.1488
O 15.4002 3.78124 16.3801
O 14.585 5.36106 1.17088
O 13.2101 6.05872 16.3559
O 15.4356 4.36291 5.59545
O 0.870841 2.44432 3.34603
O 1.58502 6.58231 5.56301
O 12.9009 4.17855 6.4827
Si 1.21768 16.0377 0.041855
Si 1.80254 9.47017 15.8996
Si 1.93549 16.6296 4.27095
Si 3.49851 13.3768 1.64576
Si 1.87668 11.1651 1.30852
Si 4.02532 16.2191 0.411544
O 13.6389 13.388 6.57699
O 2.63892 11.9492 4.81489
O 1.75081 10.9911 2.84837
O 3.12255 16.792 2.96144
O 2.48094 10.3297 -0.028053
O 3.82324 15.3686 14.6975
O 2.47566 12.5503 0.692507
O 5.24034 16.3968 16.5279
O 2.52114 16.9505 0.242063
O 5.01901 12.2684 1.97987
O 2.88323 2.14055 8.03828
O 3.40673 13.8739 3.04692
Si 8.69739 12.7779 12.2891
Si 7.67615 9.31821 16.9623
Si 4.74165 16.8092 3.12512
Si 9.36848 10.4869 4.45751
Si 6.5049 11.8834 1.45382
Si 9.41269 14.9633 2.01645
O 4.92023 15.9273 4.40949
O 7.97283 10.5392 5.393
O 7.46158 12.6347 0.239224
O 9.22406 14.096 3.39388
O 6.62211 10.1909 0.866443
O 9.68384 13.7996 0.942406
O 9.69753 11.5854 13.2719
O 7.54873 0.546997 2.01376
O 4.87589 16.4991 1.72388
O 9.0456 9.63027 3.1031
O 5.44671 0.0830831 3.43578
O 10.1793 11.9767 4.58361
Si 9.07413 12.4132 0.400948
Si 12.4264 7.39279 15.8123
Si 11.279 17.4641 1.67183
Si 12.6009 8.70313 1.21163
Si 9.80151 9.9012 1.79469
Si 15.535 16.2672 2.35232
O 11.3956 11.5195 7.1118
O 1.1069 8.0987 7.55352
O 11.4333 9.6186 1.79485
O 0.561994 16.0402 3.75203
O 12.0545 8.52942 16.8847
O 0.514728 15.3064 1.13764
O 9.69814 11.5319 1.67927
O 0.448829 17.8796 1.95464
O 10.7884 15.9213 1.7156
O 0.165951 11.3077 0.930763
O 11.8104 17.787 3.1845
O 14.0083 16.4007 2.71941
Si 12.9401 2.93811 7.39153
Si 2.49345 1.38885 9.40156
Si 0.961593 5.72748 9.91836
Si 5.78827 1.43728 10.5924
Si 14.2888 17.9695 6.60564
Si 3.774 5.93415 10.9199
O 15.2583 4.87754 10.5352
O 5.75814 0.213174 11.6413
O 1.48652 2.01532 10.5334
O 6.1084 7.30089 7.97364
O 0.511194 15.8874 9.58925
O 4.16633 7.02195 9.81353
O 14.0654 1.56449 6.80425
O 2.15712 6.02934 11.2074
O 3.72687 4.26318 10.5567
O 6.89763 1.1375 9.60188
O 0.527295 7.49143 10.0256
O 5.98666 3.13175 11.4401
Si 5.10816 4.81072 5.62134
Si 6.2691 1.08745 5.86575
Si 5.38979 7.97327 9.36293
Si 8.85374 4.65867 9.41554
Si 7.73466 1.84565 8.4184
Si 7.65713 7.14841 7.6642
O 4.91701 5.57347 12.2211
O 11.0942 17.1299 12.8294
O 8.23575 3.31334 8.92147
O 8.29204 8.64376 8.11719
O 6.62378 2.07406 7.15315
O 8.23357 6.06635 8.73581
O 8.91596 4.92663 5.4742
O 7.64027 7.25564 6.04161
O 5.73198 9.33252 4.93092
O 10.4127 4.91751 8.93528
O 8.23947 9.23329 10.3802
O 9.17234 4.80171 10.983
Si 11.8082 4.93782 3.38243
Si 13.2739 17.575 3.79483
Si 8.85341 9.71326 9.06677
Si 0.684861 2.23494 11.8862
Si 10.1481 1.17973 6.93396
Si 0.385621 5.64352 6.47713
O 10.3403 10.2913 9.85569
O 11.945 16.9689 10.0455
O 11.4687 2.14473 7.58638
O 0.968943 5.32115 8.07169
O 10.63 17.9064 6.11238
O 13.7384 3.21553 8.73508
O 8.86666 0.880368 7.98389
O 13.8773 11.8247 8.74321
O 14.747 6.35616 6.11751
O 13.6225 17.0559 7.90606
O 8.93486 11.0666 8.18154
O 14.8451 1.82495 12.3767
Si 14.2714 13.33 8.06124
Si 2.26166 10.5354 4.28108
Si 14.4556 12.4287 12.2284
Si 4.46055 14.3369 10.7207
Si 0.924023 8.73658 9.18143
Si 1.04452 16.6041 8.22028
O 6.27206 15.2614 14.5362
O 2.46089 9.33805 8.97225
O 3.55683 11.3404 7.16929
O 1.55298 15.166 7.53483
O 3.30748 8.61845 5.88231
O 2.72738 15.5965 5.36208
O 0.236856 13.1884 8.81876
O 1.97649 17.9369 8.9531
O 0.200606 13.1599 12.0475
O 2.59411 14.1026 10.3305
O 0.153746 17.398 6.84202
O 4.20909 10.7152 12.6342
Si 3.89559 14.7827 4.67486
Si 6.45433 10.8723 4.57587
Si 6.44264 15.2527 8.76566
Si 10.0623 12.2076 7.76068
Si 3.96647 12.1488 6.02684
Si 7.45328 15.9835 6.14351
O 4.94547 14.6382 9.00574
O 7.53653 8.54143 12.7681
O 10.5547 9.6251 5.622
O 9.33798 2.24167 5.81081
O 5.38255 11.8 5.3683
O 8.10235 15.0608 5.19787
O 4.16558 13.6848 6.06993
O 6.66378 17.4603 5.43044
O 6.29303 15.4593 7.06482
O 10.1683 13.1323 9.05531
O 6.86862 16.5155 9.77732
O 9.46143 13.2841 6.43473
Si 9.46749 14.1476 5.12021
Si 1.75274 8.35203 5.98239
Si 10.3675 16.1462 6.60026
Si 14.0645 10.6354 9.64087
Si 11.4587 11.1097 5.45191
Si 12.7218 16.0979 8.9049
O 8.65535 16.279 7.34433
O 12.8715 9.42586 9.57542
O 1.14273 9.45464 4.87184
O 13.4837 14.5086 8.97507
O 12.9253 11.0758 4.70708
O 1.6405 0.0206165 4.85939
O 10.5776 15.3102 5.237
O 13.429 17.1457 5.29706
O 11.2935 15.5888 7.83501
O -0.00602897 10.092 9.54166
O 11.2218 1.49614 15.7139
O 13.956 11.1269 11.1328
Si 13.7759 4.27977 9.98311
Si 6.58561 0.324396 15.7297
Si 2.49291 6.52816 16.0476
Si 3.96312 2.55499 2.20521
Si 4.13943 2.04725 16.5096
Si 4.69062 4.60754 15.1734
O 0.722239 6.2639 16.2297
O 5.63337 17.6661 14.5012
O 3.15462 2.1081 0.550204
O 5.52525 5.59836 16.4691
O 0.952471 3.39074 13.0077
O 3.75428 3.71497 13.285
O 15.5864 17.6132 13.8473
O 4.88804 9.3761 8.66818
O 3.36048 5.55583 15.1835
O 7.3674 16.1092 12.1381
O 2.7741 8.1329 15.3884
O 3.93095 4.20295 1.63511
Si 4.63536 3.85944 11.9255
Si 6.2383 16.75 11.3299
Si 6.55544 6.676 15.9876
Si 12.7138 1.60773 14.8651
Si 7.41957 3.15657 14.6736
Si 7.34773 7.07531 13.3963
O 8.03722 6.08624 16.5269
O 9.91697 0.191127 0.838575
O 7.35635 1.52159 14.687
O 8.55856 6.77691 14.3714
O 8.50926 3.74686 13.6246
O 7.70582 5.92542 12.0555
O 5.50569 1.06244 16.8598
O 5.8231 8.49467 10.8297
O 6.00933 6.93641 14.4114
O 12.4195 2.72213 13.6682
O 4.68722 5.11283 4.02691
O 7.93168 3.10709 16.3875
Si 8.84699 4.87254 12.4788
Si 12.035 17.3812 11.55
Si 9.93144 5.97573 14.6136
Si 13.9623 17.1508 13.6515
Si 13.1519 2.30065 12.0663
Si 11.2611 6.13233 9.65088
O 9.76701 4.58508 15.4479
O 0.265274 1.44867 15.7354
O 15.5899 16.984 16.7117
O 4.92255 3.3225 16.1464
O 14.1649 15.5185 14.6625
O 12.9002 5.5755 9.55989
O 10.3632 5.40894 13.142
O 10.9182 7.45473 10.308
O 13.1979 3.67538 11.2804
O 12.9679 -0.00104565 14.5681
O 10.8744 7.12876 15.3659
O 13.5905 17.0836 11.8403
Si 1.65012 13.5944 12.5803
Si 3.73179 10.4134 8.81944
Si 2.3091 15.7084 14.5472
Si 4.99074 11.6881 11.5714
Si 2.69978 11.5059 13.2722
Si 2.57209 2.50425 13.7498
O 1.64973 14.9797 16.0092
O 2.02536 10.2412 14.2861
O 6.4637 10.8164 11.9596
O 1.68762 1.18902 12.9558
O 2.74341 12.4853 11.8527
O 5.94056 4.04557 14.2041
O 2.07207 13.0053 14.1304
O 4.93859 15.7155 11.3855
O 2.07734 15.0698 12.9011
O 9.41644 13.8946 11.4761
O 3.04493 2.23242 15.2756
O 5.41495 13.2083 11.5997
Si 1.36473 14.4864 9.15994
Si 7.18071 9.44299 11.5918
Si 7.57122 15.155 13.6002
Si 9.45786 10.7866 14.9227
Si 8.67289 13.535 9.86281
Si 10.609 16.196 14.2717
O 3.93206 14.5215 0.605207
O 11.6754 15.0638 14.2427
O 7.58133 13.5678 13.2536
O 9.6251 11.7478 16.2136
O 7.85312 12.2512 10.9205
O 7.81767 14.2414 8.79152
O 4.39933 11.342 9.99332
O 12.0789 1.0253 11.7796
O 9.03323 15.7456 14.0472
O 10.583 9.75101 14.5439
O 8.13915 16.1826 1.54524
O 7.93533 10.0928 15.4208
Si 13.1632 14.2057 14.0218
Si 11.5078 9.4042 10.8393
Si 10.9494 0.125277 16.5982
Si 15.0412 10.2362 0.184861
Si 11.9766 9.21841 13.8898
Si 13.5896 11.6125 14.9591
O 10.2912 17.2243 15.4337
O 14.1952 9.35454 1.26128
O 13.1226 7.89051 14.3902
O 2.06776 17.3647 15.0641
O 11.7733 9.08577 12.4026
O 14.8375 12.1433 13.9986
O 12.9406 10.6636 13.7365
O 13.3125 13.6935 12.4585
O 12.8072 13.0453 15.2301
O 0.271892 9.37072 16.2493
O 12.2486 17.5687 0.395947
O 13.7094 10.8528 16.4056
324
 Atoms. Timestep: 14500
Si 0.423098 4.84622 0.125104
Si 5.58835 15.7027 14.9632
Si 5.01164 8.75022 4.69326
Si 3.43808 2.29144 6.75216
Si 1.80298 1.94603 4.35624
Si 4.4871 5.82565 4.39606
O 4.46789 5.94979 6.05188
O 3.98991 1.42012 10.5074
O 2.36682 2.5603 5.71576
O 6.30475 8.55141 17.0457
O 2.88636 1.70914 3.23647
O 3.04318 5.96459 3.47956
O 0.981641 5.05768 1.64333
O 2.65672 6.59102 0.693114
O 5.40585 7.27199 3.88095
O 4.53381 1.31707 6.17572
O 4.05608 9.86419 3.69279
O 4.41269 3.49721 7.18795
Si 2.5023 5.40227 1.96819
Si 8.09077 17.5422 0.783828
Si 8.20742 5.52563 5.55103
Si 9.95529 3.38539 5.26609
Si 6.37614 1.06139 2.91213
Si 9.27977 5.04919 3.148
O 6.75972 4.75351 5.83653
O 6.79555 1.80453 4.30629
O 9.1921 3.42578 3.74016
O 12.7793 4.88969 2.19197
O 7.1164 0.140326 17.0463
O 8.91786 4.96557 1.56733
O 5.34091 2.3357 2.61688
O 8.61258 9.22645 0.40316
O 8.44711 5.92421 4.07807
O 11.8046 3.56507 4.94979
O 6.04541 11.911 3.35137
O 10.8035 5.64481 3.55866
Si 8.69397 5.00096 16.9754
Si 0.845077 0.162661 14.5834
Si 14.3467 4.75767 5.97489
Si 15.3894 1.48637 2.12699
Si 15.3856 2.48477 16.3097
Si 13.0299 5.81643 0.885133
O 13.5723 5.67681 4.77228
O 13.5963 1.25022 3.12458
O 15.2813 1.7209 0.569738
O 13.154 7.22941 1.59652
O 13.8743 2.6615 15.8794
O 0.94487 3.48955 16.6679
O 14.475 5.05799 0.500039
O 12.3549 6.13588 16.6235
O 0.257723 4.54304 5.29604
O 0.534826 2.58192 3.18388
O 1.61985 6.81968 6.03327
O 13.5959 3.64048 6.74217
Si 1.35743 16.2484 16.4608
Si 1.69812 9.25526 15.6821
Si 1.65477 16.8606 4.27395
Si 3.50364 13.4505 1.86873
Si 1.79227 10.991 1.21422
Si 3.87995 15.8668 0.441308
O 14.781 13.4049 6.79119
O 2.52977 11.3447 5.40097
O 1.71394 10.038 2.62342
O 2.7663 16.9179 3.07445
O 2.21519 10.2901 17.0915
O 4.29472 15.0413 13.9403
O 2.57115 12.2479 1.81638
O 5.07755 15.8072 16.4625
O 2.73109 16.8744 17.3018
O 5.14639 13.3692 1.64068
O 2.63864 2.18085 8.18261
O 3.6622 13.651 3.66217
Si 8.68009 12.7417 12.0214
Si 7.23827 9.92744 17.0744
Si 4.47021 16.6741 3.27341
Si 9.57835 10.4052 4.44567
Si 6.43708 12.2876 1.75514
Si 9.26593 15.1514 1.94001
O 4.82391 15.7673 4.67601
O 8.05161 11.2901 4.97783
O 8.09544 12.6573 1.58768
O 8.9634 14.1989 3.37041
O 6.58325 11.1695 0.457676
O 9.83281 14.0185 0.687631
O 8.96346 12.1802 13.5519
O 7.47431 0.1786 2.13454
O 4.67108 16.1895 1.84464
O 9.16686 9.89699 2.86539
O 5.25185 18.0212 3.23284
O 10.6696 11.7207 4.20473
Si 9.37569 12.5661 0.49754
Si 12.1255 7.41564 15.5637
Si 11.1141 17.3172 1.59772
Si 12.5632 8.61494 1.09161
Si 9.82167 9.95244 1.36156
Si 15.4585 16.5579 2.22105
O 10.7009 11.7386 6.89085
O 1.12304 9.22297 6.76559
O 11.2485 9.0797 1.75447
O 0.438292 15.9823 3.4509
O 11.6295 8.4147 16.7727
O 0.181585 15.651 0.719425
O 10.3734 11.4111 1.15196
O 0.139985 0.0593055 2.43299
O 10.7401 15.8258 1.93594
O 0.148738 11.4199 0.928617
O 11.522 18.0583 3.11033
O 13.7612 16.5192 2.67342
Si 13.3894 2.37976 7.77122
Si 2.59428 1.59424 9.63435
Si 0.75565 5.8772 9.40283
Si 5.70524 1.41274 10.84
Si 14.2198 17.6811 6.84692
Si 3.34617 5.76207 10.281
O 15.3979 4.5733 9.68843
O 5.56385 0.151687 11.7853
O 1.59746 2.00431 10.7069
O 6.30834 7.39883 7.76253
O 0.459096 16.2086 10.034
O 3.9962 6.84332 9.33299
O 14.2291 1.10564 6.94942
O 1.80037 5.94944 10.621
O 4.08749 4.29115 9.90755
O 6.82673 1.43694 9.47046
O 0.552758 7.65684 8.85629
O 5.99238 2.93026 11.3851
Si 5.23624 4.44311 6.05434
Si 6.13279 1.3501 5.89079
Si 5.19091 7.91461 8.80603
Si 9.08242 4.63529 9.19346
Si 7.92403 1.84516 8.42622
Si 7.90249 7.19916 7.90329
O 4.21 5.66918 11.6404
O 10.4245 16.9299 12.0964
O 8.45541 3.36845 8.57146
O 8.91238 8.32049 8.40986
O 7.21517 2.24643 6.95337
O 8.04991 5.88675 8.841
O 9.32135 4.38114 6.20217
O 8.18927 6.94726 6.42206
O 6.38622 9.39273 5.12859
O 10.8786 4.71786 8.59389
O 8.35474 9.29436 10.5926
O 9.23007 4.70102 10.8046
Si 12.3122 4.92651 3.89059
Si 13.0406 17.7912 3.67848
Si 9.15327 9.81258 9.22305
Si 0.748593 2.28949 11.8792
Si 10.5109 1.12997 7.2101
Si 0.793552 5.64532 6.57336
O 10.7664 9.67682 9.56602
O 12.3475 16.5625 10.4153
O 11.5508 1.94504 7.90561
O 1.59061 5.35402 7.97895
O 10.7392 17.5783 6.78491
O 13.8326 2.56012 9.27378
O 9.26529 0.914566 8.48112
O 13.6163 12.0561 8.90048
O 14.9195 5.8726 6.9988
O 13.138 16.7083 7.80964
O 8.73045 11.0461 8.19404
O 14.6174 2.32781 11.8261
Si 14.6369 13.2503 8.31013
Si 2.52867 10.0078 4.03348
Si 14.3771 12.2402 11.9775
Si 4.02528 14.5657 10.5582
Si 0.89963 9.15012 8.41428
Si 1.12504 16.9419 8.33803
O 6.66329 14.3996 14.7893
O 2.16978 9.67829 9.04498
O 3.57692 11.7817 8.04984
O 2.06361 15.6647 8.13015
O 3.92582 8.36512 5.89699
O 2.44669 15.6787 5.41913
O 0.235714 13.5409 9.34929
O 1.96924 0.105274 8.86324
O 15.4701 13.5107 12.1392
O 2.32368 14.4561 10.5767
O -0.12579 16.9342 7.23919
O 4.06976 11.2435 13.241
Si 3.61309 14.7007 4.97186
Si 6.2787 11.1022 4.82195
Si 6.54 14.7506 9.12934
Si 9.27403 12.3823 7.40625
Si 3.66424 12.1128 6.39134
Si 7.30484 16.1007 6.62892
O 5.25128 13.8272 9.41517
O 7.08248 8.46126 12.4047
O 10.4353 9.5383 5.33257
O 10.0831 1.80515 5.81951
O 5.25136 11.6146 5.98201
O 7.69085 15.5428 5.03602
O 3.63714 13.6332 6.19539
O 6.48417 17.7687 5.97571
O 6.52443 15.0086 7.40525
O 9.98122 13.5679 8.56292
O 6.78749 16.4289 9.83356
O 8.66983 13.2448 6.31553
Si 8.84796 14.3886 4.9873
Si 2.1145 8.29235 6.05299
Si 10.1712 16.136 7.04514
Si 14.2592 10.7623 9.52907
Si 11.4949 11.1889 5.50697
Si 12.507 15.6658 8.84396
O 8.45505 16.279 7.73156
O 13.3801 9.37836 10.065
O 1.9073 8.47197 4.41019
O 13.2085 14.2664 8.91086
O 12.9609 10.9285 5.04862
O 1.6021 0.344757 4.77145
O 9.88553 15.435 5.44217
O 13.8088 17.7377 5.25387
O 10.9448 15.3595 8.22863
O -0.139903 10.4835 8.58638
O 11.5304 1.39327 15.9097
O 14.9553 11.2084 10.8676
Si 13.917 4.01446 10.1118
Si 6.42361 0.5197 15.4895
Si 2.35362 6.58044 16.273
Si 3.82299 2.3907 2.07921
Si 3.9878 1.9239 16.2144
Si 4.643 4.93022 15.9107
O 0.831004 5.92865 16.2191
O 6.21087 17.158 14.6293
O 3.7397 1.27411 0.662121
O 5.52919 5.84974 16.8813
O 1.41458 3.62209 12.6595
O 3.94872 3.4801 12.828
O 15.3517 17.6713 13.3076
O 4.63409 9.36137 8.47979
O 3.2652 5.5045 15.2828
O 6.96186 16.1011 12.3919
O 2.73521 7.96877 15.4586
O 3.28302 4.05017 2.09533
Si 4.45185 4.04753 11.4907
Si 5.91229 16.7113 11.309
Si 6.55135 6.95851 16.5266
Si 12.8022 1.84905 14.976
Si 7.1644 3.4287 14.6806
Si 7.28094 7.31134 13.5871
O 7.95371 6.48079 0.122141
O 9.72519 18.1 0.912302
O 7.1425 1.75642 14.5334
O 8.67137 7.10522 14.396
O 7.92304 3.5982 13.2741
O 7.44362 6.0669 12.6294
O 4.91896 1.00634 15.3334
O 6.02412 7.91359 10.2286
O 6.12512 7.29549 14.8968
O 12.5302 2.29443 13.4371
O 4.79595 4.22802 4.2938
O 7.76607 3.85472 16.1718
Si 8.60999 4.69429 12.4442
Si 11.8185 17.4712 11.521
Si 9.86708 5.77573 14.4597
Si 14.0341 17.0127 13.8646
Si 13.1333 2.33721 11.8737
Si 11.7122 5.91517 9.39175
O 9.84312 4.97666 15.7574
O 0.293179 1.53686 15.0757
O 0.387811 17.3546 16.0093
O 4.4943 3.52044 16.7862
O 14.1605 15.3784 13.8866
O 13.1472 5.26665 9.19193
O 10.0442 4.93497 13.1472
O 11.5901 7.33824 10.2401
O 13.0837 4.01885 11.5115
O 13.2652 17.9204 15.181
O 10.8033 6.99681 14.7006
O 12.6501 17.58 13.2024
Si 1.18286 13.3102 12.7428
Si 3.50554 10.4643 9.09805
Si 2.6204 15.423 14.0231
Si 4.58305 11.6254 11.7908
Si 2.53295 11.482 13.6281
Si 2.46268 2.60848 13.4396
O 1.88761 15.0394 15.5772
O 2.2771 10.1282 14.6243
O 6.16856 11.0383 11.1093
O 1.47068 1.33548 13.1247
O 1.39611 11.7096 12.4812
O 5.84789 4.33659 14.7191
O 2.1289 12.9942 14.1671
O 4.5649 16.0099 11.1705
O 1.8405 15.0532 12.7528
O 9.93121 13.8799 11.6042
O 2.68192 2.15805 14.9918
O 4.3847 13.1607 11.5843
Si 1.21811 14.8305 9.28778
Si 6.79474 9.5114 11.1486
Si 7.4835 14.8766 13.488
Si 9.04423 11.077 14.7441
Si 9.4743 13.6659 10.1017
Si 10.2792 16.151 13.529
O 3.10708 14.4614 0.759981
O 11.7036 15.175 13.4329
O 7.2809 13.4066 12.3768
O 9.34634 12.1111 16.0411
O 9.25101 11.7031 10.736
O 7.9949 14.2273 9.65786
O 3.47156 10.7813 10.7099
O 12.1816 1.06438 11.1546
O 8.883 15.3883 13.9142
O 10.0306 9.70145 14.3508
O 8.03563 15.9696 1.32485
O 7.81924 10.2938 15.4469
Si 12.9722 14.2916 13.552
Si 11.8379 8.93056 10.5601
Si 11.7999 17.8879 15.9491
Si 14.9442 10.2718 17.1705
Si 11.6877 9.62322 13.5394
Si 13.4944 11.7816 14.6494
O 10.6186 17.2604 14.8671
O 13.9173 9.45048 0.901412
O 13.0334 8.32346 14.5239
O 2.23976 17.0873 14.312
O 11.5505 9.07183 12.0405
O 14.6996 11.5431 13.4347
O 12.223 10.9731 13.953
O 12.8694 12.9995 12.2499
O 13.3467 13.4602 14.8964
O 0.238506 9.15355 16.4332
O 12.1327 17.3252 0.194565
O 13.9674 11.0516 16.0565
324
 Atoms. Timestep: 15000
Si 0.594325 4.91019 0.289989
Si 5.41479 15.9131 15.3646
Si 4.95648 8.44564 4.22142
Si 3.50703 2.29385 6.53346
Si 2.03119 1.7397 4.03214
Si 4.58619 5.84935 4.26903
O 4.68664 5.90224 5.89997
O 3.89116 0.803627 9.96798
O 2.43875 2.72776 5.32074
O 6.4314 8.62374 16.803
O 2.87225 1.09715 2.71711
O 3.12777 5.79276 3.81496
O 1.2877 5.06002 1.87611
O 3.26446 6.35731 0.952376
O 5.45447 7.03538 3.73088
O 4.52799 0.909208 6.08205
O 3.7361 8.96498 2.89529
O 4.85886 3.33495 6.82307
Si 2.90911 5.42501 2.19652
Si 8.16183 17.8091 1.38142
Si 8.60151 5.22297 5.53156
Si 10.5974 3.04983 4.32801
Si 6.0038 1.12143 3.33539
Si 9.21864 4.4393 2.80731
O 7.0843 4.81899 6.34603
O 6.47618 1.72607 4.74784
O 9.37286 2.86139 3.31215
O 12.4867 5.23961 1.77276
O 7.52633 0.253911 17.2429
O 8.88 4.88385 1.32179
O 5.26864 1.90493 2.07195
O 8.56236 9.34918 0.453235
O 8.1999 5.15937 3.92478
O 12.1126 3.14025 3.8856
O 6.10959 10.9874 3.10992
O 10.8393 5.04583 3.49462
Si 8.82704 5.31586 16.9767
Si 0.799337 0.148272 14.6396
Si 14.3707 4.50177 5.42741
Si 15.4774 1.46898 2.04083
Si 15.4002 2.50068 16.1726
Si 13.3927 5.9484 0.736547
O 13.7952 5.2428 3.92778
O 14.2715 1.40177 3.29055
O 14.9645 2.15891 0.670716
O 13.4719 7.47171 1.61516
O 13.8553 2.40393 15.7054
O 0.813081 3.64734 16.7375
O 14.7201 5.08246 0.386615
O 12.9205 6.30443 16.3393
O 0.300421 4.01879 5.7389
O 0.900848 2.52201 3.10226
O 1.78903 6.27586 5.93923
O 13.3078 3.58056 5.9951
Si 1.48519 16.6084 16.7679
Si 1.45239 9.07578 16.0811
Si 1.64673 16.7645 4.22293
Si 3.78075 13.4528 2.05519
Si 1.89555 11.3171 0.912455
Si 4.2383 15.913 0.651532
O 14.9299 14.4408 7.38217
O 3.37225 11.0532 4.43831
O 1.64328 10.7329 2.65411
O 2.97085 16.7098 3.08075
O 2.34262 10.3562 17.0402
O 4.28075 16.0947 14.2702
O 3.26281 12.2481 1.13145
O 5.27342 15.3613 16.8466
O 2.8782 16.9279 0.110534
O 5.41678 13.3074 2.34367
O 2.558 2.15805 7.77254
O 2.81852 13.785 3.4058
Si 8.85447 12.5895 12.1847
Si 7.21111 9.89062 16.9335
Si 4.49363 16.4812 3.19613
Si 9.44576 10.5909 4.38417
Si 6.29631 11.8994 1.82248
Si 9.36014 15.1688 2.39069
O 4.82969 15.2458 4.33563
O 8.13464 11.2659 4.99993
O 7.79694 12.4198 1.23926
O 9.09209 14.1066 3.5789
O 6.14781 10.8488 0.459331
O 9.52443 14.1569 0.96991
O 9.20671 11.7246 13.4846
O 7.22002 0.670699 2.32831
O 5.30763 16.5027 1.74757
O 8.77819 10.0669 3.00536
O 5.3216 17.8865 3.72609
O 10.8528 11.7756 4.2596
Si 9.27043 12.6869 0.531669
Si 12.214 7.51032 15.5934
Si 11.0586 17.6991 1.61167
Si 12.5147 8.74396 1.17918
Si 9.63651 10.0193 1.60312
Si 15.6254 16.7288 1.8447
O 11.3388 12.0041 6.6628
O 1.30411 8.58305 7.21572
O 10.9262 8.92671 1.96161
O 0.378756 15.9502 3.05303
O 11.7979 8.42447 17.0034
O 0.404155 15.9205 0.546387
O 10.1651 11.5102 1.29687
O 0.527421 0.113181 1.91399
O 10.7265 16.0577 2.11432
O 0.289633 11.8294 0.766308
O 12.0165 0.431764 2.87685
O 13.9125 16.8071 2.07698
Si 13.7235 2.56076 7.24164
Si 2.5227 1.30968 9.07046
Si 0.684951 6.00965 9.54809
Si 5.34372 1.03229 10.4421
Si 14.4589 17.559 6.45359
Si 3.81843 5.66271 10.186
O 15.2262 5.32522 10.2188
O 5.01605 0.0368328 11.8221
O 1.50667 2.14051 10.0626
O 6.48869 7.97967 7.89579
O 0.696956 16.2153 9.89188
O 5.19926 6.21626 9.29841
O 14.3088 1.0267 6.49436
O 2.20791 6.04831 10.0724
O 3.43772 4.05588 9.97733
O 6.82889 1.33978 9.70234
O 0.0861952 7.39577 9.17434
O 5.27841 2.44442 11.2008
Si 5.50339 4.58391 5.79755
Si 6.17239 0.987906 6.12777
Si 5.40216 7.83532 9.12911
Si 8.42545 4.84052 9.89991
Si 7.93979 2.18475 8.49757
Si 8.04503 7.16695 7.84968
O 4.91257 5.32018 11.4449
O 10.9093 17.3003 12.5487
O 8.47155 3.72087 8.6909
O 9.11277 8.32142 8.3689
O 7.26029 1.8749 7.15398
O 7.98849 6.17265 9.1254
O 9.92349 4.21289 5.60921
O 8.70093 6.4956 6.60123
O 6.13761 9.25818 4.74197
O 10.0714 5.3372 10.5432
O 6.96124 9.68145 9.62478
O 7.76812 4.49752 11.3379
Si 12.3649 4.63851 3.22831
Si 13.508 17.9885 3.53256
Si 8.61662 9.79296 9.01894
Si 0.691627 2.05675 11.5741
Si 10.7943 1.42603 6.97019
Si 0.574006 5.34518 6.67327
O 9.84183 9.67253 10.2021
O 11.9315 17.5857 9.76887
O 12.3249 2.25725 8.05664
O 1.04597 5.00161 8.18548
O 10.8691 17.9619 6.72143
O 14.5366 3.41321 8.49154
O 9.55512 1.79863 8.31848
O 13.6759 12.0564 8.45828
O 14.8026 6.04086 6.21389
O 13.2932 16.7475 7.60071
O 8.8804 11.0245 7.95558
O 14.8759 1.4691 11.215
Si 14.4455 13.724 8.64902
Si 2.29789 9.6731 3.86017
Si 14.6375 12.5798 12.1704
Si 3.9036 14.244 11.0267
Si 0.730163 8.93806 8.77584
Si 1.04405 16.6135 8.39628
O 6.47967 14.9091 14.4943
O 1.67686 10.0571 9.4543
O 3.2769 11.17 7.24213
O 1.97487 15.0238 8.07553
O 3.84374 8.34086 5.64415
O 2.34842 15.5648 5.36792
O 0.0203358 13.5127 9.56013
O 1.87729 17.9832 8.54005
O 0.317654 13.3018 12.6616
O 2.13899 14.339 10.7172
O 0.0637803 16.8251 7.09281
O 3.97405 10.5649 13.5671
Si 3.42708 14.3327 4.84055
Si 6.65412 10.7627 4.68304
Si 6.18534 14.8127 9.067
Si 9.8922 12.2253 7.31174
Si 3.86638 11.7278 5.86328
Si 7.21823 16.2248 6.69143
O 4.98763 14.0491 9.60502
O 7.71582 8.68265 12.223
O 10.25 9.39972 5.37702
O 10.4702 1.81675 5.43593
O 5.41553 11.5488 5.94502
O 7.68803 15.3199 5.48031
O 3.63695 13.3717 6.10288
O 6.50871 17.6716 6.42536
O 6.04041 15.4176 7.40558
O 9.93659 13.2617 8.74636
O 5.81182 16.2704 9.70221
O 8.90715 13.3308 6.13003
Si 8.94116 14.481 5.11831
Si 2.32196 7.77432 6.03478
Si 10.0703 16.3237 6.82695
Si 14.1312 10.9879 9.57961
Si 11.6669 10.8557 5.32658
Si 12.5395 16.1313 8.76229
O 8.69257 16.4466 7.546
O 12.5784 10.4325 10.3615
O 1.56404 8.57981 4.66273
O 13.0163 14.6328 9.33811
O 12.8627 9.98065 5.06536
O 1.7281 0.0831241 4.86127
O 10.3927 15.5664 5.32737
O 14.2892 17.5191 4.75991
O 11.1669 15.7947 7.8956
O 14.8575 9.6937 8.9082
O 11.7139 1.1293 15.7693
O 15.0881 11.6739 10.8338
Si 14.0003 4.39834 9.7533
Si 6.10837 0.534966 16.2775
Si 2.7844 6.55608 16.6199
Si 3.59603 2.31407 1.82149
Si 3.81253 2.01971 16.4257
Si 4.76776 4.67094 15.9215
O 1.10209 6.23685 16.7096
O 6.33137 17.3574 15.4287
O 2.83766 1.79536 0.399109
O 5.33423 6.0444 16.6669
O 0.992764 3.50986 12.598
O 3.59986 3.53545 12.8998
O 15.5953 17.5056 13.5676
O 4.37291 9.00811 8.84696
O 3.38848 5.27802 15.5938
O 6.53337 15.7629 12.1387
O 2.7382 7.99056 16.1605
O 3.25351 3.72981 2.22438
Si 4.33489 3.65515 11.4651
Si 5.38957 16.6374 11.2742
Si 6.67461 6.98959 16.2497
Si 12.8758 1.56525 14.721
Si 6.95097 3.34619 15.1781
Si 7.6294 7.67894 13.4691
O 7.91765 6.65675 -0.20125
O 9.64718 0.237939 1.5869
O 6.38864 1.86263 15.4464
O 8.93246 7.55762 14.591
O 8.02057 3.1706 13.7586
O 7.29184 5.76945 13.3603
O 4.45602 0.623918 16.5246
O 5.635 8.17907 10.9306
O 6.40615 7.61799 14.5661
O 13.5091 2.18986 13.3728
O 5.50242 4.40861 3.94635
O 7.90479 3.80907 16.403
Si 8.24527 4.61066 12.8813
Si 12.0146 17.8197 11.3297
Si 9.96338 6.26999 14.351
Si 14.0997 17.1006 13.3496
Si 13.5134 2.20925 11.6838
Si 11.356 6.18105 10.2708
O 9.80559 5.31788 15.6568
O 0.52567 1.95902 14.8322
O 0.498204 17.7235 16.1826
O 4.55562 3.33893 16.9785
O 13.6054 15.7008 13.8704
O 12.4527 5.38536 9.49717
O 9.95695 5.28023 13.0496
O 11.5898 7.75565 10.1447
O 13.7399 3.74809 11.4019
O 13.1757 18.0461 14.469
O 11.2463 7.17832 14.2258
O 13.3959 17.5433 12.0793
Si 1.59205 13.4318 13.4836
Si 3.34778 10.2765 8.95258
Si 2.63561 16.0621 14.1827
Si 4.12648 11.4156 11.9181
Si 2.49731 10.9822 14.1218
Si 2.24971 2.65651 13.4809
O 1.83711 15.4831 15.4958
O 1.54227 9.59707 14.494
O 5.67977 10.8103 11.8892
O 1.50078 1.38588 12.8042
O 2.46373 11.8763 12.5728
O 5.71724 4.31728 14.6932
O 2.21947 12.5757 14.7678
O 4.06215 15.8119 11.1895
O 2.33408 14.8622 13.2137
O 9.82075 13.6181 11.45
O 3.13549 2.09765 14.9787
O 4.30866 13.0631 11.9754
Si 1.1791 14.5996 9.50768
Si 6.44387 9.4557 11.3042
Si 7.49143 15.0625 13.1783
Si 8.98861 11.1679 15.0787
Si 8.81423 13.1791 10.0302
Si 10.3024 16.1282 13.4618
O 3.32949 14.7455 1.12247
O 11.3125 14.787 13.2839
O 7.93961 13.389 13.1672
O 9.72015 12.3112 16.1548
O 8.3068 11.7698 10.7617
O 7.58312 14.022 9.55151
O 3.70507 11.2685 10.2062
O 11.957 1.5881 11.2627
O 8.73758 16.0166 13.4641
O 10.1611 10.0027 14.8356
O 7.97929 16.3085 2.13559
O 7.47965 10.545 15.463
Si 12.7991 14.3183 13.6128
Si 11.3513 9.3709 10.7216
Si 11.7197 17.619 15.7571
Si 14.7517 10.6629 -0.0300642
Si 11.3955 9.81205 13.8175
Si 13.4633 11.9982 14.728
O 10.5253 16.5249 15.1815
O 13.657 10.0146 1.07065
O 12.7125 8.91977 14.677
O 2.17418 17.6179 14.2631
O 10.827 8.98399 12.235
O 14.3181 11.5893 13.3647
O 12.0389 11.1804 13.9799
O 13.4268 13.6895 12.3065
O 12.9982 13.5313 14.9517
O 15.7014 9.19323 16.7116
O 11.4332 17.2572 0.00963076
O 13.9252 11.4922 16.1243
324
 Atoms. Timestep: 15500
Si 0.0245682 5.14327 0.466454
Si 5.7857 16.1381 15.4579
Si 4.43733 8.53039 4.46667
Si 3.8059 2.11062 6.65376
Si 1.98943 1.31208 4.21642
Si 4.49427 5.42434 3.88591
O 4.7602 5.43549 5.55685
O 4.51671 1.12147 9.56077
O 3.02977 2.23093 5.11237
O 6.38789 8.55187 0.278567
O 3.08122 1.09005 2.90256
O 2.9688 5.14496 3.35869
O 1.28492 4.17609 1.31297
O 3.10113 6.06396 0.82891
O 4.70036 7.15698 3.43842
O 4.34307 0.579333 6.57464
O 3.74393 9.54443 3.45251
O 4.99419 3.30954 6.5453
Si 2.7941 4.74268 1.84069
Si 8.3411 17.8041 1.68898
Si 8.62246 5.194 5.518
Si 10.0855 2.9342 4.33675
Si 6.23571 0.728787 3.42688
Si 9.25651 5.25475 2.79079
O 7.49644 3.79573 5.69903
O 6.23827 1.53366 4.88021
O 9.1619 3.73442 3.20471
O 12.7333 4.69954 1.01913
O 7.70745 0.161399 0.264673
O 8.58006 5.563 1.29582
O 5.52638 1.59174 2.11798
O 8.67925 9.49168 0.741287
O 8.69509 6.18297 4.07151
O 11.2764 3.20764 3.15007
O 6.5933 11.3313 3.03433
O 10.7211 5.68849 2.5025
Si 8.57055 5.20968 17.0764
Si 0.758882 18.0521 14.9597
Si 14.1243 4.63544 5.10828
Si 0.075734 1.2897 2.31558
Si 15.2828 2.50031 16.6426
Si 13.4758 6.23587 0.642954
O 13.434 4.46428 3.59243
O 14.3813 0.915666 2.7296
O 15.5297 1.7927 0.769655
O 12.3927 7.21271 1.38312
O 13.7466 2.10086 16.0989
O 14.6997 4.07033 16.9627
O 14.828 5.89219 1.51173
O 13.8693 6.73943 16.4643
O 0.0255145 4.32242 5.2542
O 0.542044 2.04746 3.55259
O 1.05955 6.82655 5.2276
O 13.6284 3.36775 5.87754
Si 1.71182 16.272 -0.0631516
Si 1.77405 9.46114 16.0082
Si 1.8762 16.312 4.46168
Si 3.22234 13.5017 1.90302
Si 1.50585 11.0308 1.15838
Si 4.35066 16.0398 0.83132
O 13.3335 14.2513 7.45364
O 2.62178 11.1774 5.35716
O 1.53838 10.0993 2.47511
O 3.02431 16.6119 3.43058
O 2.41346 10.5251 -0.0400346
O 4.40037 15.9747 14.792
O 1.92052 12.7101 1.53511
O 5.49182 16.1944 17.0195
O 3.13597 17.3307 0.609145
O 4.74612 12.7502 1.77575
O 2.98143 2.336 8.11808
O 3.06909 14.0198 3.42415
Si 8.43155 12.8144 12.4091
Si 7.3937 9.65748 17.1597
Si 4.54981 16.4591 3.49429
Si 9.45067 9.98388 4.65175
Si 6.27272 12.1129 1.65309
Si 9.87832 15.1454 1.92359
O 5.03809 15.0939 4.25631
O 7.89154 10.4922 5.16015
O 7.44503 13.2414 1.07524
O 9.66471 14.3524 3.36929
O 6.51787 11.0497 0.267314
O 9.84294 14.1637 0.651834
O 8.81792 11.7661 13.4636
O 7.61346 0.669559 2.74631
O 5.24656 16.0316 2.15127
O 9.19111 9.5655 3.05412
O 5.58911 17.5788 4.02134
O 10.1549 11.5091 4.70933
Si 8.86418 12.9815 0.431128
Si 12.7682 7.69269 15.5952
Si 11.3736 17.6013 1.52207
Si 12.3368 8.71905 0.945785
Si 9.73106 10.2028 1.77388
Si 0.189986 16.5092 2.337
O 11.0725 11.5515 7.13549
O 0.564367 8.74171 7.03273
O 11.2932 9.86999 1.62501
O 0.63068 15.7799 3.70487
O 12.0106 8.65624 16.7471
O 0.705338 15.7643 1.13706
O 9.50379 11.6918 1.31067
O 0.635703 18.0037 2.05312
O 11.0846 16.0594 1.46007
O 0.165765 11.3324 0.595645
O 12.0433 17.9057 3.06384
O 14.3506 16.5647 2.62245
Si 13.3103 2.703 7.39851
Si 2.91626 1.00245 9.25339
Si 0.598904 6.17404 9.21092
Si 5.6967 1.19278 10.5785
Si 14.424 18.0549 6.75521
Si 3.52237 5.3665 10.0644
O 15.1981 5.2543 9.82778
O 5.48409 18.0045 11.3729
O 1.59604 1.18832 10.3199
O 6.33202 8.00121 7.56517
O 0.512048 16.2588 9.50701
O 4.22537 6.12326 8.85053
O 14.3708 1.53318 7.26348
O 1.72507 5.44293 10.1756
O 3.60433 3.69853 10.3231
O 7.21484 1.34041 9.73311
O 0.385388 7.76718 9.3263
O 5.99761 2.74942 11.5578
Si 5.89687 3.98936 5.39847
Si 5.8768 0.587893 6.14727
Si 4.80213 7.76902 8.5984
Si 8.60388 5.00316 9.72446
Si 7.74382 2.22061 8.26581
Si 7.8671 7.12112 7.90788
O 4.77902 5.39814 11.2794
O 11.1518 17.5134 12.5965
O 7.87917 3.9373 8.52228
O 9.08259 8.3762 8.06452
O 6.48594 1.43317 7.43348
O 7.86296 6.46233 9.47035
O 10.2046 4.36609 5.40969
O 8.20212 5.97833 6.82818
O 5.91458 9.1912 5.18059
O 10.3377 5.19297 9.53617
O 7.72599 9.34767 9.90971
O 8.4963 4.35004 11.2644
Si 12.1149 4.55298 2.60205
Si 13.5515 17.917 3.63785
Si 8.94022 9.76948 8.96588
Si 1.00966 1.5989 11.9222
Si 10.4393 1.42297 7.00848
Si 0.00267318 5.88019 5.99069
O 10.2274 10.0529 9.96528
O 12.0718 17.0062 9.85002
O 11.7889 2.04974 7.62096
O 0.744922 5.91628 7.56956
O 10.4361 18.0088 6.9791
O 13.4359 3.89399 8.42078
O 9.1857 1.89031 7.91457
O 13.3558 12.379 9.33089
O 14.0661 6.20149 5.74746
O 13.2709 17.3981 7.69147
O 8.42856 11.1925 7.87805
O 15.225 1.4545 11.6904
Si 13.9377 13.8602 8.75171
Si 2.33735 10.1661 4.00527
Si 14.7653 12.4262 12.4626
Si 4.21256 14.1644 10.358
Si 0.44748 9.30245 8.5445
Si 1.19008 16.7763 8.05009
O 7.23823 15.3318 14.9874
O 1.6393 10.5073 8.78038
O 3.78614 11.8016 7.87205
O 1.52674 15.3511 7.5759
O 3.28014 8.20308 5.70234
O 2.5796 15.4769 5.55223
O 0.00568838 13.5332 8.80598
O 2.59907 17.6727 8.25662
O 0.0119594 13.7646 12.446
O 2.4615 14.6046 10.1345
O 0.146528 17.392 7.04273
O 3.7883 10.5801 12.8922
Si 3.78905 14.4888 5.06064
Si 6.37209 10.7946 4.53
Si 6.21404 14.9616 8.75504
Si 9.62581 12.2956 7.4883
Si 3.8251 11.8858 6.22478
Si 7.26299 15.9015 6.43506
O 4.96237 13.7316 9.08744
O 7.49997 8.56066 12.5155
O 10.5439 9.27649 5.63897
O 9.92512 1.66654 5.28742
O 5.23314 11.8178 5.49553
O 7.79471 14.9046 5.17795
O 3.57313 13.5527 6.16754
O 6.78121 17.4212 6.12176
O 5.82897 15.1697 7.29024
O 9.84937 13.0681 9.00086
O 6.46013 16.4463 9.62576
O 9.65753 13.386 6.22122
Si 9.40257 14.4899 4.9269
Si 1.62265 8.19733 5.79101
Si 10.1213 16.4129 7.01944
Si 13.8301 10.8923 9.6859
Si 11.4239 10.6673 5.86402
Si 12.7779 16.0557 8.46159
O 8.57856 16.0479 7.48188
O 12.5926 9.70697 9.91177
O 1.17973 9.11556 4.44401
O 13.8621 15.3089 9.63087
O 12.9237 10.6423 5.61777
O 1.85585 -0.0872907 5.14763
O 10.1447 15.8611 5.43504
O 13.842 -0.0314703 5.19132
O 11.2957 15.6674 7.87564
O 14.8012 10.007 8.66701
O 11.6076 1.64455 15.588
O 14.5643 11.0914 11.1956
Si 13.6855 4.71209 9.85596
Si 6.69029 0.663891 16.3135
Si 2.46257 6.54902 16.5667
Si 3.95848 1.93536 1.77698
Si 3.9861 2.19175 16.5142
Si 4.68053 5.05411 15.5072
O 0.842789 6.30177 16.7279
O 6.32099 17.7039 15.1411
O 3.19891 1.45365 0.477184
O 5.30316 6.09957 16.5869
O 1.11349 2.97712 12.8488
O 3.68058 3.44833 13.2137
O 15.6069 17.8515 13.7093
O 3.66246 8.95475 8.30331
O 3.0949 5.7825 15.1378
O 6.65536 16.1907 12.62
O 2.51247 8.15486 16.5386
O 4.0079 3.49982 1.6083
Si 4.50039 3.75052 11.7633
Si 5.88589 16.2916 11.1142
Si 6.50476 7.26674 16.262
Si 13.0432 1.63211 14.7739
Si 7.06759 3.357 15.3066
Si 7.74831 7.47311 13.6144
O 7.89358 6.71716 16.7999
O 9.74545 0.226321 1.539
O 7.59319 1.88374 15.7068
O 9.13451 7.35514 14.3547
O 7.94098 3.61918 13.9493
O 7.23938 5.94544 12.7032
O 5.18555 1.1112 16.3198
O 5.45763 7.89408 10.0504
O 6.40825 7.40012 14.67
O 13.0272 2.35793 13.1456
O 5.32017 3.93474 3.79683
O 7.29726 4.16643 16.6403
Si 8.42785 4.77672 12.8759
Si 12.2548 17.6733 11.2972
Si 10.2137 5.99824 14.5015
Si 14.076 17.2375 13.4967
Si 13.5767 1.96922 11.5455
Si 11.2337 6.52815 10.1712
O 9.84216 5.15295 15.7806
O 0.349774 1.59754 15.3933
O 0.562347 17.289 16.5053
O 4.27546 3.62235 16.4422
O 14.347 15.7098 13.9033
O 12.9383 6.08848 9.84651
O 10.0498 5.06609 13.1684
O 10.963 7.72151 11.3379
O 13.4111 3.55761 11.1387
O 13.1885 -0.0901077 14.3977
O 11.7809 6.61963 14.8964
O 13.685 17.1942 12.0674
Si 1.47539 13.3998 13.127
Si 3.3344 10.5161 8.85981
Si 2.80184 15.6873 14.4333
Si 4.70043 11.0942 11.627
Si 2.17637 11.0425 13.3683
Si 2.48031 2.35137 13.6362
O 2.25334 15.3127 16.096
O 1.78501 9.82725 14.2996
O 6.01027 10.1637 11.776
O 2.46112 0.973926 12.6564
O 1.74098 12.04 12.2957
O 5.75623 4.22136 14.7158
O 1.85473 12.5228 14.4863
O 4.36175 15.7689 11.174
O 2.50217 14.7358 13.0479
O 9.28728 13.958 11.4386
O 3.07895 1.8965 15.2175
O 4.61485 12.828 11.4867
Si 1.11246 14.6663 9.10929
Si 6.63858 8.84596 11.1299
Si 7.74262 15.3245 13.5087
Si 8.62592 11.0871 15.0872
Si 8.6645 13.2833 10.0202
Si 10.7178 16.5191 13.6823
O 3.4284 14.7497 0.871112
O 11.5028 15.0803 13.593
O 7.6619 13.796 13.3423
O 8.92159 12.4667 16.164
O 7.715 12.1515 10.9936
O 7.35587 13.9336 9.03541
O 4.07925 10.3868 10.2802
O 12.3735 1.03692 10.7864
O 9.23277 15.7932 13.3579
O 10.0789 10.1997 14.6715
O 8.37614 16.1677 1.9201
O 7.51365 10.1049 15.5481
Si 13.0618 14.5839 13.6207
Si 11.4123 9.42968 10.8438
Si 11.111 0.204354 16.2167
Si 14.8462 10.2888 -0.0308346
Si 11.613 10.0395 14.1217
Si 13.648 12.1457 15.1856
O 10.5833 17.1975 15.2106
O 13.9134 9.33749 1.1254
O 12.7601 8.79142 14.5077
O 1.75709 16.9224 14.2368
O 11.3751 9.83473 12.4441
O 14.5652 11.7317 13.9765
O 12.1812 11.5073 14.3716
O 13.2277 13.3184 12.5178
O 13.3389 13.853 15.2236
O 0.0891308 9.19308 16.4163
O 12.1633 17.9004 0.0497248
O 13.6328 11.2889 16.704
324
 Atoms. Timestep: 16000
Si 0.181036 4.88112 -0.110899
Si 5.55646 16.3628 15.0664
Si 4.31308 8.55019 4.20741
Si 3.91417 2.1495 6.33931
Si 1.99857 1.64095 4.0932
Si 4.04325 5.8541 4.10537
O 3.953 5.69351 5.83869
O 4.50206 1.1055 9.85848
O 2.58006 2.52471 5.35906
O 5.70805 8.62751 16.5769
O 3.1297 1.75756 3.13472
O 2.72144 5.61898 3.10512
O 1.01284 4.79712 1.26151
O 3.37745 5.83102 0.506942
O 4.51441 7.19639 3.39689
O 4.61645 0.681835 6.08719
O 3.57113 9.75703 3.27636
O 5.18176 3.04661 5.92994
Si 2.57135 4.91036 1.6618
Si 8.34607 17.9084 1.2559
Si 8.32409 5.3804 5.65195
Si 9.79194 2.9263 4.44111
Si 6.32521 0.986226 3.31335
Si 8.97225 5.283 2.81106
O 6.75487 4.77665 6.21157
O 6.91803 1.54953 4.7197
O 8.74591 3.61325 3.41155
O 12.4622 4.59227 1.42646
O 7.68548 0.364631 -0.0873643
O 8.82479 5.36517 1.10435
O 5.51914 1.7405 2.1822
O 8.56002 9.10525 0.49415
O 8.21012 5.97587 4.02075
O 11.1205 2.9162 3.55035
O 6.56044 11.2998 3.34161
O 10.4745 5.66242 2.7528
Si 8.7282 5.5633 16.8248
Si 1.08587 17.8378 15.5199
Si 13.8796 4.53263 5.11092
Si 15.4648 1.14321 2.56121
Si 15.6596 1.69934 16.7084
Si 13.1169 5.9699 0.561032
O 12.785 4.67981 3.87304
O 14.2441 0.851529 3.41296
O 15.1956 1.3994 0.899008
O 12.6489 7.29145 1.57229
O 14.0848 1.40681 16.1991
O 15.6481 3.49362 16.4687
O 14.5075 5.14981 0.48413
O 12.9375 6.62322 16.2899
O 15.552 4.40749 4.71619
O 0.696145 2.31326 3.15119
O 0.207092 7.21651 5.14157
O 13.4881 3.10212 5.66524
Si 1.39267 15.7862 0.0197405
Si 1.73628 9.53281 16.0666
Si 2.30331 16.7513 4.42609
Si 3.31011 13.2394 2.1435
Si 1.31618 11.6986 0.94398
Si 4.47816 15.7646 0.718605
O 13.2649 14.5422 7.89788
O 2.52356 11.4616 5.222
O 2.05875 11.6954 2.51425
O 3.44499 16.9319 3.30898
O 2.12937 10.6306 -0.0192366
O 4.38219 15.7718 14.2141
O 2.06431 13.2683 0.933842
O 5.11551 16.5772 16.6392
O 2.95362 16.3202 0.722557
O 4.54312 12.0891 2.26459
O 3.42843 2.29311 7.93315
O 3.24892 13.9682 3.62962
Si 8.48938 12.4671 12.2585
Si 7.02361 9.4426 17.171
Si 5.12548 16.4639 3.28811
Si 9.60027 10.1606 4.45338
Si 6.08131 11.7519 1.88543
Si 9.62252 15.2512 1.80552
O 5.30186 15.4605 4.50053
O 7.99277 10.4347 5.58185
O 6.96565 12.7179 1.05746
O 9.60403 14.2431 3.28828
O 6.20806 10.1688 1.33029
O 9.64148 14.0559 0.590053
O 8.57707 11.7712 13.7468
O 7.81528 0.642011 2.67499
O 5.5036 16.6094 1.73485
O 9.15082 9.29173 3.15993
O 5.58247 17.9282 3.76365
O 10.8137 11.2266 4.45942
Si 8.64418 12.7605 0.578843
Si 12.2073 7.78186 15.5023
Si 11.3482 17.6151 1.53877
Si 12.243 8.82763 1.06285
Si 9.40847 9.91682 1.66392
Si 0.162479 16.5747 2.76906
O 11.2564 11.8741 6.74469
O 0.640644 9.22706 6.806
O 11.1089 9.80706 1.76521
O 1.18203 15.8511 3.91479
O 11.4718 8.50428 16.7752
O 0.492292 15.6048 1.29094
O 9.36492 11.6693 1.50585
O 0.787636 -0.0175233 2.34293
O 10.9074 16.0233 1.59835
O 15.5535 11.4161 0.590121
O 12.0118 17.8867 2.96141
O 14.4467 16.4069 3.32454
Si 12.6373 2.54875 7.21243
Si 3.08758 1.21811 9.09369
Si 0.447684 6.10645 8.92023
Si 5.828 1.43474 10.7198
Si 14.1297 -0.106459 7.17099
Si 3.42287 5.30092 10.0407
O 15.0876 5.04184 9.37941
O 5.59494 18.0769 11.4034
O 1.64984 1.97747 9.77753
O 6.38609 7.42017 7.85123
O 0.759255 16.1798 10.1986
O 4.70399 5.75185 9.23033
O 13.2596 1.18751 7.44848
O 1.97258 5.8508 9.92693
O 3.54712 3.64405 9.99269
O 7.16197 1.27938 9.99579
O -0.157726 7.57402 8.56759
O 5.81789 2.9749 11.3257
Si 5.27786 4.69337 5.69843
Si 6.27592 0.866865 6.01355
Si 5.35056 7.29478 9.11674
Si 8.66819 4.94245 9.64914
Si 7.77177 1.91176 8.54721
Si 7.98799 7.40549 8.09735
O 3.73637 5.4514 11.6169
O 11.1533 17.2376 12.6745
O 8.10491 3.46426 8.82293
O 8.44098 8.8378 7.78887
O 6.60393 1.57857 7.45503
O 7.95738 6.4295 9.44449
O 9.49862 4.26375 5.75819
O 8.63918 6.69941 6.74401
O 5.71171 8.97784 4.67792
O 10.0824 5.33934 9.30023
O 7.65041 9.84828 9.79075
O 9.03259 4.42346 11.1235
Si 11.6686 4.57763 2.8395
Si 13.3267 18.0109 3.98348
Si 8.7415 10.1864 8.77278
Si 1.15693 1.89791 11.3651
Si 10.1933 1.03417 6.77156
Si -0.0846344 5.68881 5.92213
O 10.2708 10.1072 9.40308
O 12.6156 17.1334 10.1173
O 11.1165 2.5051 6.9773
O 0.876742 5.38638 7.31756
O 10.9109 17.9103 6.3396
O 13.009 3.6325 8.35172
O 9.01588 1.13511 7.86074
O 13.3924 12.1943 9.33846
O 14.1176 5.52864 6.52793
O 13.5555 16.9061 8.10864
O 8.73311 11.4944 7.90855
O 15.445 1.34422 11.7036
Si 13.7708 13.7924 9.28316
Si 2.23302 10.7052 3.864
Si 14.6069 12.9278 12.609
Si 4.013 14.4806 10.4004
Si 0.491477 9.1894 8.46612
Si 1.01024 17.0932 8.67777
O 6.87886 15.372 14.8153
O 2.03504 9.41629 9.01432
O 3.40904 10.4808 7.24339
O 1.56911 15.84 7.86501
O 2.86284 8.2104 5.1349
O 3.06759 15.7226 5.62599
O 15.4904 13.6733 9.50328
O 2.48362 17.9278 8.82681
O 0.00902494 13.8515 12.8699
O 2.55303 14.3192 10.025
O 15.6121 17.9915 8.23845
O 4.03075 11.0141 12.7425
Si 4.0726 14.5146 5.05109
Si 6.54629 10.4685 4.74144
Si 6.48478 14.8124 8.69215
Si 9.94284 12.4436 7.48416
Si 3.90671 11.6801 6.15886
Si 7.58626 16.2471 6.39706
O 4.95006 14.2459 9.15306
O 7.53114 8.82177 12.3931
O 10.3152 9.2638 5.76554
O 9.46562 1.56163 5.37068
O 5.45161 11.2966 5.65507
O 8.35452 15.5381 4.97556
O 3.9702 13.4339 6.19485
O 6.59053 17.346 6.04742
O 6.84493 14.9339 7.23637
O 10.0655 13.2287 8.89422
O 6.73996 16.1434 9.84172
O 9.65135 13.3047 5.99964
Si 9.65386 14.3928 4.9162
Si 1.16234 8.5382 5.29579
Si 10.3916 16.5161 6.81779
Si 14.0196 10.9075 10.1722
Si 11.5725 10.5505 5.72468
Si 12.5259 15.7804 8.94721
O 8.83191 16.6054 7.34404
O 12.5338 9.92885 10.372
O 1.04681 9.65387 4.19763
O 12.6996 14.5739 10.1646
O 13.0299 10.0018 5.57953
O 1.68404 -0.0347611 4.74461
O 10.7593 15.218 5.80699
O 13.4722 17.6012 5.4811
O 10.9757 16.1635 8.25636
O 15.2211 10.0725 9.30895
O 11.4675 1.71615 15.4363
O 14.6551 12.1952 11.1181
Si 13.6012 4.31323 9.70147
Si 6.74953 0.726453 15.8393
Si 2.65666 6.41101 16.5451
Si 4.04142 2.01802 1.90237
Si 4.03383 1.94859 16.3286
Si 4.94013 4.78604 15.5946
O 1.09218 5.76603 16.1466
O 5.97838 17.8711 14.7858
O 3.83512 1.305 0.555411
O 5.55212 5.96808 16.3704
O 1.0707 2.95696 12.7323
O 3.9079 3.1209 12.8968
O 0.108673 17.7221 14.1991
O 4.13062 8.38714 8.90414
O 3.64163 5.96537 15.3096
O 7.23204 16.0739 12.2211
O 2.41448 8.1149 16.4242
O 3.51432 3.67929 1.78791
Si 4.21397 3.86104 11.5624
Si 5.98727 16.5072 11.3118
Si 6.35204 7.32496 15.7793
Si 13.3301 1.75698 14.8791
Si 7.51416 3.34475 14.9393
Si 7.53486 7.32209 13.1502
O 7.83679 7.05815 16.8289
O 9.90035 0.0664544 1.08112
O 7.82362 1.64276 15.0034
O 9.12909 7.04262 13.8978
O 8.27951 3.37849 13.5265
O 7.65057 5.80278 12.5925
O 5.58795 1.80507 16.5552
O 5.77168 8.00409 10.6389
O 6.24332 7.05945 14.1851
O 13.6523 2.51641 13.5579
O 5.16176 4.8369 4.09448
O 8.30448 3.98951 16.1679
Si 8.86265 4.5282 12.6597
Si 12.4542 17.5842 11.7388
Si 10.3494 6.25108 14.5899
Si 14.3934 17.24 14.0684
Si 13.9156 1.89509 11.5882
Si 11.1702 6.46517 9.83002
O 10.0841 6.128 16.2583
O 1.05882 1.09385 15.9094
O 0.398233 17.1667 16.6515
O 3.89312 3.48018 16.2085
O 14.3823 15.7279 14.5605
O 12.5505 5.80706 9.97732
O 10.2255 4.88912 13.4713
O 11.0315 7.78109 10.4714
O 13.8505 3.35748 10.9312
O 13.1303 18.0909 14.9365
O 11.8934 6.61122 14.4583
O 13.8819 17.5077 12.6899
Si 1.5737 13.5084 13.2893
Si 3.60599 9.88786 8.69894
Si 2.74379 15.724 14.6649
Si 4.59902 11.5453 11.3875
Si 2.58593 11.2491 13.6486
Si 2.72213 2.10067 13.4742
O 1.9942 14.7425 15.8961
O 2.18283 9.94481 14.5431
O 6.0626 10.7711 11.3493
O 2.07124 0.811816 12.2235
O 1.77386 12.2269 12.447
O 6.0252 3.87865 14.6788
O 2.29932 12.6607 14.6095
O 4.64073 15.5714 11.2898
O 2.22085 14.9774 13.321
O 9.23529 13.7579 11.4827
O 3.40653 1.41161 14.815
O 4.38318 13.1236 11.297
Si 0.875128 14.8059 9.39521
Si 6.60218 9.37174 11.0376
Si 7.87415 15.0162 13.4468
Si 8.94415 11.2005 15.1092
Si 8.86042 13.1206 9.9784
Si 10.4813 16.4085 13.9938
O 4.44921 14.3467 1.32997
O 11.7533 15.524 14.6459
O 7.24771 13.4436 12.9813
O 9.16458 12.2621 16.261
O 8.53911 11.6701 10.8468
O 7.45927 13.7144 9.49164
O 4.03245 10.6852 10.0915
O 12.4867 1.04973 11.3474
O 9.5878 14.8851 13.7203
O 9.77088 9.67767 14.8214
O 8.22627 16.1812 1.5197
O 7.27472 10.4656 15.8887
Si 13.2133 14.6363 14.258
Si 10.9648 9.4054 10.6195
Si 11.7556 0.104261 15.8693
Si 14.7062 10.1828 17.156
Si 11.3365 9.98833 13.7866
Si 13.3016 12.0832 14.9291
O 10.4468 17.6209 15.2784
O 13.7546 9.45614 0.983296
O 12.4901 8.99326 14.2424
O 2.30413 17.3611 14.8915
O 10.7839 9.7619 12.194
O 14.5984 11.7558 13.8441
O 11.8094 11.5144 14.2038
O 13.1596 13.9724 12.7197
O 13.3569 13.7252 15.55
O -0.0693233 9.62996 16.1634
O 12.246 17.7268 0.0426515
O 13.6106 11.1658 16.2989
324
 Atoms. Timestep: 16500
Si 0.341345 5.16322 -0.0171638
Si 5.51545 16.0346 15.2068
Si 3.86781 8.72676 4.3961
Si 3.41083 2.73555 6.6778
Si 2.30953 1.30644 4.38239
Si 3.80512 5.98413 3.78328
O 3.73366 6.19315 5.51456
O 4.21851 1.29462 9.54286
O 2.75883 2.8657 5.23528
O 6.32634 8.02952 16.8456
O 3.34556 1.65294 3.22623
O 2.38386 5.84641 2.97371
O 1.01018 4.83661 1.37363
O 3.0164 6.40386 0.458863
O 4.36688 7.55371 3.28586
O 4.41593 1.50421 6.70098
O 3.00494 9.48573 3.3345
O 4.24423 4.07956 6.942
Si 2.69947 5.29699 1.56661
Si 8.38494 17.9323 1.19034
Si 7.82904 5.51248 4.94613
Si 9.55961 3.13317 4.24714
Si 6.5092 1.1422 3.09854
Si 8.77488 5.0147 2.47389
O 6.31455 5.16898 5.77383
O 6.66009 1.96568 4.4478
O 8.74591 3.40275 2.6003
O 12.3954 5.00069 1.4727
O 7.71592 0.267511 17.1149
O 9.01964 4.95801 0.815614
O 5.43787 1.7732 1.98141
O 8.40017 9.02674 0.651283
O 7.42836 5.88402 3.3685
O 11.1704 3.46138 3.66168
O 6.52803 11.1256 3.39377
O 10.2619 5.5893 2.73293
Si 8.75071 4.95294 16.5824
Si 0.938155 17.8133 15.8618
Si 14.0264 4.82052 5.01322
Si 15.5848 1.06086 2.39514
Si 0.188947 2.25454 16.9482
Si 13.3576 5.84125 0.264304
O 12.7982 5.04736 3.90089
O 14.157 0.693576 2.90581
O -0.0384852 2.28968 1.30362
O 13.6058 7.35291 0.950227
O 14.4725 1.70915 16.6022
O 0.826288 3.56762 16.4018
O 14.7161 5.13646 0.236487
O 12.9352 6.14527 16.0863
O 15.6657 4.79802 4.6901
O 0.887625 1.29085 3.51169
O 0.570234 7.31953 5.003
O 13.4803 3.59972 5.86963
Si 1.63484 15.445 0.0197626
Si 1.66742 9.6348 16.1596
Si 2.31002 16.8922 4.4968
Si 3.55626 13.1643 1.64634
Si 1.43361 11.679 0.942431
Si 4.53033 15.9902 0.605909
O 13.8643 14.276 7.44244
O 3.20687 11.5523 4.73211
O 1.51992 11.6334 2.5992
O 3.3872 17.5819 3.39706
O 2.28872 10.5667 0.0194334
O 4.16634 15.653 14.4663
O 2.19178 13.1449 0.662901
O 5.25728 16.4885 16.6988
O 3.06404 16.1844 0.457123
O 4.32958 11.8063 1.85542
O 2.57848 2.72106 8.0399
O 3.02506 13.8301 3.20395
Si 9.20773 12.8861 12.39
Si 7.11493 9.41549 17.1092
Si 4.94914 16.8868 3.3143
Si 9.35073 9.70028 4.69778
Si 6.05779 11.2764 1.7498
Si 9.44164 15.2565 2.12488
O 5.12954 15.4545 4.1024
O 7.85747 10.1674 5.32956
O 7.19436 12.1051 1.00093
O 9.96414 14.5993 3.63511
O 5.91385 9.94564 0.718662
O 9.01506 13.7198 1.75053
O 9.012 11.9479 13.8286
O 7.70238 0.882872 2.20043
O 5.32394 17.0176 1.76237
O 9.22787 8.93485 3.32758
O 6.02744 18.0225 3.88734
O 10.399 11.1169 4.15559
Si 8.77157 12.3842 0.875251
Si 12.3149 7.52517 15.327
Si 11.4942 17.2502 1.45857
Si 12.4513 8.59405 0.831745
Si 9.54366 9.53274 1.85421
Si -0.0505019 16.3871 2.53874
O 11.2026 11.6479 6.65578
O 0.73406 8.8773 7.08838
O 11.1702 8.8836 1.73759
O 0.849351 16.4744 4.05388
O 11.8538 8.36588 16.7242
O 0.758486 15.2174 1.49061
O 9.79199 11.1944 1.39353
O -0.0759307 17.8788 1.69725
O 10.8941 15.6058 1.46388
O 15.5707 11.737 0.378549
O 12.0166 17.5204 2.9418
O 14.333 16.1361 3.10498
Si 13.1865 2.50552 7.20536
Si 2.52911 1.58197 9.19802
Si 0.725685 5.78421 8.84263
Si 5.59384 1.34633 10.2386
Si 14.1674 17.8972 6.87192
Si 3.71952 5.3727 10.0581
O 15.6111 4.55587 9.47588
O 5.41011 0.0425662 11.2565
O 1.6828 1.83744 10.6012
O 6.5343 7.51288 8.09016
O 0.118474 16.9028 9.96886
O 4.39309 6.46895 9.03876
O 14.0249 1.21893 7.29237
O 2.02003 5.64487 10.0124
O 3.65217 3.61034 10.0403
O 6.99872 1.4344 9.47719
O 0.395043 7.55166 9.06195
O 5.77793 2.78192 10.9962
Si 4.79001 4.94809 5.62893
Si 6.13077 1.53881 5.97755
Si 5.26424 8.05721 8.94245
Si 9.42362 4.64852 9.29741
Si 7.79603 2.08874 8.08507
Si 8.02288 7.15259 7.72545
O 4.58037 5.32259 11.6073
O 11.423 17.2122 12.8891
O 8.65523 3.41297 8.52535
O 9.18479 8.01954 8.549
O 6.64755 2.63559 6.98909
O 8.40119 5.68402 8.58444
O 8.73356 4.12882 5.22276
O 8.263 6.85014 5.97754
O 5.2068 9.39292 4.55339
O 11.027 5.26995 8.74945
O 7.79353 9.8156 9.98795
O 9.22979 4.61761 10.8256
Si 11.5783 4.75387 2.79677
Si 13.5732 17.7113 3.66308
Si 9.01487 9.64175 8.90225
Si 0.945974 1.52835 11.9231
Si 10.5461 1.1619 6.34127
Si 0.0322915 5.89289 5.77955
O 10.4718 9.85186 9.72277
O 12.507 16.936 10.4174
O 11.6634 2.2924 6.79012
O 0.920892 5.48687 7.20217
O 10.8407 17.9158 6.62359
O 13.2421 3.49866 8.54425
O 9.1579 1.1202 7.32634
O 14.242 12.2387 9.21352
O 14.2987 6.36897 6.19418
O 13.7794 16.9767 8.04511
O 8.86495 10.8767 7.82315
O 15.3739 0.819346 11.9598
Si 14.1936 13.754 8.8902
Si 2.22249 10.7483 3.85124
Si 14.3927 12.4932 12.8755
Si 3.80091 14.4011 10.8481
Si 0.462815 9.01459 8.6128
Si 0.834391 17.2041 8.38171
O 6.68922 14.921 14.6455
O 1.92193 9.70258 8.99606
O 3.38259 11.5939 7.6711
O 1.33396 15.5631 8.20028
O 2.97229 8.75046 5.71421
O 2.81766 15.4211 5.39345
O 15.4563 14.1941 9.69013
O 2.00812 0.0646732 8.58905
O 15.6596 13.766 12.9206
O 2.12095 14.4761 10.5868
O -0.060072 17.7107 7.25717
O 4.04128 10.7888 13.2652
Si 3.74104 14.5069 4.50861
Si 6.37867 10.4385 5.07857
Si 6.4417 14.9193 8.92354
Si 9.79789 12.3279 7.34023
Si 3.89594 11.9735 6.08156
Si 7.33078 16.6809 6.61752
O 5.05974 14.3209 9.38653
O 7.48086 8.84438 12.3267
O 10.4681 9.02639 5.71548
O 9.6749 1.80024 5.03477
O 5.70386 11.5218 6.00924
O 8.04998 15.9166 5.20249
O 4.28864 13.6028 5.65568
O 6.57615 -0.100191 6.46793
O 6.53878 15.2403 7.26222
O 10.0628 12.8804 8.83607
O 6.43393 16.4562 9.68408
O 9.12302 13.5893 6.34661
Si 9.40349 14.7053 5.22748
Si 1.28133 8.66111 5.65563
Si 9.94096 16.454 7.27279
Si 14.1283 10.8758 10.0947
Si 11.4042 10.52 5.44575
Si 12.6339 16.1532 8.85649
O 8.51992 16.7396 7.89827
O 12.8987 10.0272 10.8715
O 0.870369 10.0396 4.72353
O 13.1234 14.6911 9.79898
O 12.9506 10.5783 5.14458
O 2.13354 0.0599985 5.34643
O 10.5472 15.5319 5.91012
O 13.7278 17.5218 5.42096
O 11.094 15.9129 8.32142
O 14.9712 9.72131 9.33979
O 12.081 1.44066 15.6297
O 14.4166 11.9764 11.4524
Si 14.0983 4.05095 9.93593
Si 6.57182 0.354246 15.93
Si 2.38178 6.81488 16.3178
Si 4.03145 2.37245 1.83992
Si 3.81251 1.88041 16.4384
Si 4.53214 4.82876 15.7931
O 0.845371 6.24861 16.4281
O 6.44992 17.4424 14.7313
O 3.26827 1.77752 0.591426
O 5.82047 5.65159 16.5045
O 1.20958 2.48236 13.2046
O 3.65858 2.76104 12.7367
O 15.6216 17.859 14.7958
O 4.74295 9.64612 8.33553
O 3.46485 6.02505 15.2403
O 6.74163 15.9279 12.097
O 2.4564 8.25049 15.5751
O 3.95364 4.22025 1.50995
Si 4.50924 3.6385 11.5683
Si 5.74863 16.743 11.1655
Si 6.72639 6.83112 16.0194
Si 13.715 1.46022 15.1866
Si 7.15148 3.19676 14.5586
Si 7.49347 7.27924 13.163
O 8.58582 6.48567 16.1419
O 10.1165 18.0217 1.1242
O 7.09778 1.72064 15.0047
O 8.70124 7.43118 14.0365
O 7.89747 3.61932 13.0092
O 7.18149 5.95548 11.9549
O 5.10688 0.963096 16.3004
O 5.6925 8.39198 10.55
O 6.55169 7.05489 14.4067
O 13.5198 2.47344 13.7054
O 4.79292 4.66497 3.95459
O 7.89439 3.80257 16.0013
Si 8.41131 4.95939 12.2505
Si 12.6445 17.1634 11.8437
Si 9.83012 6.19926 14.4589
Si 14.3552 16.8014 14.3058
Si 13.8188 1.82315 12.0417
Si 12.0371 5.92918 9.66859
O 10.0541 4.92779 15.6142
O 1.11719 0.834465 16.7373
O 0.579608 16.5387 16.67
O 3.74099 3.56779 16.2911
O 13.7375 15.4762 15.0768
O 13.4164 5.58333 10.1366
O 9.79836 5.15136 13.2378
O 11.8059 7.44379 10.6316
O 13.58 3.26214 11.2293
O 13.4279 18.0088 15.0912
O 11.2288 6.92287 14.2739
O 14.029 16.7209 12.8515
Si 1.46979 13.408 13.2058
Si 3.47179 10.536 8.95214
Si 2.53826 15.5861 14.6518
Si 4.36427 11.3666 11.7121
Si 2.51185 11.3517 13.6939
Si 2.61894 1.60382 13.4645
O 2.20156 14.7391 15.978
O 1.53326 10.2958 14.5511
O 5.85703 10.8526 11.2925
O 2.09478 0.409569 12.5327
O 1.74581 12.082 12.3717
O 5.68441 3.91872 14.8549
O 2.40482 12.8976 14.4165
O 4.4887 15.7005 11.5756
O 1.54749 14.9404 13.5663
O 10.2662 13.6792 11.1403
O 2.93164 1.51678 15.1184
O 4.20534 13.0375 11.5689
Si 0.678267 15.4034 9.72942
Si 6.67125 9.60325 11.0345
Si 7.7014 15.5503 13.5247
Si 8.89546 11.1936 15.1823
Si 9.11494 13.5803 9.94538
Si 10.4924 16.598 14.1133
O 4.72281 14.2007 1.05281
O 11.0911 15.0146 14.4909
O 8.75259 14.3811 13.0562
O 8.96324 12.3962 16.5573
O 8.37419 12.1803 11.0482
O 8.02287 14.7041 9.35168
O 3.43103 10.7924 10.5567
O 12.8097 0.783225 11.8855
O 8.89579 16.6774 13.8421
O 10.1198 10.0333 14.736
O 8.25796 16.503 2.11286
O 7.75799 10.0071 15.5849
Si 12.5901 14.3098 14.6537
Si 11.3346 9.05798 11.0354
Si 12.1053 18.0549 16.0237
Si 14.718 10.2096 -0.0210785
Si 11.4719 9.75431 13.7761
Si 13.2569 11.7018 15.1058
O 10.7095 17.4432 15.6264
O 13.5161 9.76644 1.11492
O 12.5934 8.73613 14.319
O 2.38438 17.1498 15.1367
O 10.7195 9.20539 12.5383
O 14.4707 11.3427 14.0823
O 11.9004 11.2483 14.2901
O 12.9413 13.3557 13.1607
O 12.8648 13.1577 15.6493
O 0.157116 9.29572 16.6656
O 12.5689 17.3576 0.134365
O 13.5953 10.7562 16.2306
324
 Atoms. Timestep: 17000
Si 0.96134 4.33926 17.0938
Si 5.60591 16.0003 15.2549
Si 3.93946 8.53961 4.50363
Si 3.13602 2.95068 6.90852
Si 1.77836 1.7643 4.58008
Si 3.84887 5.84567 4.44358
O 4.27951 6.45112 5.97378
O 4.19953 0.836613 10.0609
O 2.04444 3.0254 5.61555
O 6.33578 8.15341 16.7287
O 2.85732 2.07203 3.27092
O 2.3447 5.38357 3.54354
O 1.28933 4.26473 1.3102
O 2.88971 5.99504 0.535631
O 4.18355 7.27078 3.55607
O 4.43552 1.57529 6.18729
O 3.30879 9.43501 3.42721
O 3.99401 4.24436 7.03462
Si 2.76341 5.01429 1.85368
Si 8.09903 17.7603 0.907749
Si 8.03099 5.39965 4.99593
Si 10.0899 3.42164 4.47617
Si 6.37032 1.22579 3.12048
Si 8.92578 4.77029 2.35564
O 6.75494 4.93231 5.9866
O 6.97666 1.94001 4.49807
O 9.1802 3.44543 3.21601
O 12.6094 4.44535 1.28155
O 7.79824 0.112806 16.5687
O 8.46034 4.53008 0.792101
O 5.26406 1.95217 2.15387
O 8.81711 8.83321 0.296051
O 7.74729 5.45453 3.34733
O 11.5481 3.64771 3.84426
O 6.95912 11.2841 3.49034
O 10.3167 5.56928 2.38188
Si 8.215 4.59938 16.4535
Si 0.760993 17.2445 15.4117
Si 13.8912 5.08548 5.31904
Si 15.4771 1.1111 2.19666
Si -0.043967 1.82587 16.7569
Si 13.6778 5.61416 0.429648
O 13.2382 5.55871 3.73549
O 14.085 0.825956 2.92781
O -0.127544 2.00279 0.993875
O 13.016 6.72046 1.7422
O 14.3207 2.46534 16.4532
O 0.901831 3.04341 16.3515
O 15.0356 4.9219 0.170022
O 13.734 6.39085 16.2284
O 15.5023 4.67806 5.22453
O 0.362499 1.93972 3.73216
O 1.00023 7.19927 5.27674
O 13.1039 4.00622 6.00864
Si 1.6359 15.4468 0.158658
Si 1.60028 9.59527 16.3415
Si 2.17769 17.1535 4.34054
Si 3.7652 13.0752 2.14483
Si 1.41999 11.4645 1.27433
Si 4.33095 15.6224 0.595476
O 15.5448 13.4781 6.95546
O 3.46228 11.5657 4.71218
O 1.2211 11.3387 2.89584
O 3.17303 16.9088 2.97916
O 2.32932 10.5992 0.112745
O 4.61977 15.3097 14.1065
O 2.26936 12.8026 1.5641
O 5.127 16.2864 16.7331
O 2.93302 16.428 0.471706
O 5.03275 11.9828 1.82757
O 2.79399 2.34102 8.25718
O 3.63876 13.9111 3.37153
Si 8.80172 12.9123 12.4995
Si 7.29519 9.40231 17.1333
Si 4.86558 16.7835 3.24332
Si 9.10424 9.74217 4.47868
Si 6.54176 11.6307 1.74822
Si 9.12184 15.1476 1.84722
O 5.04609 15.7369 4.66409
O 7.69866 10.0877 5.34833
O 7.39373 12.2927 0.564836
O 8.62824 14.6662 3.45807
O 6.82868 10.1186 1.2134
O 9.49821 13.8536 0.990697
O 9.08014 11.8455 13.6661
O 7.27935 0.696325 1.92252
O 5.39337 16.3025 1.77551
O 8.67144 8.92083 2.93258
O 5.44074 0.135303 3.94466
O 9.64256 11.2698 4.33459
Si 8.97237 12.3992 0.482136
Si 12.4045 7.31411 15.6747
Si 11.2523 17.3403 1.8489
Si 12.5674 8.32847 1.28062
Si 9.54755 9.51388 1.62258
Si 0.0441725 16.3328 2.67806
O 10.9556 11.4945 7.13343
O 0.220367 8.77787 7.39338
O 11.2783 9.00909 2.05188
O 0.681538 16.522 4.14137
O 12.1151 8.19536 17.0458
O 0.687997 15.2975 1.5056
O 9.53295 11.1697 1.36083
O 0.380411 17.9105 1.68278
O 10.717 15.7628 2.06644
O -0.0924058 11.6545 0.725613
O 11.9015 17.9177 3.30293
O 14.1429 16.2404 2.66126
Si 13.364 2.56727 6.85171
Si 2.62318 0.996491 9.20216
Si 0.793659 6.05691 9.17379
Si 5.88466 1.38795 10.3794
Si 14.1253 17.6261 6.53241
Si 3.86761 5.6221 9.97664
O 0.0341286 4.67073 9.36143
O 5.9523 0.357759 11.5303
O 1.39814 1.40647 10.3196
O 6.45303 7.81409 7.41449
O 0.464244 16.233 9.49638
O 4.78057 6.53904 9.14111
O 13.9288 1.13161 6.34749
O 2.37241 6.01265 9.90307
O 4.04096 3.93695 9.84204
O 7.19485 1.24745 9.37191
O 0.119699 7.64445 9.43279
O 6.01866 2.97325 11.0873
Si 5.17553 4.80158 5.93583
Si 6.10133 1.57229 5.91428
Si 5.31636 7.9411 8.70602
Si 8.76265 4.79574 9.12927
Si 8.11051 2.02098 8.09315
Si 7.96751 7.27913 7.31688
O 4.54727 5.57626 11.5284
O 10.856 17.2841 12.8902
O 8.631 3.66189 8.14211
O 8.93889 8.35558 8.16304
O 6.81871 2.52542 7.15939
O 8.21521 6.04897 8.36286
O 9.35422 4.50967 5.49173
O 8.65989 6.76753 6.00864
O 5.38779 9.23217 4.87008
O 10.2165 5.50439 9.72018
O 7.95729 9.75753 10.1986
O 8.09506 4.42688 10.6818
Si 12.025 5.02129 2.67312
Si 13.453 17.4823 3.64297
Si 8.84852 9.73009 8.78669
Si 1.25853 1.25913 11.9442
Si 10.6944 1.24976 6.62732
Si -0.00785451 6.14933 6.23552
O 10.3169 9.60262 9.66961
O 12.8327 16.8753 10.5096
O 11.958 2.0048 7.16078
O 1.09616 5.92875 7.36175
O 10.8309 17.8884 6.36677
O 14.3279 2.93806 8.25067
O 9.47483 0.992634 7.69375
O 14.1502 12.6095 9.1482
O 14.083 6.44299 6.3416
O 13.3555 17.4271 7.95048
O 8.48554 11.0074 7.74565
O 15.3877 0.764247 12.339
Si 14.8761 13.92 8.324
Si 2.2308 10.5333 4.07277
Si 14.678 13.0654 12.7399
Si 4.1433 14.6672 11.012
Si 0.441074 9.29173 8.91348
Si 1.1213 16.6565 7.95241
O 7.02271 15.1618 14.9443
O 1.91861 9.7533 8.91067
O 3.49712 11.457 7.38358
O 1.84668 15.3319 7.58562
O 2.93528 9.08246 6.01537
O 2.81767 16.1944 5.24664
O 0.317583 13.6077 9.35563
O 2.1056 17.9893 8.0643
O 15.7738 14.5017 12.7052
O 2.75607 14.0458 10.2258
O 15.5457 17.2529 7.18196
O 2.96538 11.2887 12.4221
Si 3.80234 14.7001 4.85669
Si 6.2273 10.5682 4.74818
Si 6.36373 15.4478 9.22235
Si 9.60755 12.454 7.42917
Si 4.27645 12.1165 5.97682
Si 7.1389 16.7811 6.85186
O 4.67686 14.7329 9.37486
O 7.35532 8.77686 12.5867
O 10.2596 9.27983 5.55979
O 10.4468 2.06492 5.26562
O 5.78698 11.7558 5.78855
O 7.34476 15.2507 5.74917
O 4.12693 13.6879 5.9351
O 7.01513 0.0688886 6.15808
O 6.04862 16.2752 7.88744
O 9.53833 13.2736 8.82406
O 6.98411 16.5266 10.1538
O 8.80804 13.2511 6.18129
Si 8.57958 14.4384 5.04178
Si 1.20407 8.89571 6.06136
Si 9.95492 16.6108 7.17464
Si 14.1388 11.2872 10.119
Si 11.138 10.9362 5.38083
Si 12.7433 16.408 8.9105
O 8.51323 16.9673 7.73679
O 13.0682 9.98116 9.66577
O 0.918966 10.0001 4.87717
O 13.2806 14.8938 8.4837
O 12.4132 11.0543 4.4732
O 2.11651 0.37782 5.26189
O 9.90695 15.554 5.88233
O 13.7605 16.6334 5.1788
O 11.0499 16.4413 8.45052
O 15.542 10.291 9.86276
O 11.922 1.40556 15.8541
O 14.0919 11.9097 11.724
Si 14.3465 3.80429 9.73797
Si 6.41561 0.507201 15.9003
Si 2.42047 6.43671 16.1313
Si 3.79879 2.41293 1.93872
Si 4.17875 1.95274 16.4957
Si 4.51374 4.84284 15.2274
O 1.05246 5.52183 16.0894
O 5.93977 17.626 14.9844
O 3.24465 1.75604 0.451002
O 5.05571 5.79399 16.4852
O 1.35787 2.67346 12.9946
O 3.64746 3.4615 12.5346
O 15.537 16.8965 14.2272
O 4.39793 9.23491 8.16978
O 3.11875 5.53566 14.8748
O 7.23333 16.7585 12.6378
O 2.13537 8.0013 16.0951
O 3.9645 4.07315 1.71941
Si 4.65219 3.80838 11.2892
Si 6.0602 16.9568 11.5772
Si 6.29014 6.68434 16.1527
Si 13.3735 2.05033 15.2215
Si 6.88912 3.14827 14.2537
Si 7.54116 7.19643 13.3444
O 7.87274 6.19775 16.6849
O 9.72083 17.9716 1.48981
O 6.93771 1.5617 14.5305
O 9.04824 7.17044 13.9325
O 7.73439 3.42239 12.8938
O 7.48633 6.27357 11.84
O 5.25733 0.704954 16.9137
O 5.7684 8.6339 10.1589
O 6.38105 6.93976 14.3078
O 13.6057 2.63121 13.6687
O 4.47875 4.29641 4.58861
O 7.07938 3.74569 15.8391
Si 8.26987 4.859 12.1594
Si 12.2958 17.702 11.8746
Si 9.82624 5.74871 14.4696
Si 13.9896 16.6592 14.234
Si 14.1357 1.83269 12.3507
Si 11.6816 5.87073 10.0964
O 9.60415 4.21539 15.635
O -0.144561 0.561277 15.7361
O 0.527836 16.2553 16.5617
O 4.29821 3.70507 16.4966
O 13.4795 15.255 14.8368
O 13.0652 4.93548 9.74321
O 9.70453 5.07943 12.7358
O 12.3318 7.39652 10.5678
O 14.4063 2.92784 11.1263
O 13.352 17.8536 15.2503
O 11.0875 6.41773 15.2773
O 13.58 17.1734 12.9051
Si 1.27817 13.7048 13.3508
Si 3.47606 10.4668 8.66295
Si 2.91853 15.571 14.6928
Si 4.39484 11.704 11.3891
Si 1.81909 11.284 13.5596
Si 2.97048 2.14845 13.3505
O 2.38381 14.6909 16.0967
O 1.72303 10.0581 14.5947
O 5.69923 10.7498 11.7532
O 2.72485 0.580046 12.5247
O 0.43815 12.2263 12.5237
O 5.48944 4.24135 14.089
O 1.82389 12.7389 14.4395
O 4.58035 16.1546 11.7433
O 2.26012 15.003 13.3358
O 9.7581 13.3959 11.3238
O 3.3327 1.78372 14.9027
O 4.66218 13.3067 11.8147
Si 1.45945 14.6562 9.03185
Si 6.64637 9.34948 11.1817
Si 8.05788 15.7554 13.5915
Si 9.27287 10.8989 15.0164
Si 8.55812 13.3661 10.0812
Si 10.515 16.6693 14.3114
O 4.26833 14.1321 1.16353
O 11.0973 15.1767 14.2574
O 8.61128 14.4551 13.1664
O 9.87693 11.9388 16.3719
O 7.54283 12.9 11.3855
O 7.70951 14.4961 9.21613
O 3.82769 11.2442 9.91021
O 12.5309 1.03179 11.766
O 8.95184 16.8902 14.1394
O 10.1864 9.44118 14.7341
O 7.88023 16.0767 1.29181
O 7.56838 10.3823 15.7871
Si 12.3325 14.2283 14.2997
Si 11.8039 9.21303 10.4994
Si 12.2009 17.9894 16.2777
Si 14.7954 10.4201 0.19862
Si 11.5891 9.74696 13.6725
Si 13.3954 11.7381 15.2075
O 10.8674 17.1241 15.8517
O 13.9211 9.31569 1.09665
O 12.5662 8.38985 14.4163
O 2.32632 17.0979 14.8437
O 11.2264 9.55876 12.106
O 14.7527 12.1125 14.2028
O 12.4505 10.9364 14.178
O 13.0009 13.7716 12.8607
O 12.3098 12.9513 15.5797
O 0.166648 9.50598 16.8903
O 12.1169 17.8628 0.642523
O 13.5718 11.155 16.7752
324
 Atoms. Timestep: 17500
Si 0.400759 4.86109 0.127164
Si 5.42054 15.9758 15.6549
Si 4.01448 8.57498 4.07831
Si 3.64794 2.16171 6.37088
Si 1.97422 1.64921 4.09621
Si 3.99504 5.86137 4.29602
O 4.01016 5.38655 5.88504
O 4.65772 0.819237 9.6546
O 2.30332 2.61252 5.36298
O 6.36684 8.74468 16.7602
O 3.05637 1.93309 2.91987
O 2.48104 5.93371 3.46948
O 1.02229 4.38011 1.87324
O 2.21776 6.17792 0.761214
O 4.93394 7.223 4.03868
O 4.84732 0.872843 6.21388
O 3.26801 9.67498 3.25146
O 4.65446 3.30322 6.64862
Si 2.52538 5.01547 1.94023
Si 8.05109 17.6313 1.22685
Si 8.43044 5.36563 5.38219
Si 10.1224 2.85439 4.55845
Si 6.53656 1.50654 3.03733
Si 9.24692 4.71915 2.67241
O 6.84715 5.11651 5.91065
O 6.90195 2.02641 4.47586
O 9.07622 3.11896 3.33611
O 12.9904 4.70763 1.7114
O 7.52255 0.340968 17.1421
O 9.03486 4.64124 1.20156
O 5.603 2.21078 1.92665
O 8.93935 8.85003 0.638187
O 8.24344 5.39499 3.69692
O 11.6968 2.99056 3.90869
O 6.86047 11.2803 3.44816
O 10.8273 5.20736 3.29298
Si 8.4677 5.05279 16.8627
Si 1.13882 17.8583 15.2943
Si 13.9287 4.71074 5.47953
Si 15.4247 0.981677 2.16441
Si 15.4446 2.0857 16.5377
Si 13.4699 5.98516 0.745545
O 12.9467 5.43352 4.4679
O 14.3194 0.984099 3.31348
O 14.8103 1.44969 0.665382
O 13.2773 7.25458 1.68164
O 14.4897 2.49743 15.3424
O 0.0313166 3.50535 16.8189
O 15.0725 5.83495 0.736401
O 12.9024 5.62442 16.4797
O 15.582 5.0347 5.12047
O 0.643657 1.9383 2.93603
O 0.196491 7.48849 5.83017
O 13.363 3.265 6.01252
Si 1.22386 15.8789 -0.0653392
Si 1.1853 9.54486 15.9506
Si 1.75412 16.8343 4.71432
Si 3.82863 13.1292 2.01865
Si 1.30169 11.1647 1.11503
Si 4.35847 15.7916 0.887388
O 14.3261 13.7002 6.74138
O 2.65323 11.7876 4.83543
O 0.948652 11.2278 2.76684
O 3.12067 17.212 3.57342
O 2.07201 10.2651 17.1513
O 4.16369 15.1257 15.1956
O 2.42386 12.7143 1.28852
O 5.74949 16.094 0.0993498
O 2.96715 16.1306 0.105347
O 5.07837 12.0473 1.79888
O 2.88874 1.88828 7.79643
O 3.41194 14.1923 3.36852
Si 8.15289 12.7155 12.3336
Si 7.70168 9.52084 17.1241
Si 4.80625 17.1286 3.79722
Si 9.28026 10.2021 4.48417
Si 6.57582 11.8372 1.95091
Si 9.28146 15.0029 1.74686
O 4.98622 15.9346 5.0312
O 7.90709 10.2808 5.35686
O 7.51326 13.0893 1.38374
O 9.1824 14.2416 3.23803
O 6.87466 10.5666 0.870918
O 9.95014 13.7798 0.940883
O 8.53659 11.4868 13.3159
O 7.57711 0.487439 2.29024
O 4.98234 16.6469 2.25444
O 8.92935 9.25047 3.23971
O 5.37533 0.362289 3.70103
O 9.94615 11.5528 3.69691
Si 8.93649 12.5091 0.514509
Si 12.5282 6.9608 15.4428
Si 11.1316 17.534 1.82692
Si 12.539 8.54906 0.78344
Si 9.80548 9.60859 1.72574
Si -0.037255 16.3429 2.47688
O 10.4525 12.0687 6.43656
O 1.36779 9.05263 7.51191
O 11.3534 8.82034 1.81532
O 0.690139 16.0241 3.92328
O 11.805 7.69497 16.8568
O 0.377813 15.2888 1.22342
O 9.85256 10.9222 0.764919
O 0.635017 17.7989 2.27389
O 10.782 15.9646 1.98957
O -0.0682033 11.4126 0.231596
O 11.994 -0.0228403 3.12738
O 14.2099 16.3921 2.84968
Si 13.5238 2.48465 7.37296
Si 3.22893 0.706713 8.85298
Si 0.482387 6.65957 9.14359
Si 5.93258 1.37837 10.4332
Si 14.6967 17.7838 6.80233
Si 3.23963 5.68336 10.1609
O 15.3511 5.39244 9.99899
O 5.74052 0.207504 11.5882
O 2.11658 1.34114 9.91569
O 6.50711 7.72449 7.48832
O 0.691057 16.305 9.59977
O 4.38975 6.5463 9.15645
O 14.6312 1.16442 7.35955
O 1.82607 6.46736 10.1152
O 2.80304 3.92086 10.1662
O 7.36032 1.44222 9.72272
O 0.0311712 8.0486 9.45316
O 5.42179 2.86096 10.769
Si 5.32494 4.48802 5.56884
Si 6.43728 0.995145 5.81379
Si 5.4033 7.81129 8.98189
Si 8.75103 4.76237 9.50871
Si 7.91587 2.08275 8.20881
Si 8.05229 7.28981 7.66958
O 4.36584 5.1915 11.2839
O 10.715 17.708 12.264
O 8.24537 3.76861 8.35099
O 9.00992 8.62738 8.05129
O 7.39689 2.10823 6.83949
O 7.90694 6.32552 8.96765
O 9.82341 4.16225 5.70409
O 9.03091 6.58232 6.58156
O 5.46636 9.1754 4.68753
O 10.2325 5.22305 9.36026
O 7.92939 9.84955 10.0404
O 8.22471 4.22756 11.0995
Si 12.1074 4.33647 3.20405
Si 13.452 17.5895 3.5836
Si 8.79968 10.0872 8.81804
Si 1.44898 1.01247 11.383
Si 10.5993 0.984334 7.12656
Si 15.4801 6.08356 6.50764
O 10.1512 10.0347 10.0521
O 12.025 16.5397 10.157
O 11.6925 2.15775 7.56201
O 0.933614 6.02743 7.6229
O 10.8713 17.5367 7.03659
O 14.0501 3.76138 8.40491
O 9.40484 1.30411 8.19797
O 13.5545 12.4124 9.20565
O 13.8273 5.69775 6.81371
O 13.678 17.2029 7.87303
O 8.47704 11.455 8.0074
O 15.5091 0.960044 11.3041
Si 14.578 13.6514 8.31973
Si 1.88055 10.5952 3.98172
Si 14.3772 13.0278 12.4805
Si 4.03576 14.3093 11.0062
Si 0.778833 9.55906 8.95036
Si 1.56139 16.7054 8.23976
O 6.86634 15.0939 15.2197
O 2.01847 10.0295 9.88811
O 3.18316 11.0393 7.32251
O 2.2941 15.1317 8.32968
O 3.09292 8.47786 5.68274
O 2.10748 15.7548 5.84047
O 0.0687401 13.4721 9.47896
O 2.99145 17.4823 8.14561
O 15.6462 13.9172 12.1559
O 2.22932 14.1476 10.8629
O 0.574877 17.4897 7.02004
O 3.84716 11.0098 12.744
Si 3.51881 14.7479 4.84989
Si 6.33469 10.4339 5.04729
Si 6.27956 15.1339 9.03214
Si 9.29864 12.8274 7.1954
Si 3.84791 11.9089 6.0641
Si 7.73209 16.498 6.4036
O 4.79141 14.3518 9.55854
O 7.93902 8.6567 12.4102
O 10.6757 9.78416 5.49558
O 10.2751 1.53242 5.61362
O 5.32877 11.4202 5.86165
O 7.92528 15.7341 4.91371
O 3.76638 13.6679 6.1036
O 7.47327 17.9837 5.81215
O 6.5471 16.0022 7.5601
O 9.9311 13.2926 8.59437
O 6.59581 16.0536 10.4023
O 8.24097 13.3969 6.1244
Si 8.87517 14.4164 4.75268
Si 1.40041 8.68355 5.92716
Si 10.5639 16.0073 6.66212
Si 14.0868 11.1182 10.0714
Si 11.2837 11.383 5.26494
Si 12.8591 16.0491 8.65206
O 9.03586 16.2653 7.11973
O 13.0791 9.95281 10.344
O 0.960986 9.55762 4.61705
O 13.6909 14.8017 9.49119
O 12.7066 11.5515 4.88083
O 1.36141 0.373453 4.9103
O 10.3532 14.8721 5.33073
O 14.4461 17.4952 5.05783
O 11.8816 15.4463 7.51427
O 15.5485 10.6385 9.31091
O 11.9856 1.82275 15.7701
O 14.6439 11.721 11.6707
Si 14.1108 4.44502 9.99827
Si 6.57597 0.484969 15.8485
Si 1.99067 6.61841 16.3286
Si 4.08268 2.4712 1.83891
Si 3.96925 2.40064 16.3142
Si 4.55404 5.04022 15.9894
O 0.667819 5.84957 15.9897
O 5.54054 17.4865 15.1525
O 3.71582 1.43365 0.515717
O 5.24433 6.24142 16.7254
O 1.54734 2.57653 12.2384
O 3.99355 3.24802 12.8826
O 15.5435 17.325 14.2961
O 4.55248 9.20247 8.71872
O 3.23032 6.04445 15.5094
O 6.8809 16.6989 12.8857
O 1.92137 8.21333 16.2705
O 3.83209 4.05893 1.60725
Si 4.10168 3.59316 11.3274
Si 5.7822 16.7015 11.6913
Si 6.44462 7.22684 16.177
Si 13.1201 1.88588 14.7096
Si 6.69334 3.12627 15.1335
Si 7.76478 7.38788 13.4933
O 7.75825 6.39317 16.5981
O 9.71304 -0.0454782 1.41255
O 7.30489 1.48185 14.9191
O 9.25252 7.12011 14.1053
O 7.91752 3.79758 13.9612
O 7.42961 6.10748 12.4872
O 5.50321 2.10895 16.0635
O 6.05311 7.88313 10.7031
O 6.37859 7.02029 14.6144
O 13.1496 1.82207 13.1331
O 5.16099 4.39919 3.93554
O 7.40512 3.80968 16.5683
Si 8.28066 4.70132 12.5742
Si 12.2279 17.336 11.413
Si 10.1673 5.71921 14.365
Si 14.0307 16.7676 14.1617
Si 13.8788 1.67996 11.4802
Si 11.3548 6.43209 9.38451
O 9.58038 4.83012 15.6874
O 0.729909 1.27622 15.2984
O 0.897999 17.5853 17.0021
O 3.4016 3.8793 16.2906
O 13.4723 15.3147 14.8592
O 12.796 5.45977 9.48887
O 10.002 4.92476 13.0865
O 11.7337 7.78589 9.85414
O 14.2345 3.2508 11.126
O 13.436 -0.0144865 15.1085
O 11.7563 6.09516 14.3795
O 13.3437 17.0099 12.7354
Si 1.4096 13.577 12.9824
Si 3.46292 10.4776 8.85491
Si 2.5389 15.3539 14.9346
Si 4.84348 11.4924 11.468
Si 2.50964 11.3313 13.5904
Si 2.7544 2.12318 13.2552
O 1.40216 14.7156 16.0203
O 1.74644 10.087 14.4135
O 5.8655 10.2844 11.7196
O 2.1603 0.612543 12.9039
O 1.42413 11.9163 12.4923
O 5.51681 4.14708 14.7767
O 2.36549 12.849 14.4072
O 4.39429 15.6991 11.7202
O 1.90384 15.1013 13.5234
O 9.57502 13.0104 11.1312
O 3.14476 1.9513 14.7723
O 4.50541 13.1135 11.921
Si 1.16203 14.7679 9.65813
Si 7.05925 9.16027 11.242
Si 7.68441 15.425 13.8227
Si 8.85326 11.1433 14.8537
Si 8.8205 13.4591 9.75804
Si 10.5972 16.6548 13.8127
O 4.22694 14.2477 0.963533
O 11.0295 15.032 13.439
O 8.25213 13.9798 13.294
O 8.6433 12.5411 15.9526
O 7.35424 13.0428 10.9514
O 7.58408 14.1722 8.91932
O 3.9323 11.5924 9.91518
O 12.942 0.502309 10.7541
O 8.99733 16.175 14.2942
O 10.4474 10.5058 14.4487
O 8.10862 16.0517 1.2858
O 8.27144 10.1219 15.7038
Si 12.279 14.2724 14.2291
Si 11.5967 9.43053 10.548
Si 11.9996 0.0589155 16.288
Si 14.399 10.5205 17.0386
Si 11.4966 9.44007 13.6478
Si 13.1791 11.8159 14.705
O 11.1961 17.2263 15.1894
O 13.7947 9.65676 0.968896
O 12.5296 8.35459 14.415
O 2.58563 17.1276 14.9057
O 11.1491 9.08078 12.0382
O 14.4394 12.6751 14.1325
O 12.7951 10.4801 13.7167
O 13.0451 14.0824 12.7205
O 11.7712 12.982 14.9688
O 15.1415 9.38738 16.1248
O 12.0136 17.8208 0.534707
O 13.2467 11.3769 16.2805
324
 Atoms. Timestep: 18000
Si 0.0924577 5.20015 0.35433
Si 5.58418 16.4464 15.4756
Si 4.07145 8.65479 4.11326
Si 3.75072 2.2123 6.30207
Si 2.11272 1.40596 3.71903
Si 4.50275 5.89033 3.9435
O 4.59348 6.12078 5.70484
O 4.66695 0.818121 9.0992
O 2.70236 2.41186 4.79671
O 6.08268 8.45218 17.0699
O 3.26091 0.944367 2.73149
O 2.84093 5.68047 3.31282
O 1.34348 4.75363 1.22916
O 3.33963 6.54755 0.588779
O 4.77884 7.37265 3.30291
O 4.84683 0.757962 6.28387
O 3.18903 9.46345 3.03548
O 4.44824 3.60454 6.4109
Si 2.75404 5.07906 1.8659
Si 8.58669 -0.0109947 1.13552
Si 8.39679 5.05354 5.7706
Si 9.871 2.76049 4.60106
Si 6.6118 0.977423 3.4473
Si 9.2847 4.92177 3.10896
O 6.82898 4.45123 6.14234
O 6.96117 1.32036 4.8877
O 8.89798 3.35021 3.50771
O 12.5617 4.57575 1.71255
O 7.48307 0.345113 0.047878
O 8.78426 4.5283 1.61904
O 5.51414 1.70513 2.39922
O 8.51617 9.87657 0.63248
O 8.31361 5.68706 4.27801
O 11.4245 3.30268 4.04359
O 6.8534 11.4979 3.09965
O 10.6275 5.82889 3.29859
Si 8.62461 4.88387 17.0997
Si 0.705614 17.8726 15.1738
Si 14.3771 4.55981 5.77126
Si 15.2114 0.982921 2.22927
Si 14.9023 2.32203 16.4077
Si 13.1422 6.21835 0.979444
O 13.6231 4.94144 4.11241
O 13.9411 1.16614 3.19544
O 15.0342 1.7883 0.743337
O 12.5771 7.66034 1.71069
O 13.7266 2.4139 15.4713
O 15.1462 4.04782 16.7699
O 14.7622 5.97204 1.3851
O 12.9517 6.40386 16.5551
O 0.375533 4.90469 5.63264
O 1.14997 2.13766 2.67378
O 0.443684 7.66439 6.23101
O 13.8944 2.98441 6.16301
Si 1.42828 15.8421 0.146624
Si 1.24633 9.7576 15.7836
Si 1.80331 16.7623 4.68024
Si 3.35461 13.4008 2.09332
Si 1.27488 11.4715 1.03389
Si 4.15425 16.0497 0.878148
O 14.5481 14.1748 7.55371
O 2.73323 11.397 5.24783
O 1.55437 10.9195 2.46388
O 2.91227 16.8453 3.5481
O 2.03542 10.8382 16.8898
O 4.48045 15.9188 14.5636
O 1.84966 12.9982 1.7018
O 5.12984 16.6292 16.9723
O 2.62378 16.7985 0.626354
O 4.42313 12.0965 1.88989
O 2.63276 1.95109 7.42275
O 3.05496 13.7132 3.68335
Si 8.71341 12.9901 12.4633
Si 7.05589 9.67336 -0.0570985
Si 4.92699 16.3825 3.68673
Si 9.35058 10.7202 4.69463
Si 6.01637 11.8719 1.72805
Si 9.80106 15.1956 1.91854
O 5.05647 15.3089 4.89063
O 7.89367 10.3082 5.34221
O 7.02391 12.5882 0.682154
O 9.81142 14.1686 3.32271
O 5.83661 10.4806 0.80848
O 9.22512 14.2355 0.690065
O 9.06036 11.6897 13.3115
O 7.95048 0.959023 2.46555
O 5.09054 16.6263 2.11394
O 9.23641 9.93655 3.15475
O 5.66948 17.6731 4.16408
O 10.0034 12.208 4.66608
Si 8.63555 12.7334 0.516609
Si 12.1653 7.54768 15.5979
Si 11.3395 17.475 1.36227
Si 12.0721 8.9049 0.699127
Si 9.70533 10.2919 1.67226
Si 15.4177 16.3952 2.60941
O 11.54 11.7056 6.92063
O 1.19757 9.66961 7.18913
O 11.1583 9.6429 1.79877
O 0.408024 16.1341 4.15386
O 11.3239 8.34659 16.6251
O 0.438367 15.4119 1.52451
O 9.64969 11.825 1.56312
O 0.331214 17.8041 2.00474
O 11.2598 15.7745 1.63661
O 15.3485 11.6695 0.809724
O 11.6637 0.055614 2.78501
O 13.7934 16.7224 2.87451
Si 13.6433 2.26038 7.58541
Si 2.84191 0.867006 8.82182
Si 0.844357 6.10188 9.73248
Si 5.86266 1.3122 10.1038
Si 14.2334 17.6262 6.86339
Si 3.61552 5.55402 10.3955
O 15.263 5.15865 10.4086
O 5.52467 0.194507 11.5013
O 1.61255 1.61984 9.93315
O 6.52087 7.5254 8.15485
O 0.97845 15.9833 9.89671
O 4.31411 6.63146 9.39589
O 14.5234 0.8402 7.62283
O 2.09297 6.04392 10.6339
O 3.57566 4.09436 9.80251
O 7.50842 1.30428 10.0561
O 0.523128 7.72439 9.57277
O 5.72734 2.99031 10.3474
Si 5.40636 4.64597 5.58241
Si 6.4783 0.778144 6.27317
Si 5.1877 8.07467 9.05257
Si 9.12681 4.66534 9.65236
Si 8.24537 1.88206 8.61516
Si 8.04659 6.99737 8.15836
O 4.61412 5.07855 11.5406
O 11.1146 18.0913 12.6514
O 9.02328 3.29532 8.78404
O 8.80316 8.46409 8.04043
O 7.05547 1.72082 7.63727
O 8.22313 5.97834 9.49131
O 9.51564 3.84151 5.93394
O 8.86794 6.22151 7.12449
O 5.51907 9.33782 4.55203
O 10.6842 5.03221 9.49554
O 7.92357 9.47757 10.3143
O 9.01865 4.33386 11.2937
Si 12.339 4.42471 3.40728
Si 13.1461 17.8742 3.69196
Si 8.86587 9.8159 9.09584
Si 0.871366 1.54485 11.4986
Si 10.5738 1.24849 6.77324
Si 15.5859 6.05861 6.86019
O 10.3539 10.2522 9.94777
O 11.6876 16.5148 10.3885
O 12.1778 1.61859 7.31097
O 0.952894 5.61883 8.24317
O 10.9574 17.6482 6.77665
O 13.7933 3.30399 8.791
O 9.57112 0.851552 8.00394
O 13.485 11.9661 9.1442
O 13.9381 5.90267 6.64246
O 13.367 16.8768 7.97045
O 8.73214 10.8267 7.82353
O 15.1016 1.66251 10.7626
Si 14.2717 13.5296 8.96042
Si 2.25463 10.4215 3.96483
Si 14.7765 12.6792 12.2696
Si 4.20955 14.2581 10.6342
Si 0.691726 9.18575 8.72959
Si 1.31144 16.1524 8.05327
O 6.85261 15.7138 14.9106
O 2.0054 10.1047 9.73407
O 3.6872 11.5186 7.74445
O 1.86801 14.5955 8.07462
O 3.1475 8.48743 5.50674
O 2.48251 15.6476 5.88714
O 0.084669 13.4222 9.95662
O 2.51996 17.4192 8.23066
O 0.32898 13.736 12.2736
O 2.59972 14.0311 10.8579
O 0.243702 16.7592 6.88914
O 4.19876 10.8736 13.0439
Si 3.31976 14.5429 5.0872
Si 6.4879 10.5672 4.74022
Si 6.2346 15.0917 8.79075
Si 10.1609 12.5444 7.50119
Si 4.18786 12.046 6.36851
Si 7.55464 15.8795 6.42172
O 4.9545 14.4172 9.23147
O 7.61002 8.52794 12.7363
O 10.5282 9.92056 5.40992
O 9.92431 1.27239 5.36305
O 5.65198 11.7419 5.67847
O 7.89616 15.2291 4.93221
O 3.52841 13.6668 6.5086
O 7.03255 17.4347 6.27734
O 6.30031 14.9991 7.12594
O 9.81752 13.1019 8.97269
O 6.42144 16.5548 9.55093
O 9.89822 13.7393 6.41243
Si 9.4932 14.4262 4.86195
Si 1.53893 8.75083 5.96824
Si 10.3365 16.178 6.93847
Si 14.0963 10.7314 10.1095
Si 11.5841 11.478 5.35502
Si 12.5175 15.8475 8.7593
O 8.73825 16.2504 7.53302
O 12.8767 9.68755 10.2439
O 1.15662 9.30108 4.53766
O 13.4525 14.8032 9.7983
O 12.8903 11.8392 4.42684
O 1.31518 0.248769 5.01316
O 10.5182 15.7472 5.24686
O 13.5835 17.9093 5.34431
O 11.2078 15.0568 7.97732
O 14.9231 9.81526 8.89648
O 11.2779 1.41039 15.2531
O 14.797 11.359 11.4415
Si 14.0693 4.3424 10.0475
Si 6.65554 0.870505 16.019
Si 2.35595 6.7927 16.4109
Si 4.06124 2.11551 1.90488
Si 3.81432 2.36027 16.0416
Si 4.73069 4.90055 15.4589
O 0.796713 5.83038 16.2019
O 5.96768 17.8794 14.9643
O 3.64711 1.61922 0.238863
O 5.61387 5.46609 16.6851
O 1.13033 2.69689 12.7787
O 3.81522 2.62599 12.2561
O 15.5244 17.7808 13.533
O 4.48498 9.24629 8.19687
O 3.67747 6.21919 15.2296
O 6.29966 15.9605 12.3207
O 1.86134 8.36475 16.2861
O 3.96096 3.71347 2.022
Si 4.44097 3.45316 11.1165
Si 5.66203 16.7736 10.9175
Si 6.53164 6.94745 16.412
Si 12.7985 1.61355 14.4686
Si 7.0386 2.85341 14.7424
Si 7.76174 7.14451 13.548
O 8.13544 6.52776 16.9721
O 9.92509 0.670207 0.77973
O 7.84865 1.46316 15.1661
O 9.27331 7.02282 14.2464
O 7.85618 2.97797 13.284
O 7.47037 5.79543 12.667
O 5.68465 2.13968 16.1576
O 5.54974 8.41574 10.5886
O 6.5578 6.93935 14.7556
O 13.4343 1.61255 12.9745
O 5.59202 4.62542 3.95802
O 7.64598 3.7371 16.2465
Si 8.47474 4.54991 12.7047
Si 12.0571 17.7685 11.3658
Si 10.0732 5.6864 14.7227
Si 14.0791 17.0554 13.2848
Si 13.5719 1.95712 11.4345
Si 11.4226 6.18085 10.1718
O 9.88688 5.17641 16.0817
O 0.431237 1.39838 15.5377
O 0.325643 16.9814 16.5823
O 3.57154 3.92299 16.0277
O 13.4943 15.6803 13.6791
O 12.9869 5.74313 10.0193
O 9.77478 4.61415 13.6088
O 10.9478 7.64271 10.3159
O 13.4135 3.57186 11.5025
O 13.1472 18.0048 14.6711
O 11.5066 6.38214 14.6851
O 13.6176 17.4001 11.7677
Si 1.97564 13.5333 12.6081
Si 3.52503 10.3655 9.01145
Si 2.75309 15.6874 14.7309
Si 4.94531 11.5355 11.7001
Si 2.53142 11.3814 13.3353
Si 2.66511 1.93398 13.2004
O 2.15011 14.9367 16.1188
O 1.87886 10.4022 14.3253
O 6.32873 10.6325 11.9249
O 2.03428 0.491415 12.3748
O 1.97825 11.9011 11.967
O 5.57033 4.0501 14.4299
O 2.34452 12.9306 14.0875
O 4.23101 15.9671 10.9093
O 2.32708 15.0346 13.4271
O 9.67643 13.6678 11.2617
O 3.09458 1.73525 14.6847
O 4.84354 13.1471 11.6346
Si 1.33949 14.4027 9.61076
Si 6.78757 9.15177 11.5512
Si 7.37224 15.3789 13.3889
Si 8.6745 10.9205 14.7635
Si 8.6419 13.2235 10.0485
Si 10.1985 16.8899 13.4463
O 4.06289 14.3777 0.858287
O 11.0791 15.3111 12.9205
O 8.1633 13.9578 13.5622
O 8.89474 12.0648 16.1008
O 8.21532 12.1355 11.0348
O 7.27223 13.7401 9.30565
O 4.29463 11.1181 10.2618
O 12.3742 1.11812 10.6582
O 8.62154 16.5926 12.794
O 9.95708 9.8386 14.4612
O 9.00161 16.5879 1.87059
O 7.53689 10.0954 15.6616
Si 12.3864 14.5339 13.3511
Si 11.3768 9.38746 10.6553
Si 11.5951 -0.0841192 15.631
Si 14.3106 10.7269 17.1216
Si 11.4571 9.58403 13.8052
Si 13.1097 11.8791 14.4522
O 10.4985 16.9232 15.0614
O 13.5454 9.58652 0.752115
O 12.6616 8.4973 14.462
O 2.25995 17.4875 14.9349
O 11.033 8.95134 12.3304
O 14.6279 12.071 13.8312
O 12.6502 10.5813 13.4088
O 13.409 13.5921 12.3632
O 12.1601 13.4487 14.6018
O 15.2488 9.83523 15.8352
O 12.1439 17.7003 17.0847
O 13.1278 11.6661 16.2985
324
 Atoms. Timestep: 18500
Si 0.444594 4.92819 0.130485
Si 5.35664 16.3479 15.0421
Si 4.4498 8.42035 4.18922
Si 3.81967 2.43029 6.40226
Si 2.0041 1.90387 3.95243
Si 4.60766 5.6059 4.07304
O 4.43421 5.65512 5.77557
O 4.27834 0.899079 9.12878
O 2.79089 2.73206 4.95083
O 5.97252 8.58279 16.4074
O 2.59862 1.81563 2.5643
O 3.15329 5.3268 3.30822
O 1.43436 4.85477 1.25303
O 3.52961 6.37433 0.795644
O 5.08722 7.03364 3.59907
O 4.49948 0.933757 6.04926
O 3.52529 9.19206 3.29641
O 4.93086 3.31171 6.92071
Si 3.0924 5.05646 1.59721
Si 8.13904 0.0317001 1.36657
Si 8.32962 5.14337 5.79837
Si 10.5011 3.23646 4.60738
Si 6.39421 1.21811 3.21291
Si 9.075 4.71004 3.09311
O 7.08307 4.58927 6.62407
O 6.65044 1.72089 4.69832
O 9.15791 3.17351 3.69035
O 12.6828 5.05501 1.58286
O 7.65955 0.126104 16.9748
O 8.72736 4.40798 1.57941
O 5.16374 1.62771 2.00288
O 8.11434 9.7608 0.629449
O 8.04132 5.36359 4.04042
O 11.7067 3.4886 3.6188
O 6.23974 11.4416 3.1511
O 10.6315 5.48698 3.17723
Si 8.60487 5.30851 0.128368
Si 0.378847 17.9743 15.0305
Si 14.5234 4.9411 5.35282
Si 15.0911 1.43095 2.87879
Si 15.0623 2.22518 16.9091
Si 13.4785 6.32347 1.06653
O 13.605 5.47298 4.21866
O 13.8985 0.838266 3.89643
O 14.7934 2.54158 1.34338
O 12.9874 7.52892 1.98484
O 13.5422 1.98277 16.0868
O 15.5529 3.7067 16.4256
O 15.0635 5.88407 1.22087
O 13.4507 7.01234 16.6251
O 0.389154 4.27698 5.20865
O 0.488951 2.33825 3.65381
O 1.69555 6.7783 5.38059
O 13.4975 3.27336 5.81953
Si 1.33491 16.0811 16.828
Si 1.8659 9.70477 16.2559
Si 2.17343 17.0929 4.1316
Si 2.90214 13.5549 1.79399
Si 1.22502 11.4893 1.33396
Si 3.98031 16.2717 0.563479
O 13.7713 13.7631 7.21406
O 2.98691 11.4877 5.08278
O 2.21037 11.1271 2.56632
O 3.48282 16.6486 3.4224
O 1.99884 10.7109 0.315479
O 4.03512 16.1407 13.96
O 1.51704 13.0451 1.32652
O 4.87072 15.8723 16.5159
O 2.74775 17.0314 0.14638
O 4.17655 12.5221 1.59103
O 2.88912 2.27161 7.72668
O 2.77725 13.7774 3.40462
Si 8.75133 12.7283 12.6306
Si 6.78214 10.2042 16.7151
Si 5.04286 16.5374 3.03855
Si 9.2137 10.6044 4.47882
Si 5.72336 12.1592 1.73669
Si 9.22501 15.211 2.16199
O 5.30314 15.1835 3.84037
O 7.83359 10.9366 5.28735
O 6.73364 13.1251 1.02887
O 9.0616 14.2536 3.43064
O 5.62266 10.9789 0.475164
O 8.624 14.4649 0.970305
O 9.26528 12.0293 13.9617
O 7.53022 1.40481 2.09872
O 5.08607 16.9306 1.51558
O 8.86855 9.72263 3.14044
O 6.2639 17.5171 3.68744
O 10.0887 11.8913 4.19549
Si 8.32985 12.9947 0.916356
Si 12.0175 7.37277 15.5976
Si 11.065 17.2416 1.25992
Si 12.0293 8.68017 0.970503
Si 9.21103 10.4358 1.72321
Si 0.00789015 16.5663 2.16432
O 11.221 11.8489 6.9777
O 1.60533 8.79793 7.27856
O 10.7985 9.70984 1.50116
O 1.19069 16.276 3.33
O 11.063 7.88567 16.8715
O 0.584643 15.5282 1.01896
O 9.04337 12.0746 2.1637
O 15.5227 0.0706924 1.66792
O 10.6264 15.6127 1.51791
O 15.2537 11.2341 1.12176
O 12.1299 17.5444 2.54328
O 14.4708 16.204 3.24471
Si 13.2519 2.49312 7.36686
Si 2.66239 1.2783 8.8284
Si 1.18494 5.97789 9.33292
Si 5.55212 1.04602 10.1579
Si 14.2082 17.4112 6.6583
Si 3.95047 5.41395 10.3795
O -0.000583442 5.04996 9.84286
O 5.51355 17.8736 11.2931
O 1.07782 1.80696 10.0095
O 6.76742 7.72047 8.39739
O 0.332917 16.3022 9.78329
O 4.5771 6.21625 9.06211
O 14.0202 1.00383 7.06707
O 2.4772 5.96261 10.3222
O 3.93877 3.72993 9.96866
O 7.07334 0.625411 9.52479
O 0.515525 7.42095 9.27492
O 6.20365 2.57677 10.5159
Si 5.5892 4.53192 5.99341
Si 6.14877 0.67599 5.96138
Si 5.184 7.63818 9.11149
Si 9.21193 4.45431 9.67327
Si 7.67568 1.78499 8.43435
Si 8.27504 7.19661 8.4045
O 4.5935 4.99401 11.8466
O 10.8152 17.7262 12.2357
O 8.32013 3.31261 9.0728
O 9.12778 8.47626 8.43564
O 6.77572 1.6575 7.13635
O 8.61852 6.12224 9.46953
O 9.75904 4.27565 5.8504
O 8.29097 6.6241 6.88807
O 5.78454 9.31895 4.68971
O 10.7026 4.64635 9.20225
O 7.75535 9.47778 10.1863
O 9.47522 4.0773 11.2373
Si 12.2997 4.86284 3.18176
Si 13.3376 17.2663 3.75719
Si 9.12236 9.877 9.37058
Si 1.13678 2.00371 11.5808
Si 10.6953 1.23157 7.09294
Si 0.967036 5.3498 6.32584
O 10.6052 9.74187 10.1517
O 12.2523 17.4116 9.66617
O 11.8634 2.10265 8.04315
O 1.60552 5.38535 7.86583
O 11.2608 17.5287 6.8751
O 14.2142 3.2986 8.49298
O 9.2894 1.38961 8.07794
O 13.2378 11.7715 9.0881
O 14.9886 5.67658 6.73133
O 13.8546 16.3518 7.806
O 9.17542 10.9723 8.37818
O 15.2062 2.22937 11.9503
Si 13.8154 13.3701 8.77192
Si 2.4566 10.3417 3.99844
Si 14.3321 12.3108 12.5776
Si 4.01136 13.8409 10.7169
Si 1.0671 9.05492 8.91438
Si 0.996 16.7399 8.2441
O 6.48642 15.2575 14.8186
O 2.31059 10.0214 9.60738
O 3.37921 11.2813 7.54279
O 1.77712 15.031 7.85714
O 3.70446 8.14547 5.68041
O 2.44128 15.9135 5.30136
O 15.3778 13.3552 9.38784
O 2.13266 17.7795 8.61944
O 15.3622 13.4709 12.7767
O 2.27881 13.7566 10.3475
O 0.265692 17.1546 6.81473
O 4.023 10.8557 13.0944
Si 3.62703 14.7173 4.7309
Si 6.27713 10.8859 4.84718
Si 6.49188 14.3994 8.79217
Si 9.92548 12.2023 7.67145
Si 3.93825 12.0221 6.27724
Si 7.25154 15.9199 6.48728
O 5.15674 13.5783 9.47095
O 7.46051 8.70114 12.7617
O 10.0915 9.85266 5.55549
O 10.5448 2.00353 5.74334
O 5.63867 11.8591 6.00525
O 7.86167 15.1762 5.11741
O 3.73201 13.724 6.0749
O 6.35436 17.1764 6.25281
O 6.41032 14.7727 7.22879
O 10.1503 13.1463 8.97961
O 6.46151 15.991 9.51373
O 8.97482 13.1241 6.6193
Si 9.20419 14.0989 5.22763
Si 1.97195 8.30247 5.92197
Si 10.2716 16.069 6.96784
Si 14.0653 10.6389 10.1078
Si 11.3409 10.9022 5.45907
Si 12.52 16.054 8.94662
O 8.70214 16.6835 7.03635
O 13.1502 9.47578 10.6887
O 1.47227 9.13915 4.59446
O 13.0809 14.8453 9.80617
O 12.7944 11.0584 4.94601
O 1.53457 0.546448 4.86499
O 10.4617 14.9115 5.95724
O 13.2294 16.7816 5.38939
O 11.0422 15.7868 8.29881
O 15.4046 9.95695 9.07284
O 11.077 1.24037 15.1241
O 14.9408 11.3073 11.2377
Si 14.1318 4.41081 9.60997
Si 6.70819 1.01606 15.8824
Si 2.69325 6.58202 16.3556
Si 3.81434 2.20245 1.45704
Si 3.91066 2.02242 15.8157
Si 4.62385 5.04502 15.5372
O 1.15971 5.88867 16.2761
O 5.90234 17.8398 15.0642
O 3.50105 1.43686 0.143117
O 5.58604 5.83468 16.6907
O 1.97536 3.18909 12.4315
O 4.54077 2.53565 12.3939
O 15.2496 0.211251 13.5103
O 4.66908 9.13592 8.71238
O 3.45428 6.02176 14.9891
O 6.6732 15.8453 11.939
O 2.57269 8.17794 16.4558
O 4.01859 3.72334 1.29024
Si 5.03751 3.48573 11.2606
Si 5.53164 16.2589 10.8461
Si 6.57279 7.0726 16.306
Si 12.4618 2.12973 14.944
Si 7.1904 3.53895 15.0178
Si 7.58609 7.05368 13.1771
O 8.0313 6.7703 0.185969
O 9.95497 0.38642 1.47831
O 7.60696 1.98337 14.9198
O 9.01766 6.8709 14.2843
O 7.60639 3.63799 13.2652
O 8.13903 6.01291 11.9606
O 5.52931 2.20889 15.9879
O 5.53506 7.98771 10.7332
O 6.39122 6.82259 14.4847
O 12.666 2.94792 13.3813
O 5.64996 4.16307 4.3179
O 7.95599 4.45015 16.0616
Si 8.73116 4.5316 12.5015
Si 12.2075 17.9815 11.3348
Si 10.0641 5.50823 14.7888
Si 13.9715 17.1292 13.3026
Si 13.52 2.66133 11.9952
Si 11.6032 6.04663 9.64103
O 10.1422 5.2755 16.423
O 0.272013 1.19526 15.9881
O 0.188565 16.7865 16.0524
O 3.56555 3.77857 15.9866
O 14.1205 15.5225 13.3627
O 13.288 5.76417 9.28398
O 10.0612 4.58658 13.6305
O 11.3127 7.25022 10.7603
O 13.6056 4.0634 11.2039
O 13.0796 17.7316 14.6477
O 11.4688 6.48128 14.4015
O 13.5112 17.1901 11.7743
Si 1.3338 13.4736 13.2547
Si 3.78787 10.5534 9.09527
Si 2.43891 16.0202 14.2506
Si 4.88216 11.5508 11.6693
Si 2.50867 11.3886 13.6885
Si 3.11369 1.94378 12.865
O 2.06769 15.193 15.7092
O 2.49468 10.3602 14.9346
O 6.25587 10.7803 11.8256
O 2.12243 0.940522 12.0821
O 1.66383 12.0047 12.3279
O 5.69625 3.99657 14.8481
O 1.84118 12.6261 14.5556
O 4.17657 15.4815 11.0228
O 1.79529 15.0799 13.0619
O 9.62017 13.9289 11.9739
O 3.37305 1.34294 14.4182
O 4.2618 12.9403 12.0874
Si 1.06044 14.481 9.28251
Si 6.68135 9.04869 11.4119
Si 7.20685 15.121 13.3521
Si 8.92023 11.4566 15.5331
Si 9.17936 13.343 10.2704
Si 10.2968 16.354 13.142
O 3.39211 14.7926 0.948008
O 11.8368 15.2292 12.5959
O 7.46869 13.4827 13.1612
O 9.35897 12.5435 16.6733
O 8.48568 11.9109 11.1203
O 7.80222 13.6416 9.36649
O 4.599 11.2735 10.187
O 12.5793 1.47697 11.3765
O 8.97003 15.678 13.4854
O 9.84428 10.0657 15.2734
O 8.27102 16.6535 2.08197
O 7.25056 10.9754 15.4216
Si 13.0332 14.3581 13.1185
Si 11.591 9.33456 11.1485
Si 11.671 17.7087 15.5177
Si 14.5553 10.2566 17.162
Si 11.2726 9.89204 14.4534
Si 13.0984 12.1685 15.0267
O 10.7243 16.705 14.7707
O 13.2443 9.41487 0.0855787
O 12.2475 8.83491 15.1572
O 1.8357 17.4486 14.3222
O 11.0179 9.71619 12.756
O 14.0117 11.5048 13.7496
O 11.725 11.4097 14.7893
O 13.103 13.3108 11.9642
O 12.8679 13.7417 14.7163
O 0.0816604 9.6721 16.2249
O 11.7292 17.8494 17.0184
O 13.6112 11.6826 16.5321
324
 Atoms. Timestep: 19000
Si 0.427014 5.19073 0.321074
Si 5.32892 15.756 14.7206
Si 4.85447 8.53367 4.46696
Si 3.63775 2.31386 6.39655
Si 1.57295 2.27118 4.39478
Si 4.56294 5.60439 4.23623
O 4.90075 5.59855 5.86791
O 4.32585 1.29134 9.2164
O 2.25357 3.17928 5.46235
O 5.89414 8.10425 16.6506
O 2.72373 2.61573 3.11117
O 3.17816 5.52325 3.50948
O 1.51871 4.63504 1.44277
O 3.16879 6.69144 1.07946
O 5.11353 7.07305 3.77216
O 4.44983 1.01664 6.39307
O 3.94033 9.88567 3.91364
O 5.02438 3.18926 6.54942
Si 3.05668 5.2384 1.86541
Si 8.20494 17.8114 1.36876
Si 8.52931 5.47619 5.54412
Si 10.4705 3.31556 4.70344
Si 6.33939 1.08372 3.15462
Si 9.5282 5.2648 2.6821
O 7.21392 4.68669 6.08692
O 6.12511 1.78762 4.67753
O 9.48631 3.61298 3.34367
O 13.4672 4.90758 1.91023
O 7.39397 0.375444 17.1851
O 8.5929 5.19647 1.32955
O 5.41555 1.88755 2.02373
O 7.98071 9.10091 0.74907
O 8.5137 6.22564 3.88241
O 11.9207 3.48832 4.02099
O 5.91448 11.6738 3.20761
O 11.033 5.72975 2.7017
Si 8.72542 5.14618 16.6247
Si 0.596251 0.365692 15.0416
Si 13.9442 5.23756 5.61694
Si 15.0249 1.33486 2.56333
Si 15.0109 2.74443 16.7437
Si 13.7991 6.44875 1.25993
O 13.2684 5.73686 4.19868
O 13.7508 0.808061 3.53359
O 14.5732 2.55413 1.16965
O 13.0266 7.66484 2.14164
O 13.6759 2.51064 15.8246
O 14.8864 4.33299 16.7255
O 15.5065 6.18484 1.51307
O 13.6644 6.52958 16.7499
O 15.3984 4.47421 5.22153
O -0.0970799 1.95842 4.15316
O 1.89388 6.40723 5.33933
O 13.2698 4.14493 6.78189
Si 1.09469 16.2182 16.6578
Si 1.22836 9.46231 16.1479
Si 2.28804 17.1378 4.159
Si 2.86479 13.5288 2.12603
Si 1.27231 11.2816 1.58707
Si 3.76299 15.9079 0.318584
O 13.3505 13.9565 7.44123
O 2.66684 11.2942 5.74974
O 1.7529 11.0773 3.06979
O 3.45485 17.5075 2.97846
O 1.78997 10.4635 0.292719
O 4.04703 15.7796 13.5744
O 1.48174 12.9858 1.43355
O 4.18637 15.2824 16.0293
O 2.57289 16.9815 0.0290172
O 4.2714 12.7363 1.75436
O 2.59973 2.4969 7.72354
O 2.65006 14.0259 3.69941
Si 8.53074 12.6208 12.1431
Si 6.63391 9.40189 17.0775
Si 4.88134 16.5204 2.93044
Si 9.23744 10.1202 4.4536
Si 5.59611 11.8133 1.59479
Si 9.23511 15.0981 2.03462
O 5.01292 15.091 3.53549
O 8.04875 11.2244 4.64654
O 6.45936 12.7772 0.567835
O 8.84792 14.3405 3.42114
O 5.81522 10.3794 1.19785
O 9.13443 14.0153 0.856504
O 8.71266 11.7508 13.5644
O 7.87995 1.08115 2.52472
O 5.04797 16.5497 1.16333
O 8.64577 9.16538 3.11767
O 6.22364 17.5335 3.40194
O 10.7925 10.7496 4.12242
Si 8.16423 12.5815 0.497843
Si 12.4661 7.42743 15.9021
Si 11.2124 17.2357 1.55151
Si 12.0675 8.71756 1.18912
Si 9.13741 9.86108 1.79366
Si 0.303697 16.6415 2.18114
O 11.1246 11.5724 6.82581
O 1.20029 8.17163 6.9824
O 10.7961 9.42537 1.80766
O 0.999322 16.329 3.58512
O 11.4392 7.62939 -0.0382415
O 0.732386 15.5139 1.00641
O 8.72995 11.3246 1.45938
O 0.746488 0.291937 1.88962
O 10.8771 15.5064 1.83146
O 15.2546 10.9923 1.5435
O 11.8291 17.506 3.01637
O 14.3347 16.4819 2.72436
Si 13.4271 2.34584 7.28024
Si 2.73555 1.38724 8.95752
Si 1.074 5.82669 9.05343
Si 5.76007 1.23909 9.98706
Si 14.1919 17.5456 6.71991
Si 4.12417 5.42388 10.1639
O 0.131969 4.61872 9.87435
O 5.38115 0.145394 11.0889
O 2.11425 2.21738 10.1047
O 6.81229 8.06669 7.90203
O 0.636922 15.9864 9.66514
O 4.7807 6.44836 8.948
O 14.2475 1.1636 6.65449
O 2.48765 5.71922 9.91235
O 3.96785 3.80463 10.0023
O 6.88017 1.06029 8.85373
O 0.622244 7.34401 9.41213
O 6.19347 2.5079 10.8799
Si 5.77269 4.25918 5.67905
Si 6.14177 1.05131 6.33943
Si 5.69468 7.89037 9.05708
Si 8.79863 4.65598 9.40781
Si 8.15401 1.86849 8.2282
Si 8.17529 7.26883 7.84164
O 5.23706 5.2314 11.4376
O 11.32 17.2905 12.7559
O 8.70535 3.31765 8.55082
O 9.31806 8.15545 8.37281
O 7.37772 2.05873 6.74387
O 7.96331 5.85858 8.58882
O 9.83949 4.53605 5.54172
O 8.60896 7.07141 6.29257
O 6.24906 9.28373 4.48076
O 10.3785 5.38205 9.5797
O 7.83387 9.60926 9.85246
O 8.41134 4.41377 10.9036
Si 12.4034 4.83462 3.29477
Si 13.2815 17.2972 3.80704
Si 9.2492 9.737 9.111
Si 1.28067 2.44219 11.6912
Si 10.7322 1.24114 6.81619
Si 0.645205 5.68841 6.07842
O 10.5118 9.42606 10.1936
O 11.7412 17.3731 10.1616
O 11.9547 1.98269 7.48471
O 1.37287 5.03861 7.53163
O 10.8403 17.7297 6.63048
O 14.1644 2.71023 8.75997
O 9.51752 1.02788 8.09647
O 13.2735 11.9799 9.4
O 14.7916 6.75098 6.29047
O 13.1688 17.2673 7.94775
O 9.16408 11.2407 8.31877
O 15.1679 2.4127 11.6086
Si 13.8128 13.626 8.97999
Si 2.41735 10.3013 4.25327
Si 14.6441 12.2546 12.5073
Si 3.73388 14.0144 10.3575
Si 0.810106 8.71678 8.44279
Si 1.31163 16.6561 8.35872
O 6.7915 15.0451 14.5538
O 1.81866 9.93965 8.4583
O 4.11078 11.3828 8.0373
O 1.62579 15.15 7.59999
O 3.87967 8.32857 5.94004
O 3.00311 15.9873 5.29833
O 15.3201 13.3718 9.33159
O 2.14207 17.8584 8.80494
O 0.0179533 13.3072 12.9965
O 2.09601 13.7614 9.89782
O 0.148591 17.2865 7.11211
O 4.23111 10.9031 13.4849
Si 3.79212 14.6089 4.77829
Si 6.49781 10.8875 4.61651
Si 6.32451 14.6286 9.14519
Si 9.73005 12.3211 7.26417
Si 4.06371 11.6717 6.46033
Si 7.1965 16.1584 6.75765
O 4.7488 14.0211 9.01252
O 7.79367 9.25952 12.7851
O 9.62407 9.51093 5.92266
O 10.09 1.96696 5.47897
O 5.68944 11.186 5.88062
O 7.54903 15.4682 5.15432
O 4.38705 13.4436 5.65651
O 6.71489 17.6242 6.68678
O 6.7301 14.7807 7.4999
O 9.44755 13.5982 8.47147
O 6.21242 16.2568 9.80066
O 8.70734 12.9857 5.94141
Si 8.86439 14.5354 5.15734
Si 2.28791 7.82006 5.84948
Si 10.3183 16.2972 7.14347
Si 14.0393 10.6281 9.95703
Si 11.3531 10.2851 5.698
Si 12.4671 16.3403 9.10257
O 8.76393 16.4655 7.66327
O 13.0271 9.40889 10.3424
O 1.70028 8.73046 4.53037
O 13.0414 14.931 9.76837
O 12.8739 9.9531 5.68027
O 1.99978 0.48944 5.10884
O 10.0136 15.7424 5.5356
O 13.7598 16.783 5.42279
O 11.1058 15.6324 8.4815
O 15.0675 9.60884 9.15413
O 11.5493 1.54712 15.4703
O 14.873 11.1658 11.342
Si 14.15 4.23579 9.5698
Si 6.37261 0.602504 15.9343
Si 2.60751 6.82609 16.4541
Si 3.86401 2.60667 2.03842
Si 3.87155 2.16134 16.2782
Si 4.62009 5.03594 15.387
O 1.26547 5.76636 16.2704
O 6.06892 17.1407 15.1816
O 3.07325 1.79273 0.71474
O 5.44041 6.04938 16.3692
O 1.60536 3.56888 12.9609
O 4.38117 2.67918 12.8058
O 14.8164 0.201005 14.2122
O 4.88851 9.1739 8.75103
O 3.34074 6.09705 15.0955
O 6.43619 16.14 12.3031
O 1.84629 8.14854 16.304
O 4.1723 4.07772 1.44218
Si 4.90618 3.46206 11.3949
Si 5.34796 16.4477 11.1633
Si 6.60196 6.975 15.7707
Si 12.4711 2.52589 14.751
Si 7.03782 3.25471 14.8237
Si 8.29914 7.68492 13.3304
O 8.04447 6.43616 16.1951
O 9.79006 -0.0392106 1.2033
O 6.58856 1.77801 14.7111
O 9.68305 7.63906 14.1415
O 8.19048 3.36182 13.5333
O 8.46776 6.32005 12.435
O 5.10487 1.26871 16.5548
O 6.04721 7.9928 10.8098
O 7.14034 7.26502 14.3109
O 13.1119 3.18739 13.4586
O 5.34926 4.08619 4.04654
O 7.83489 3.71795 16.3369
Si 8.887 4.6897 12.4396
Si 12.1519 0.0176401 11.619
Si 10.3984 6.0244 14.2521
Si 13.7361 17.2536 13.7003
Si 13.6245 2.78476 11.8868
Si 11.8431 6.01484 10.0448
O 9.95287 4.94318 15.5567
O 0.60937 1.96953 15.7837
O 0.264749 17.4963 16.351
O 3.73423 3.819 16.15
O 13.8869 15.6317 13.5166
O 13.2283 5.54758 9.10073
O 10.4157 4.7692 12.8411
O 11.7303 7.21324 10.8166
O 13.3652 4.21899 11.0435
O 12.732 17.5034 15.0776
O 12.0844 6.31734 14.6298
O 13.6926 17.6805 12.0127
Si 1.68776 13.0334 13.3
Si 3.43301 10.0167 9.00725
Si 2.52058 15.802 14.2172
Si 4.55006 11.055 11.8586
Si 2.67568 11.0475 13.9817
Si 2.8749 2.38929 13.4655
O 1.38521 15.0911 15.4864
O 1.60433 10.0158 14.6259
O 6.09856 10.9373 11.4402
O 1.9858 1.10018 12.6281
O 2.0129 11.6221 12.5532
O 5.91641 4.64598 14.2423
O 2.43063 12.3887 14.8764
O 4.17985 15.3973 11.0069
O 2.00963 14.5969 13.1261
O 9.79401 13.5561 11.1178
O 3.23011 1.64896 14.8437
O 4.17122 12.5767 11.0184
Si 0.923549 14.5208 8.98087
Si 7.11595 9.51719 11.2445
Si 7.5394 15.1418 13.0055
Si 8.75155 11.0137 14.9719
Si 8.90144 12.7907 9.87181
Si 10.4595 16.0781 13.6989
O 3.06811 15.0268 1.34796
O 11.4393 14.8509 14.1065
O 7.28182 13.6827 12.2832
O 8.59007 12.3425 15.9371
O 8.45863 11.6104 10.9106
O 7.3029 13.2867 9.65059
O 3.66909 10.1796 10.6379
O 12.3016 1.71837 11.837
O 8.86882 15.736 13.0464
O 9.89653 9.88139 15.1102
O 8.11525 16.1698 1.39888
O 7.43271 10.1041 15.5395
Si 12.946 14.3284 13.6398
Si 11.7609 8.95365 11.1767
Si 11.4137 17.9498 15.8353
Si 14.4179 10.5751 0.251356
Si 11.6077 9.75038 14.5129
Si 13.4439 11.9687 15.1868
O 10.2454 17.1996 14.9984
O 12.8838 10.0842 0.751071
O 12.8605 8.64134 14.8482
O 1.75814 17.2383 14.3202
O 11.451 9.25107 12.7687
O 14.4412 11.3511 14.0839
O 11.8349 11.458 15.0409
O 13.2989 13.423 12.266
O 13.2868 13.5795 15.061
O 15.0941 9.45443 16.3431
O 11.9486 17.7437 0.31425
O 14.0786 11.9937 16.6909
324
 Atoms. Timestep: 19500
Si 0.600979 5.31812 0.38368
Si 5.59349 15.8176 15.5512
Si 4.7459 8.91997 4.42655
Si 3.58144 2.92641 6.45964
Si 2.20454 1.56213 4.5682
Si 4.65709 6.49731 3.85391
O 5.16958 6.56735 5.40964
O 4.24115 1.4485 10.1394
O 2.25958 3.08015 5.52746
O 6.17934 8.07505 16.6464
O 3.46085 1.67268 3.33906
O 3.20473 6.07624 3.2755
O 1.67751 4.59667 1.3821
O 3.74156 6.12258 0.340972
O 5.26771 7.80522 3.33592
O 4.73942 1.73373 6.04096
O 3.93575 9.96153 3.43477
O 4.49209 4.28711 6.14162
Si 3.21845 5.09993 1.62399
Si 8.3436 17.8675 1.19234
Si 8.30609 5.47888 5.05244
Si 10.3075 3.37703 4.22513
Si 6.21108 0.895387 3.29206
Si 9.19653 4.97595 2.29809
O 7.16962 4.67571 5.65934
O 6.62723 1.5575 4.69257
O 9.42179 3.38579 2.80577
O 13.3691 5.28857 2.31899
O 7.78272 0.544804 17.029
O 9.19608 4.41002 0.778123
O 5.5645 1.59232 1.96199
O 8.12447 8.52257 0.704174
O 8.14756 5.87066 3.18849
O 11.7195 3.94046 3.73384
O 6.47972 11.1256 3.28893
O 10.5939 6.01109 2.69195
Si 8.94718 4.86276 16.4446
Si 0.61559 0.0989351 15.1118
Si 13.947 4.87295 5.64003
Si 15.4965 1.18131 2.58647
Si 15.1232 2.41708 16.8915
Si 13.8173 6.45654 1.20258
O 13.1092 5.82942 4.63059
O 14.1088 1.3306 3.31928
O 14.9779 1.40212 0.962746
O 13.1144 7.83114 1.84287
O 13.4667 2.52914 16.1551
O 15.0817 4.00876 -0.0783107
O 15.5189 6.25999 1.37248
O 13.6104 6.39254 16.6031
O 15.6302 4.76317 5.54816
O 0.943706 1.97204 3.70384
O 1.14164 7.06934 6.4728
O 13.1582 3.37953 6.01585
Si 1.50582 16.1593 0.072203
Si 1.71341 9.53825 16.3382
Si 1.94209 16.6274 4.33453
Si 3.10104 12.8826 2.18934
Si 0.900089 11.3479 1.46841
Si 4.25165 15.6077 0.980445
O 13.8876 14.7113 7.28682
O 2.68692 11.3028 5.3918
O 1.70039 11.0143 2.80506
O 2.99199 16.751 3.13763
O 2.15702 10.7198 0.26262
O 4.07357 16.1107 14.8035
O 1.47579 12.9623 1.60578
O 4.90823 15.139 16.9062
O 3.14651 16.7851 0.479235
O 4.47931 12.1644 1.48802
O 3.06198 2.60215 8.00556
O 2.9091 13.1644 3.80899
Si 8.68501 12.5853 12.1284
Si 6.96367 9.46126 16.7253
Si 4.67269 16.4461 3.35591
Si 9.24216 9.84447 4.56142
Si 5.96774 11.6092 1.80487
Si 9.28535 15.2701 1.7413
O 4.98409 14.9364 4.16244
O 7.91548 10.7698 5.21771
O 7.05449 12.7411 1.26604
O 9.49284 14.4596 3.18455
O 6.12225 10.4367 0.755028
O 9.30151 13.7745 0.781459
O 8.97514 11.4918 13.2455
O 7.6874 0.498977 2.48818
O 5.36106 16.2523 1.89756
O 8.50822 8.9568 3.37768
O 5.32585 17.7928 3.95958
O 10.6821 10.637 4.36056
Si 8.67033 12.3639 0.606116
Si 12.617 7.20883 15.6001
Si 11.1765 17.6299 1.55916
Si 11.9057 8.59475 0.907049
Si 8.93014 9.38707 1.71204
Si -0.0354588 16.3192 2.74787
O 11.2665 11.6093 6.4343
O 0.782162 9.42986 6.84969
O 10.5244 8.7866 1.75761
O 0.344131 15.9891 4.42049
O 11.3662 7.46995 17.031
O 0.734124 15.631 1.51572
O 9.05793 11.0704 1.59118
O 0.590448 17.7623 2.74067
O 10.5553 16.1598 1.12577
O 15.2239 10.4982 1.52269
O 11.7461 0.173403 3.04643
O 14.0517 16.6479 3.01083
Si 13.1566 2.56054 7.36662
Si 2.83548 1.45466 9.20065
Si 0.840289 6.08877 9.49306
Si 5.79365 1.22457 10.7023
Si 14.3345 17.9718 6.88526
Si 3.95479 5.54691 10.0696
O 15.3582 5.20772 10.2717
O 5.94663 17.8105 11.212
O 1.3891 1.66608 10.0294
O 6.82725 7.82371 7.77872
O 0.532125 16.5479 9.80929
O 4.64489 6.36573 8.86562
O 14.3727 1.49522 7.2338
O 2.3756 6.16462 10.1289
O 3.96771 3.86316 9.98169
O 7.43462 1.58427 9.98118
O 0.14154 7.58254 9.12312
O 5.73631 2.58118 11.7988
Si 5.57009 4.88641 5.21578
Si 6.27573 1.03217 6.27153
Si 5.4629 7.84713 8.71835
Si 9.12402 4.70965 9.40017
Si 7.99905 2.06995 8.53043
Si 8.39888 7.06443 7.4932
O 4.82728 5.44083 11.5624
O 10.5083 17.6283 12.3909
O 8.33877 3.6427 8.43025
O 9.38299 8.1186 8.14674
O 6.57392 1.53721 7.83248
O 8.5335 5.99702 8.80194
O 9.72365 4.77758 5.03416
O 8.73123 6.66844 6.05888
O 6.09779 9.2855 5.29051
O 10.6729 4.88431 9.525
O 7.56744 9.85591 9.69061
O 8.55188 4.18662 10.7849
Si 12.1033 5.46881 3.372
Si 13.2662 17.9773 3.77864
Si 9.07566 9.62093 8.85708
Si 0.713214 1.93357 11.5934
Si 10.4253 1.39734 6.45286
Si 0.397992 5.79089 6.70835
O 10.1537 10.0448 10.0548
O 11.9008 16.5013 10.2775
O 11.554 2.02313 7.39906
O 1.10101 5.28335 8.01731
O 10.5449 17.9367 5.7787
O 13.4836 3.67493 8.70307
O 9.01208 1.19819 7.45617
O 13.6621 12.2047 8.7633
O 14.2307 5.73756 7.29523
O 13.3398 17.4607 8.07802
O 9.14525 10.8497 7.78371
O 14.6344 1.71151 11.3697
Si 14.1072 13.7724 8.57587
Si 2.48261 10.3422 4.10394
Si 14.6632 12.6203 12.5331
Si 4.10209 14.0079 10.9028
Si 0.430987 9.0861 8.56455
Si 1.23362 16.8813 8.37139
O 6.27497 14.6646 14.7182
O 1.9006 9.76438 9.11861
O 3.77897 11.0428 7.82374
O 1.72842 15.3229 8.06111
O 3.55086 8.41641 5.68055
O 2.78567 15.5623 5.12719
O -0.0444769 13.9211 9.03199
O 2.28039 -0.0203002 8.42823
O 15.5663 13.9805 12.5127
O 2.47471 14.0928 10.618
O 0.356113 17.2949 7.06195
O 3.78511 10.7113 13.0214
Si 3.55481 14.1283 4.85039
Si 6.4553 10.9244 5.07183
Si 6.18032 14.4874 8.741
Si 9.94419 12.1896 7.05573
Si 4.04744 11.9287 6.43375
Si 7.43207 16.1415 6.20686
O 4.77647 13.8228 9.35355
O 7.474 8.31706 12.3016
O 9.9156 8.69652 5.72593
O 10.375 2.00099 4.92553
O 5.52476 12.1562 5.95429
O 7.90928 15.4001 4.86972
O 3.6766 13.5236 6.18891
O 6.62874 17.496 6.09542
O 6.35982 15.1042 7.09888
O 10.0576 12.9467 8.5495
O 6.44082 15.8023 9.686
O 9.40599 13.3339 5.79452
Si 9.37267 14.568 4.72725
Si 1.78575 8.62885 5.88243
Si 10.302 16.5054 6.55451
Si 14.0153 11.0696 9.93548
Si 11.3151 9.96158 6.00228
Si 12.7141 15.9217 8.52284
O 8.72216 16.3519 7.19132
O 12.6994 10.1548 10.1164
O 1.41137 9.24376 4.50045
O 13.1211 14.6137 9.55563
O 12.4444 9.24083 6.69819
O 2.18999 0.139858 5.2529
O 10.5627 15.4305 5.25406
O 13.7104 17.9128 5.41001
O 11.5746 16.0462 7.46981
O 14.7937 10.1137 8.89228
O 11.3648 1.49668 15.9299
O 14.7591 11.8267 11.1046
Si 13.8075 4.75731 9.97964
Si 6.5901 0.468602 16.0282
Si 2.90021 6.68379 16.1183
Si 4.01466 2.20831 1.95864
Si 3.86833 2.15674 16.334
Si 4.82887 4.83773 15.38
O 1.19003 6.1317 16.3142
O 6.65281 17.051 15.4334
O 3.1667 1.73451 0.55823
O 5.80562 5.60307 16.4304
O 0.603406 3.28726 12.8716
O 3.51716 2.98734 12.9172
O 15.0357 0.15713 14.1206
O 4.23391 8.85763 8.42958
O 3.59614 5.85305 14.7788
O 6.83186 15.8842 12.2183
O 2.62703 8.23641 16.2727
O 4.26153 3.85063 1.97699
Si 4.47037 3.75013 11.5584
Si 5.79713 16.2497 11.0864
Si 6.86495 6.71873 15.9258
Si 12.7213 1.66508 15.0717
Si 7.28061 3.16216 14.7021
Si 7.83215 7.38666 13.3526
O 8.17555 6.2282 16.5056
O 9.8864 0.544716 1.32751
O 6.97348 1.64847 14.7692
O 9.19499 6.68845 13.9115
O 8.3262 3.50978 13.3734
O 7.55781 5.81346 12.4531
O 4.97947 0.920617 16.2221
O 5.88208 8.1528 10.2309
O 6.80877 7.27794 14.5663
O 13.2483 2.29052 13.5547
O 5.21345 4.89589 3.53215
O 7.91007 3.88079 15.9018
Si 8.58239 4.64861 12.2398
Si 11.7912 17.8223 11.2868
Si 10.4082 5.79497 13.9609
Si 13.8672 17.1926 13.7282
Si 13.2135 2.36463 11.9473
Si 11.3821 6.30773 10.4321
O 10.0794 4.90085 15.337
O 0.524753 1.72239 15.7921
O 0.495567 17.228 16.4983
O 4.53049 3.56557 16.3719
O 14.1241 15.6905 14.3497
O 12.983 6.17977 9.98636
O 10.1874 5.06505 12.4123
O 11.0483 7.69673 10.7673
O 13.1933 3.86116 11.1648
O 13.0603 -0.010649 15.0692
O 12.0634 6.36508 14.2806
O 12.9715 17.3689 12.4183
Si 1.50235 13.4799 13.1389
Si 3.37907 10.0056 9.14959
Si 2.45593 15.8607 14.586
Si 4.8323 11.1712 11.7788
Si 2.37049 11.2916 13.6309
Si 2.04294 2.71268 13.4935
O 1.82337 15.1054 15.9711
O 1.51357 10.2502 14.5394
O 6.0955 10.4204 11.99
O 1.71424 1.27584 12.8136
O 1.44173 11.9149 12.3003
O 5.81854 3.97532 14.1
O 2.32416 12.7113 14.4617
O 4.37136 15.4473 11.5411
O 1.91953 15.145 13.2497
O 9.34791 13.8865 11.0416
O 2.89429 3.02373 15.0786
O 4.84728 12.9047 11.6873
Si 1.26188 14.8475 9.54488
Si 6.80739 9.36194 11.0017
Si 7.42998 15.0711 13.4726
Si 8.8359 10.805 14.7396
Si 8.77559 13.1461 9.58098
Si 10.4758 16.4368 13.5966
O 3.25498 14.315 1.48072
O 11.7826 15.6045 13.7047
O 7.65823 13.3173 13.2334
O 8.88284 11.8044 16.1098
O 8.22241 11.9504 10.3984
O 7.64691 13.5785 8.66479
O 3.80176 11.0886 10.3851
O 11.9878 1.35899 11.2748
O 8.71749 15.8134 13.9175
O 9.99423 9.67459 14.5424
O 8.02965 16.1814 1.21957
O 7.50165 9.97265 15.223
Si 12.9276 14.4986 13.9597
Si 11.4606 9.44834 10.8282
Si 11.6188 17.8824 15.9462
Si 14.5494 10.1102 0.0316446
Si 11.5506 9.65811 14.1264
Si 13.4903 12.0145 15.1952
O 10.5508 16.8086 15.2638
O 13.0248 9.57536 0.37981
O 12.4447 8.58625 14.8353
O 1.8275 17.4012 14.3716
O 11.5304 9.71925 12.5165
O 14.7838 11.7914 13.9232
O 12.1642 11.1803 15.0337
O 13.2799 13.3787 12.7713
O 13.018 13.6304 15.392
O 0.0994203 9.17016 16.4102
O 12.3991 17.5778 0.226685
O 14.5046 11.5676 16.3287
324
 Atoms. Timestep: 20000
Si 0.667834 4.86859 17.0971
Si 5.75199 15.7009 15.617
Si 4.3218 8.53959 4.48387
Si 3.58414 2.34866 6.52755
Si 1.96838 1.52436 4.17942
Si 4.54495 6.05636 4.08175
O 4.63987 6.19387 5.66022
O 4.40335 1.2848 9.49234
O 2.75752 2.44817 5.24432
O 6.5664 8.39853 16.5512
O 3.13034 1.21165 3.1144
O 3.14507 5.6951 3.4242
O 1.33988 5.03178 1.45762
O 3.52647 5.76397 0.290265
O 5.0941 7.42926 3.47978
O 4.60077 0.889709 6.60677
O 3.4577 9.66232 3.66799
O 4.74069 3.53156 6.39022
Si 3.10316 5.19429 1.69129
Si 8.46054 17.5135 1.45182
Si 8.57899 5.46936 5.39854
Si 10.3216 3.12524 4.67433
Si 6.2464 0.996439 3.00853
Si 9.36145 4.8017 2.64003
O 7.18356 5.01833 6.38847
O 6.47384 1.71018 4.568
O 9.23696 3.2372 3.37718
O 12.931 4.50537 1.54012
O 7.79133 0.0747539 -0.0328764
O 8.99641 4.98923 0.972368
O 5.1848 1.6826 1.98868
O 8.4204 9.97509 0.817548
O 8.43702 5.75035 3.838
O 12.0005 3.32787 4.04683
O 6.36401 10.8228 3.00897
O 10.9021 5.38498 2.41715
Si 8.78714 5.00023 16.5587
Si 0.715887 17.7638 15.2754
Si 13.6409 5.22286 5.5971
Si 15.3508 1.33378 2.65415
Si 15.2788 2.34093 16.5474
Si 13.2839 5.71946 0.372019
O 13.3868 5.35733 3.94232
O 13.9048 1.15978 3.39806
O 15.0715 2.04956 1.08672
O 12.7102 7.10318 1.08544
O 13.7259 2.38234 16.0129
O 0.49501 3.63601 16.1703
O 15.093 5.64545 0.361024
O 13.2 6.1041 15.8613
O 15.3945 4.70764 5.17896
O 0.923334 2.24191 3.24089
O 1.03124 7.21308 5.59313
O 12.6405 4.31652 6.45998
Si 1.4727 15.9704 0.0820957
Si 1.68735 9.33941 15.7686
Si 1.67752 16.7463 4.59254
Si 3.45559 13.4308 2.28472
Si 1.59643 11.0584 1.17113
Si 4.11028 16.0292 0.89039
O 13.9032 15.1257 7.43011
O 2.67281 11.8142 4.97797
O 1.29944 11.0156 2.82778
O 3.09545 17.1279 3.95758
O 2.36097 9.76023 0.0418877
O 4.24694 15.3136 14.7264
O 2.44907 12.4109 0.968269
O 5.40474 15.997 17.1143
O 2.91656 17.0946 0.540785
O 4.91277 12.7096 2.08311
O 2.96937 2.83655 7.95058
O 3.20073 14.0541 3.80743
Si 8.65144 12.2661 12.4014
Si 7.31529 9.85968 16.9213
Si 4.5977 16.6386 3.88836
Si 9.55045 10.1182 4.51885
Si 6.1899 11.8013 1.55895
Si 9.54129 14.9315 2.04762
O 4.78136 15.4641 5.22708
O 8.02982 10.394 5.05746
O 7.49403 12.6658 1.2834
O 9.44359 14.0037 3.52398
O 5.98814 10.9603 0.256428
O 9.81483 14.271 0.641787
O 9.03383 11.2687 13.6338
O 7.47733 0.0187416 2.47047
O 4.829 16.069 2.40835
O 9.44649 9.64664 3.1021
O 5.49206 17.8795 3.83349
O 10.7788 11.2393 4.61663
Si 9.00905 12.8256 0.347529
Si 12.1616 7.27816 15.0816
Si 11.3198 17.3234 1.98453
Si 12.3066 8.58483 0.504788
Si 9.77912 10.1905 1.65525
Si 15.5307 16.3848 2.68938
O 10.7195 10.9586 7.05338
O 1.22672 9.19343 7.40138
O 11.1431 9.51538 1.18068
O 0.910763 15.8109 3.82973
O 11.3223 7.86054 16.3089
O 0.861487 15.5042 1.558
O 9.96533 11.8475 1.34253
O -0.0704483 17.9449 2.16183
O 11.034 15.7175 1.9537
O 0.120295 11.103 0.468309
O 12.0581 17.4631 3.45209
O 14.1019 16.319 3.41073
Si 12.9947 2.83762 7.52338
Si 2.77891 1.88109 9.34418
Si 0.529282 5.99884 9.34979
Si 5.64145 1.66193 10.4453
Si 14.3053 -0.0155679 7.35719
Si 3.36053 5.46968 10.3578
O 14.9739 5.50863 10.1969
O 5.92091 0.350759 11.3948
O 1.2605 2.25873 10.2089
O 6.16475 7.58381 7.86422
O 0.959368 16.7391 10.2245
O 3.84887 6.37893 8.93421
O 14.3006 1.76049 7.25101
O 1.84017 5.94347 10.4495
O 3.46887 3.72239 10.4425
O 6.87508 1.55099 9.39262
O -0.0110507 7.59684 9.44242
O 5.32148 2.64755 11.8333
Si 5.6569 4.71263 5.60412
Si 6.23291 0.927118 5.99325
Si 4.98262 7.63505 9.21028
Si 8.80375 4.9245 9.25957
Si 7.7457 2.1454 8.2062
Si 7.73977 7.48333 7.51139
O 4.10638 5.69227 11.7543
O 11.1418 16.8396 12.7405
O 8.39291 3.64776 8.31792
O 8.49028 8.88034 7.84606
O 6.97892 1.94889 6.82431
O 8.07546 6.14405 8.79942
O 9.82863 4.55433 5.69383
O 8.35312 7.111 6.00313
O 5.60188 9.17388 5.29046
O 10.1961 5.74529 9.51784
O 6.85595 9.8544 9.80356
O 8.8922 3.71205 10.5375
Si 12.3813 4.56284 2.96984
Si 13.6005 17.6934 4.21176
Si 8.35106 9.89424 9.07524
Si 0.709332 1.88671 11.7262
Si 10.4126 1.10281 7.14902
Si 0.0178958 5.90688 6.38266
O 9.62992 9.95176 10.0822
O 11.5309 16.2141 10.4204
O 11.4432 2.23187 7.84084
O 0.763264 5.5578 7.82037
O 11.0025 17.6571 6.6353
O 13.2516 3.68374 8.84591
O 8.9998 1.08103 7.76112
O 14.2171 12.3912 8.23333
O 14.2946 6.46893 6.64191
O 13.4127 17.3288 8.42388
O 8.23043 11.4654 8.34275
O 14.8478 1.1037 11.8227
Si 14.4039 14.1404 8.61862
Si 2.03037 10.5229 4.14072
Si 14.2935 13.3102 12.1245
Si 4.31214 14.226 10.6548
Si 0.852512 8.97422 8.92018
Si 1.43779 17.377 8.69318
O 6.62581 14.5777 14.9305
O 2.19092 9.80291 9.71685
O 3.5708 11.1424 7.48079
O 2.23087 15.9262 8.32749
O 3.21461 8.40462 5.72634
O 2.00753 15.6226 5.73056
O 0.168451 14.1846 9.53846
O 2.41734 0.420251 8.67157
O -0.00212906 14.1706 12.3625
O 2.70777 14.1266 10.4136
O 0.294437 17.5301 7.49738
O 4.00341 10.7997 13.3317
Si 3.33795 14.7706 5.35017
Si 6.34517 10.5923 4.58005
Si 6.80462 15.4293 9.19613
Si 9.56276 12.0442 7.56372
Si 3.86007 12.1354 6.03858
Si 7.31854 16.0234 6.39706
O 5.31838 14.3277 9.3273
O 7.81341 8.06341 11.8542
O 10.0518 8.93579 5.57276
O 10.2109 1.8717 5.74653
O 5.38415 11.5173 5.21966
O 7.56764 14.9595 5.2501
O 3.37784 13.6519 6.67074
O 6.91369 17.5203 6.15798
O 6.29124 15.5276 7.44241
O 10.0903 13.07 8.84282
O 6.9267 16.667 10.0967
O 9.29937 12.8961 6.09061
Si 9.08441 14.1408 5.03515
Si 1.60681 8.59895 5.98038
Si 10.3084 16.0252 6.90663
Si 14.0037 11.2661 9.56054
Si 11.3549 9.99037 5.81872
Si 12.7813 15.8325 8.74229
O 8.59982 16.1773 7.51701
O 12.686 10.3737 9.73005
O 1.00691 9.78289 5.20718
O 13.4227 14.6957 9.82699
O 12.6935 9.32772 5.69827
O 1.06121 0.165352 4.75598
O 10.1521 15.1699 5.49262
O 14.2042 17.6631 5.8045
O 11.4266 15.4345 7.85614
O 15.4099 10.1742 9.50465
O 11.2781 1.64707 15.513
O 14.019 12.6185 10.6637
Si 13.705 4.55751 10.1889
Si 6.6755 0.392031 15.9435
Si 2.96521 6.37019 15.9115
Si 3.65708 2.14785 1.76236
Si 3.71738 1.90197 16.0236
Si 5.18928 4.51362 15.5456
O 1.59295 5.63509 16.1168
O 6.67377 17.0861 15.0577
O 3.20526 1.75664 0.246298
O 6.2142 5.48074 16.4389
O 0.809165 3.1359 12.9246
O 3.44754 3.5858 13.3803
O 15.5034 17.0756 13.9539
O 4.22788 8.84139 8.37972
O 4.37635 5.96485 15.0533
O 6.78973 16.0068 12.4151
O 2.64887 7.89543 15.3614
O 3.81291 3.80736 1.91357
Si 4.3196 3.91596 11.8865
Si 5.97855 16.7955 11.4329
Si 6.85447 7.19116 15.5906
Si 12.8997 1.87106 14.8125
Si 7.58137 3.01689 14.6131
Si 7.75393 6.90696 12.9568
O 8.48812 6.66964 16.1449
O 9.71194 0.0203796 2.20464
O 7.63399 1.51352 15.2839
O 9.31884 6.63017 13.2407
O 8.06249 2.96378 13.041
O 7.75418 5.43964 11.8475
O 5.06272 0.810298 16.1331
O 5.48196 7.92387 10.5656
O 6.4235 7.23734 13.9786
O 12.8046 2.72686 13.435
O 5.89327 4.94572 4.01062
O 7.853 3.67551 16.0226
Si 8.6581 4.12668 12.0437
Si 12.0683 17.3807 11.3528
Si 10.2312 5.40191 13.8509
Si 13.9713 17.0982 13.7911
Si 13.2856 2.00659 11.954
Si 11.6271 6.694 9.83755
O 10.1892 4.76717 15.4995
O 0.502145 1.24721 15.5139
O 0.305473 16.9518 16.5671
O 3.93531 3.6719 16.1275
O 13.1119 16.0129 14.5839
O 12.705 5.79732 10.5691
O 10.294 4.2326 12.7094
O 11.5499 8.14073 10.324
O 13.8525 3.51003 11.3909
O 13.3205 0.243675 14.6539
O 11.7772 6.29504 13.8377
O 13.7005 17.0744 12.0818
Si 1.36764 13.6112 13.3019
Si 3.54546 10.3063 9.06386
Si 2.6274 15.7537 14.6981
Si 4.8586 11.2487 11.6572
Si 2.43778 11.4637 13.4831
Si 2.3922 2.38441 13.3652
O 1.97384 14.9998 16.1809
O 1.70322 10.2288 14.2607
O 5.96116 10.1163 12.2054
O 2.24675 1.08011 12.441
O 2.05354 12.3696 12.1572
O 5.94197 3.47128 14.4301
O 1.99405 12.6786 14.6698
O 4.73029 15.707 11.3782
O 1.91616 15.2474 13.349
O 9.88511 13.4071 11.6561
O 2.91467 1.77634 14.7426
O 4.93794 12.9935 11.5844
Si 1.51523 15.0992 9.51795
Si 6.52535 9.04264 11.0921
Si 7.39506 14.9267 13.5214
Si 9.12158 11.1268 15.1633
Si 9.19912 13.2045 10.1266
Si 10.3541 16.1082 13.8971
O 3.53747 14.6595 1.1315
O 10.8359 14.6764 14.4684
O 7.56081 13.4282 12.9724
O 9.33156 12.3892 16.0795
O 8.06336 12.0967 10.7136
O 8.11991 14.4612 9.97327
O 4.64449 10.7368 10.13
O 12.16 1.0657 11.2268
O 8.76191 15.8001 13.7346
O 10.3323 9.86793 15.1154
O 8.20526 15.8833 1.46149
O 7.66693 10.5622 15.5169
Si 12.4278 14.5614 13.9015
Si 11.2308 9.79059 10.5408
Si 11.4183 0.0293469 16.0363
Si 14.7503 10.2666 16.7198
Si 11.227 9.83135 13.8256
Si 13.5554 11.9565 14.445
O 10.4245 17.0946 15.1204
O 13.2498 9.57542 17.0822
O 12.3506 8.8504 14.493
O 2.28477 17.2793 14.9877
O 10.9972 9.85384 12.2103
O 14.5132 11.961 12.9829
O 12.1305 11.3301 13.9961
O 12.8402 13.9849 12.3127
O 13.4479 13.5861 14.6496
O 0.0978389 9.23329 16.0033
O 11.5703 17.5486 0.187197
O 14.656 11.3404 15.5171
324
 Atoms. Timestep: 20500
Si 0.703613 4.9077 17.0995
Si 5.56645 16.2452 15.5371
Si 4.40951 8.44171 4.52201
Si 3.60422 2.20305 6.65346
Si 1.68219 1.69585 4.32217
Si 3.7973 5.65567 3.91729
O 3.90543 5.36033 5.63626
O 4.22518 1.29378 9.86448
O 2.49336 2.48771 5.52415
O 6.22287 8.44492 16.9939
O 2.64338 2.23414 3.08615
O 2.54058 5.29082 3.07387
O 1.46054 4.08094 1.07682
O 3.45592 6.31007 0.703195
O 4.44006 7.12828 3.72499
O 4.52049 0.806252 6.70529
O 3.4543 9.13688 3.40056
O 4.8721 3.06994 6.15703
Si 2.79747 5.0851 1.46487
Si 8.28381 17.7488 1.61174
Si 8.26955 5.10227 5.18836
Si 9.85902 3.01391 4.33263
Si 6.28463 1.23098 3.28633
Si 9.18259 5.03543 2.80134
O 6.85734 4.4016 5.32714
O 6.80504 1.61806 4.83139
O 8.76112 3.36467 3.18833
O 12.5216 4.57792 1.0023
O 7.43176 17.6233 0.0145598
O 8.81964 4.67908 1.10381
O 5.34626 2.33215 2.44103
O 8.80252 9.37762 0.318018
O 8.29194 6.08955 3.62807
O 11.2583 3.12242 3.18027
O 6.92172 11.3936 3.204
O 10.836 5.66054 2.75767
Si 8.80585 4.92441 16.7456
Si 0.49194 17.6786 15.0972
Si 13.8046 4.69366 5.14999
Si 15.5068 1.15333 2.14773
Si 15.2763 2.19095 16.3061
Si 13.3294 5.67068 0.206589
O 13.4682 4.2777 3.47953
O 14.0916 0.919383 3.04802
O 15.1318 1.5313 0.538366
O 12.5357 6.94164 1.12194
O 13.5905 2.26157 16.0277
O -0.00444792 3.66691 16.0597
O 15.0444 5.46021 0.369449
O 13.4399 6.08054 15.7475
O 15.3292 4.42266 5.68474
O 0.325318 1.96476 3.435
O 1.16901 6.70398 5.8381
O 12.7292 3.76323 5.79936
Si 1.10725 15.6426 17.0861
Si 2.51398 9.47757 15.9876
Si 1.7023 16.7566 4.46656
Si 3.70125 13.2417 2.15251
Si 1.77367 10.9526 1.0555
Si 4.02032 15.6325 0.498214
O 14.7944 15.5658 7.0641
O 2.53647 11.2097 4.91924
O 1.4937 10.3615 2.36088
O 3.07949 17.3549 3.74954
O 2.84319 10.5473 17.0858
O 4.27859 15.4945 14.7702
O 2.87896 11.9841 1.75523
O 5.46121 15.9219 17.039
O 2.44767 16.2771 0.390608
O 5.33467 12.8795 1.99702
O 3.0868 2.42335 8.14208
O 3.21975 13.9821 3.52017
Si 8.3537 13.0507 12.1852
Si 7.34934 9.86597 16.8897
Si 4.55327 16.8368 3.32848
Si 9.56911 10.4103 4.47047
Si 6.25969 11.6885 1.56231
Si 9.15717 14.9045 2.49951
O 5.04315 15.6484 4.38802
O 8.1075 10.5234 5.29333
O 7.45115 12.2368 0.455386
O 9.31715 13.9894 4.00601
O 5.87264 10.4225 0.509712
O 9.65135 13.8872 1.1507
O 8.39994 12.132 13.4781
O 7.58327 1.01939 2.42472
O 4.8059 16.3949 1.8454
O 9.60674 9.68544 2.96313
O 5.54153 18.0886 3.60505
O 10.6528 11.6129 4.41559
Si 9.28052 12.5627 0.122936
Si 12.675 7.2764 14.8014
Si 11.0447 17.5358 2.12607
Si 12.3327 8.44837 0.282776
Si 9.90332 10.0118 1.37827
Si 15.4718 16.4614 2.19351
O 10.7578 11.2902 7.37952
O 0.715977 9.12495 7.1608
O 11.0485 8.92783 1.06769
O 0.117587 16.0767 4.07543
O 11.9632 8.47638 15.8321
O 0.429207 15.2024 1.20496
O 10.2441 11.3859 0.968784
O 0.884476 18.0021 2.13564
O 10.6473 15.8605 2.63858
O 0.293344 11.1124 0.34161
O 11.6765 17.8395 3.66496
O 13.7233 16.3531 2.48009
Si 13.0905 2.67696 7.06387
Si 2.73206 1.87284 9.67771
Si 0.216458 6.4643 9.77747
Si 5.77567 1.73256 10.603
Si 14.2622 17.8107 6.87477
Si 3.16146 5.5055 10.1766
O 14.8489 5.48167 10.3748
O 5.95864 0.474643 11.7039
O 1.66202 2.40433 10.7019
O 6.07162 7.23261 7.96907
O 0.92593 16.3967 10.0319
O 3.92269 6.25988 9.04339
O 14.0251 1.35181 6.96525
O 1.84795 6.3136 10.4397
O 3.62187 3.81478 10.0848
O 7.18742 1.60535 9.73086
O 0.0887325 8.03383 10.0315
O 5.86114 3.51225 10.9025
Si 5.24522 4.27361 5.19411
Si 6.27164 1.03779 6.27929
Si 4.88097 7.68071 9.05323
Si 8.91741 4.88451 9.36323
Si 8.10844 2.07703 8.47635
Si 7.5802 6.7872 7.94459
O 3.92257 5.38171 11.9255
O 10.7541 16.9359 12.7935
O 8.62926 3.60986 8.43433
O 8.63552 8.12596 8.28491
O 6.87279 2.26561 7.29442
O 7.65785 5.87094 9.43987
O 9.92626 4.52627 5.26509
O 8.13492 6.04077 6.4967
O 6.01569 9.10247 4.98693
O 10.0687 5.80703 8.69609
O 7.70645 10.0059 10.0501
O 9.29386 4.19246 10.8424
Si 12.0017 4.39932 2.55598
Si 13.3033 17.6045 3.69879
Si 8.69006 9.72625 8.7655
Si 1.20913 1.89055 12.1333
Si 10.4524 1.37794 7.12688
Si 15.5782 5.96961 6.54972
O 9.97321 9.75489 9.76818
O 11.9652 16.9601 10.3084
O 11.6424 2.22794 7.74183
O 0.214585 6.00021 8.18898
O 11.1193 18.2309 6.54249
O 13.3246 3.53103 8.32041
O 9.37386 1.05496 8.20578
O 13.7181 12.8706 8.02758
O 13.988 6.30818 5.95717
O 13.0674 17.3771 7.98926
O 8.12315 11.1845 7.76919
O 15.4442 1.72421 12.0583
Si 14.6832 14.4852 8.19398
Si 2.07819 10.0399 3.83822
Si 14.3233 13.0366 12.3928
Si 4.10239 14.4703 11.037
Si 0.250715 9.36668 8.81706
Si 1.20677 17.5111 8.72723
O 6.78856 15.2303 15.0663
O 1.56368 10.3041 9.01216
O 3.55954 11.4514 7.77307
O 2.26852 16.1238 7.88565
O 3.10242 8.64404 5.83871
O 2.37344 15.5899 5.49995
O 0.644429 13.9226 8.95151
O 1.99847 0.496943 9.38665
O -0.102564 14.0604 12.3698
O 2.80509 14.467 10.1218
O -0.0374058 -0.248307 7.77125
O 3.77223 11.1161 13.3481
Si 3.59168 14.7203 4.88161
Si 6.48083 10.7265 4.61999
Si 6.64587 15.4621 9.55117
Si 9.4042 12.2849 7.71742
Si 3.6918 11.9307 5.93032
Si 7.72243 16.4405 7.12495
O 5.46541 14.3205 9.8665
O 7.47058 8.1578 12.2313
O 10.5202 9.58996 5.55878
O 9.72625 2.10065 5.83953
O 5.1529 11.3846 5.63274
O 8.2539 15.8643 5.59701
O 3.5495 13.5348 6.05781
O 7.06717 17.7259 6.58424
O 6.45025 15.982 7.98096
O 9.91175 13.2138 9.03082
O 6.80565 16.7732 10.4658
O 9.27757 13.4374 6.51476
Si 9.41802 14.7991 5.30017
Si 1.57113 8.38121 6.05943
Si 10.7203 16.6435 7.00518
Si 13.9026 11.6567 9.40078
Si 11.4298 10.826 5.88523
Si 12.6839 16.2342 9.03717
O 9.12589 16.7378 7.73127
O 12.4958 10.7182 9.65765
O 1.05176 9.05576 4.57096
O 13.8029 15.5239 9.64493
O 13.0092 10.9142 5.97241
O 1.15489 0.0161966 4.7912
O 10.6094 15.8623 5.54924
O 13.7832 17.3312 5.27646
O 11.5066 15.4507 8.33548
O 14.6195 10.1723 8.7951
O 11.2347 1.51109 15.7724
O 14.393 12.2295 10.8627
Si 13.587 4.24077 9.79878
Si 6.82989 0.64266 16.1958
Si 2.78703 6.63151 16.1722
Si 3.90081 2.43518 1.92534
Si 4.161 1.86145 16.3658
Si 5.18127 4.55438 15.4713
O 1.09849 5.97273 15.9786
O 5.82945 17.7967 15.355
O 3.11238 1.72474 0.647742
O 5.6886 5.64312 16.6246
O 1.94489 2.98117 13.4493
O 4.3029 2.51988 12.8393
O 15.4974 17.0393 13.7678
O 3.85334 9.08073 8.90981
O 3.80473 5.76574 15.3713
O 6.3802 16.6687 12.9413
O 3.3025 8.11471 16.086
O 3.85852 3.9923 1.0392
Si 4.34716 3.88862 11.6397
Si 5.59944 17.0962 11.6114
Si 6.54777 7.12518 16.1408
Si 12.8072 1.5742 14.8585
Si 7.72639 2.88165 14.467
Si 7.84186 7.03921 13.3699
O 8.01551 6.19075 16.358
O 9.77271 0.0575779 1.1417
O 7.90973 1.53101 15.4559
O 9.5681 6.9948 13.7284
O 8.17633 2.65333 12.9186
O 7.73979 5.4839 12.8789
O 5.63753 1.61475 16.9948
O 5.74058 7.88332 10.4194
O 6.64974 7.32695 14.4871
O 13.087 2.44348 13.5176
O 4.96903 4.43857 3.49903
O 8.37836 3.73581 15.5446
Si 8.75175 4.25411 12.3506
Si 12.157 17.2038 11.8912
Si 10.3594 5.72249 14.2304
Si 13.9814 16.6183 14.2352
Si 13.6003 2.03529 11.952
Si 11.3839 6.48638 9.94291
O 10.2723 5.3896 15.8587
O 0.269249 1.04304 15.425
O 0.0951277 16.8127 16.4216
O 4.06765 3.3012 15.7142
O 13.716 15.3542 15.1532
O 12.4199 5.33944 10.32
O 10.1987 4.28747 13.3208
O 11.9563 7.92559 9.55141
O 13.6661 3.21087 10.9462
O 13.1153 -0.198551 14.8572
O 12.0512 6.02744 14.0055
O 13.2253 16.3818 12.7696
Si 1.3774 13.365 13.0564
Si 3.21888 10.6309 9.14113
Si 2.77667 15.6641 14.5793
Si 4.42272 11.6389 11.8957
Si 2.02636 11.1446 13.749
Si 3.02704 1.76055 13.6147
O 1.791 14.7715 15.5982
O 2.14603 9.72657 14.4491
O 5.63897 10.5116 11.7727
O 2.32647 0.708422 12.523
O 1.62482 12.0416 12.1212
O 6.22562 3.64501 14.7129
O 1.62803 12.5547 14.6384
O 4.20926 16.1505 11.4535
O 2.29076 14.6031 13.4253
O 9.83487 13.7104 11.5971
O 3.56403 1.04861 14.9721
O 4.26628 13.311 12.0762
Si 1.72466 15.2331 9.10684
Si 6.49283 9.29513 10.9008
Si 7.42866 15.6798 13.5879
Si 9.03057 11.1696 14.5775
Si 9.04081 13.7794 10.0825
Si 10.4474 16.2673 14.1781
O 3.36271 14.3424 1.04448
O 11.3689 14.8693 14.5996
O 7.46772 14.2272 12.8028
O 9.47497 12.129 15.7871
O 7.90114 12.673 10.6888
O 8.20115 14.825 9.25097
O 3.96191 11.3899 10.3252
O 12.6024 0.670621 11.8413
O 8.78499 16.3804 13.9599
O 9.81883 9.7164 14.2248
O 8.13399 16.3541 2.42291
O 7.5782 10.3567 15.2293
Si 12.7976 14.0561 14.3581
Si 11.5656 9.62116 10.1557
Si 11.1538 0.0914186 16.6986
Si 15.284 9.84302 16.7864
Si 11.4051 9.44889 13.3587
Si 13.706 11.431 14.6326
O 10.815 17.1118 15.5377
O 13.8224 9.41016 0.534174
O 12.8097 8.23413 13.4741
O 2.03267 17.1285 14.5801
O 11.2701 9.15416 11.7827
O 14.9511 12.0642 13.4837
O 12.3828 10.6826 13.8304
O 12.9219 13.7157 12.6477
O 12.9929 12.6307 15.2035
O 0.973217 8.98838 16.8622
O 12.0082 17.4415 0.659571
O 14.6686 10.3426 15.3069
324
 Atoms. Timestep: 21000
Si 0.390814 4.89396 16.9379
Si 5.08002 15.766 15.6891
Si 4.52839 8.37114 4.48603
Si 3.14304 2.37279 6.65543
Si 2.18503 1.1782 4.3391
Si 3.7577 5.71434 4.19907
O 3.76761 5.6058 5.77714
O 4.38541 1.68221 10.2249
O 2.02018 2.16005 5.6121
O 6.03074 8.19573 16.4463
O 3.59526 1.57466 3.67075
O 2.47872 5.57319 3.24911
O 1.61991 4.90659 1.02157
O 3.26272 6.28817 0.200817
O 4.34429 7.24105 3.33916
O 4.16515 1.20902 6.39731
O 3.83367 9.6425 3.7189
O 4.59615 3.33496 6.46815
Si 3.09405 5.00077 1.67368
Si 8.4036 18.0145 1.26752
Si 8.14405 5.45286 5.30088
Si 10.084 3.04357 4.38035
Si 6.38217 0.889357 3.4418
Si 9.16411 4.826 2.71001
O 6.41648 5.10303 6.01078
O 6.16701 1.98993 4.57019
O 9.18141 3.09696 3.01839
O 12.784 4.47271 1.15467
O 7.63296 0.539516 17.1072
O 8.41648 4.70859 1.2583
O 5.71246 1.65261 2.26536
O 8.58816 9.07442 0.4715
O 8.11345 5.71376 3.74691
O 11.618 3.6217 3.83206
O 6.17496 10.7768 3.01049
O 10.7281 5.7231 2.95176
Si 8.76355 5.09903 16.8893
Si 0.723858 17.821 15.0488
Si 14.0336 4.7656 4.94297
Si -0.0621107 1.19189 2.31112
Si -0.0768818 1.88196 16.6146
Si 13.6828 5.66081 0.617546
O 13.3584 5.08515 3.48447
O 14.2548 1.1222 3.04361
O 0.327468 1.85322 0.801093
O 12.7848 6.89287 1.42272
O 14.1744 1.20218 16.6618
O 15.5801 3.40048 16.122
O 15.2615 5.64423 0.712849
O 13.2776 6.24205 16.3918
O 0.108942 4.78368 5.04067
O 1.00066 1.82195 3.33295
O 1.13024 6.8837 6.1587
O 13.7297 3.52086 5.94301
Si 1.06713 16.0946 17.1171
Si 1.63087 9.29094 16.0284
Si 2.11932 16.5015 4.13078
Si 3.64251 13.1521 2.12862
Si 1.48463 10.943 1.17149
Si 3.70517 15.9758 0.944328
O 14.132 15.9679 7.2695
O 2.53233 11.353 4.72507
O 1.24282 10.3886 2.56419
O 3.51811 17.0254 3.09024
O 2.37009 10.033 0.0178938
O 3.96408 15.1907 14.5394
O 2.49472 12.2636 1.18436
O 4.29146 15.3696 16.8819
O 2.37322 16.8213 0.568523
O 5.02156 12.6051 1.23946
O 2.57775 2.56718 8.17399
O 3.76794 13.2536 3.71148
Si 8.31959 13.0698 12.5159
Si 7.21827 9.3439 16.9213
Si 5.10735 16.6218 3.15378
Si 9.64568 10.3967 4.58121
Si 6.17455 11.4981 1.46399
Si 9.35103 15.0576 1.64611
O 5.17417 15.4357 4.37587
O 8.03863 10.2958 5.02014
O 7.53487 12.2546 1.44177
O 8.79713 14.35 3.23842
O 6.0106 10.4677 0.0382744
O 9.65707 14.0242 0.533975
O 8.6579 12.1804 13.821
O 8.00048 0.174046 2.83552
O 5.23581 16.261 1.5106
O 9.72708 9.42509 3.25772
O 5.84606 17.7226 3.94464
O 10.4515 11.915 4.38439
Si 9.13835 12.4875 0.499492
Si 12.8657 7.32352 15.1951
Si 11.7627 17.1523 1.84738
Si 12.4709 8.35087 0.948179
Si 9.73247 9.96662 1.69183
Si 15.5622 16.3638 2.18523
O 11.3038 12.059 6.8777
O 1.26803 9.10662 6.72021
O 11.0314 9.07523 1.10053
O 0.917068 15.8518 3.26844
O 12.6444 8.364 16.6717
O 0.0268881 15.1521 0.874173
O 10.1594 11.3165 1.32422
O -0.00207401 17.9344 1.59875
O 11.0543 15.7735 1.76546
O 0.0493485 11.1408 0.431896
O 12.1836 17.7727 3.2919
O 14.0835 16.7786 2.76106
Si 13.2266 2.50959 7.18203
Si 2.73675 1.83202 9.59239
Si 0.115792 6.20508 9.16976
Si 6.00143 1.65514 10.7221
Si 14.3207 17.815 7.06109
Si 3.10275 5.55216 10.2038
O 14.8084 5.23984 10.2294
O 5.55932 0.240648 11.4545
O 1.43513 2.29056 10.4728
O 5.77549 7.31156 8.34571
O 0.541513 16.3848 9.47771
O 3.86363 6.7818 9.58535
O 14.1084 1.2516 6.98772
O 1.67921 6.14204 9.81614
O 3.43802 4.05891 10.099
O 7.63553 1.4266 9.84474
O 15.5766 7.86564 8.8324
O 6.00741 3.36681 11.2982
Si 5.14284 4.46533 5.58496
Si 5.88378 1.30671 6.22892
Si 4.98476 7.93938 9.4065
Si 8.86884 5.11901 9.47189
Si 8.00605 2.34217 8.38939
Si 7.41917 7.23808 7.62588
O 4.23264 5.48497 11.7504
O 11.1625 17.2468 13.1261
O 8.32217 3.75786 8.76286
O 8.02729 8.69035 7.92218
O 6.44886 2.10813 7.54604
O 7.65286 6.20989 9.01484
O 9.44821 4.48148 5.29618
O 8.22108 6.83931 6.13991
O 5.89541 8.9451 5.21965
O 10.0313 6.11532 9.04939
O 8.17467 9.78448 10.4189
O 9.07886 4.80249 11.0858
Si 11.9817 4.81565 2.71323
Si 13.6081 17.9111 3.91755
Si 8.77709 9.90118 8.92317
Si 1.06209 2.03049 12.1224
Si 10.4654 1.32306 6.56713
Si 0.0703349 5.71558 6.2821
O 10.2864 9.57697 9.35994
O 12.0052 17.5592 10.1143
O 11.6851 2.20843 6.8127
O 15.6727 5.22748 7.90314
O 11.0045 17.975 6.38803
O 13.4802 2.80861 8.96088
O 9.28993 1.86527 7.54043
O 13.8197 13.0381 8.34361
O 14.0532 6.23599 5.81682
O 13.9552 17.8242 8.65927
O 8.85092 11.2584 7.8828
O 15.3575 1.56864 12.5867
Si 14.5546 14.7157 8.42908
Si 2.28108 9.98568 3.93053
Si 14.3467 12.2782 12.361
Si 4.26139 14.3507 10.762
Si 0.376643 9.19652 8.23762
Si 1.30802 17.2552 8.41046
O 6.39784 15.169 15.2902
O 1.7229 9.82396 9.06064
O 3.35898 11.2043 7.43536
O 2.58551 16.1437 8.07425
O 3.66079 7.96342 5.98949
O 2.381 15.2106 5.22624
O 0.470167 14.3042 8.09553
O 2.16502 0.415309 9.18447
O 15.4797 13.4684 12.3777
O 2.72481 14.5159 10.0977
O 0.358059 17.6668 7.18714
O 3.82051 10.9189 13.0849
Si 3.86695 14.4046 4.90381
Si 6.35599 10.4316 4.57441
Si 6.76404 15.6034 9.17496
Si 9.79162 12.4693 7.3372
Si 3.67949 11.831 5.84844
Si 7.24643 16.6393 6.51655
O 5.50188 14.5573 9.56612
O 7.29226 8.88455 12.686
O 10.8285 9.87231 5.58584
O 10.1136 1.49303 5.01105
O 5.35992 11.4206 5.48381
O 7.34714 15.5171 5.39512
O 3.98814 13.4282 6.10824
O 6.54149 17.8951 6.03097
O 6.52333 16.6379 7.99548
O 10.1968 13.1012 9.03447
O 6.73205 16.7429 10.302
O 8.66481 12.9808 5.96657
Si 8.68006 14.4897 5.01639
Si 1.93761 8.19313 5.72933
Si 10.2969 16.534 6.87907
Si 13.8281 11.561 9.15763
Si 11.7601 11.3757 5.33118
Si 12.8909 16.7157 9.06385
O 8.78648 16.7329 7.22969
O 12.5802 10.5444 9.53507
O 1.29996 8.72745 4.24867
O 13.9618 15.1857 9.91038
O 13.0594 11.2138 4.54138
O 1.32876 17.8852 4.85872
O 10.024 15.358 5.64121
O 13.7348 17.9086 5.50444
O 11.359 16.0861 8.30111
O 14.8838 10.2169 8.37523
O 11.5708 1.1385 16.0474
O 14.271 11.3674 10.8505
Si 13.6846 3.89788 10.0726
Si 6.43253 0.626033 15.9298
Si 2.50563 6.37589 16.1409
Si 4.11145 1.86112 2.32334
Si 4.00749 2.05872 16.7577
Si 4.66472 4.8103 15.7001
O 1.04661 5.84139 15.8189
O 5.28001 17.5463 15.9388
O 3.4378 1.28914 0.750937
O 5.57209 5.4795 16.7825
O 1.75903 3.07533 13.2152
O 4.06588 2.88531 12.5796
O 15.375 17.5025 13.8656
O 4.20482 9.20051 8.75208
O 3.50798 5.35296 14.9943
O 6.71653 16.4966 13.1971
O 2.33083 7.9141 15.5068
O 3.51619 3.39075 1.98992
Si 4.55128 3.83114 11.4042
Si 5.85392 16.8583 11.6742
Si 6.60158 6.74038 16.0977
Si 13.0423 1.03713 15.3907
Si 7.05598 3.12857 14.7689
Si 7.90248 7.39926 13.5404
O 8.13671 6.60072 16.6919
O 10.0142 0.194051 0.711412
O 7.32339 1.38083 14.8084
O 9.46419 7.40324 14.2369
O 8.03809 3.58141 13.3978
O 7.64092 6.35769 12.2215
O 5.59538 1.82385 16.8407
O 5.31854 8.56415 10.9116
O 6.92115 6.7584 14.5164
O 13.4397 1.93827 14.1775
O 4.6675 4.42882 3.92955
O 7.86217 3.70288 16.1486
Si 8.54933 4.94304 12.595
Si 12.2021 17.3879 11.8416
Si 10.4912 6.13605 14.6525
Si 13.9304 16.7738 13.876
Si 13.6113 2.04464 12.539
Si 11.6295 6.37501 9.27986
O 10.2939 5.25515 16.2546
O 0.846159 1.19822 15.4775
O 0.105079 17.079 16.2838
O 3.92827 3.66873 16.6538
O 13.8595 15.2489 14.706
O 12.1804 4.76243 9.34701
O 9.8931 5.1373 13.5229
O 12.2553 7.62751 9.68438
O 13.7309 3.47817 11.6834
O 13.1151 17.7032 14.8886
O 12.0952 6.3163 14.2031
O 13.428 16.4085 12.3248
Si 1.26381 13.3825 12.8851
Si 3.27797 10.355 8.82051
Si 2.43508 15.5873 14.4656
Si 4.62534 11.5496 11.34
Si 2.44234 11.2865 13.675
Si 3.00406 2.2294 13.6239
O 1.58212 15.2702 15.9248
O 1.87185 10.1103 14.6527
O 6.04617 11.0352 11.5578
O 2.02824 0.901683 12.7906
O 1.35371 11.7045 12.3212
O 5.64828 3.69513 14.825
O 2.23099 12.7942 14.3353
O 4.68496 15.6652 11.6304
O 1.63695 15.0248 13.1327
O 9.64999 13.8455 11.6461
O 3.53333 1.63752 15.1298
O 4.50999 13.0735 11.7586
Si 1.60008 15.0903 8.99003
Si 6.79792 9.54395 11.237
Si 7.32352 15.2065 14.0127
Si 9.03087 11.0455 15.1703
Si 9.17107 13.6241 10.074
Si 10.4292 16.2127 14.3002
O 3.13674 14.7703 1.87707
O 11.3424 14.7718 14.0103
O 7.09301 13.8032 13.2548
O 9.21773 12.0717 16.2382
O 8.03683 12.4699 10.9336
O 8.06731 14.6035 9.27518
O 3.75331 11.3287 10.0148
O 12.9011 0.694516 11.9867
O 8.98788 15.3748 13.9779
O 10.2336 10.0089 14.6795
O 8.29124 16.378 1.42232
O 7.9238 9.92167 15.3619
Si 12.9222 14.2373 14.0978
Si 11.5838 9.45097 10.2249
Si 11.1421 17.9693 16.89
Si 14.7227 9.85556 -0.111365
Si 11.4988 9.75857 13.5018
Si 13.5747 11.5583 14.9243
O 10.4513 17.0096 15.7603
O 13.9551 9.26071 1.32832
O 12.4509 8.49552 14.273
O 2.17542 17.2703 14.4652
O 11.5896 9.52998 11.8561
O 14.7751 11.5413 13.9909
O 12.2817 11.0855 13.7302
O 13.0156 13.1289 12.8644
O 13.3413 13.1165 15.2676
O 15.5948 8.84151 15.9682
O 12.5034 17.6295 0.39696
O 13.5748 10.7912 16.2911
324
 Atoms. Timestep: 21500
Si 0.0780872 4.62111 17.1796
Si 5.38889 15.7442 15.3309
Si 4.75322 8.62953 4.3895
Si 3.93534 2.23163 6.66512
Si 2.34424 1.16785 4.26104
Si 4.34461 5.78044 3.81061
O 4.14387 5.6043 5.37916
O 4.08084 1.29749 9.86318
O 3.11774 2.21457 5.2583
O 6.28192 8.38249 16.8639
O 3.43757 0.871161 3.13936
O 3.07492 5.58465 2.87606
O 1.31451 4.19225 1.07444
O 2.70597 6.48235 0.7487
O 4.68791 7.2788 3.41737
O 4.84638 1.02205 6.42639
O 3.87814 9.90091 3.49287
O 4.87108 3.65771 6.98056
Si 2.65446 4.68687 1.6068
Si 8.42313 17.8596 0.753847
Si 8.1572 5.62628 5.41366
Si 9.89869 3.3691 4.91242
Si 6.52646 0.588862 2.96097
Si 8.96314 4.81791 2.80534
O 6.70597 5.32396 5.99504
O 6.69868 1.41436 4.45712
O 8.7217 3.36732 3.6491
O 12.5553 4.42733 1.87993
O 7.51 0.488945 16.7364
O 8.71608 4.56775 1.11955
O 5.69349 1.22356 1.84414
O 8.50244 9.42561 0.472027
O 8.24094 5.60407 3.90322
O 11.203 3.08274 4.03267
O 6.00761 11.4033 2.98019
O 10.4597 5.45599 2.97163
Si 8.37725 4.74477 16.7102
Si 0.893661 18.069 14.9973
Si 14.1207 5.17045 5.63227
Si -0.00509267 0.951965 2.63813
Si 15.1625 1.76591 16.9306
Si 13.2979 5.81691 0.819252
O 12.8197 5.38655 4.7463
O 14.4494 0.739687 3.62911
O 15.4354 1.3813 1.11957
O 13.1694 7.36871 1.39329
O 13.6562 1.36013 16.561
O 15.0653 3.22671 16.5377
O 14.9065 5.36214 1.06849
O 13.2081 6.26341 16.3874
O 0.0740454 4.55928 5.22934
O 0.912603 1.83847 3.59648
O 1.44784 6.78137 5.35216
O 13.4967 4.01847 6.62658
Si 1.17597 16.1457 17.0275
Si 1.09329 9.46472 16.1134
Si 2.3154 16.3312 4.28102
Si 3.27147 13.1049 1.82053
Si 1.24029 11.3113 0.909263
Si 3.91624 15.5652 0.349466
O 15.0486 14.4898 7.35421
O 2.4696 11.1588 5.59498
O 1.87377 11.0702 2.44899
O 3.46248 16.7183 3.27354
O 1.87574 9.93058 0.272059
O 4.20661 15.6174 14.2399
O 2.13926 12.6554 0.744376
O 4.73117 14.6976 16.5154
O 2.61479 16.6412 0.189516
O 4.78662 12.7105 1.18135
O 2.95608 2.59789 7.82834
O 3.0668 13.0018 3.48187
Si 8.92882 12.7375 12.2881
Si 7.11058 9.77506 16.8445
Si 4.95388 16.1828 2.97139
Si 8.94929 10.6115 4.48533
Si 6.32974 11.9824 1.48358
Si 9.71534 15.0812 2.37037
O 5.00383 14.8427 3.94227
O 7.60675 11.0048 5.36267
O 7.74309 12.7113 1.02859
O 9.22047 14.1785 3.68573
O 6.31781 11.1218 -0.0583245
O 10.0043 13.9068 1.25283
O 9.05475 11.6755 13.5017
O 7.84556 0.381126 1.95534
O 5.1504 16.3041 1.30273
O 8.3707 9.71141 3.09669
O 6.18869 17.213 3.25246
O 9.96936 11.8586 3.95125
Si 9.43335 12.4855 0.397833
Si 12.3306 7.44838 15.5554
Si 12.3064 16.5422 2.15673
Si 12.2958 8.89761 0.956414
Si 9.5388 9.8021 1.68343
Si 0.0991862 16.1504 2.28071
O 10.9136 12.2299 6.28136
O 1.13962 8.81195 7.16751
O 11.1055 9.21461 2.0679
O 0.831114 15.4488 3.57828
O 11.8301 8.93422 16.7345
O 0.24059 15.3951 0.822594
O 9.99333 11.215 1.25619
O 0.849864 17.7737 2.28414
O 11.3586 15.5905 2.79878
O 15.3714 11.7993 0.792038
O 12.193 17.9005 3.17278
O 14.0505 16.3188 2.53282
Si 13.4861 2.45152 7.34105
Si 2.48703 1.68035 9.13718
Si 0.621169 5.7975 9.0031
Si 5.57278 1.6072 10.2853
Si 14.1983 17.7789 7.02871
Si 3.23101 5.64626 10.5551
O 15.1246 4.92837 9.45446
O 6.02154 0.368139 11.3381
O 1.47302 1.97027 10.2995
O 5.96004 7.27297 7.79784
O 1.23073 16.7381 10.2153
O 4.11082 6.53934 9.51803
O 13.9336 1.14482 6.55135
O 1.66463 5.6143 10.4866
O 3.61975 3.99569 10.261
O 6.8387 1.79244 9.19445
O 0.484417 7.28373 9.35674
O 5.73031 2.97765 11.3429
Si 5.40125 4.5405 5.64814
Si 6.49295 0.946496 6.15697
Si 4.91396 7.72918 8.93057
Si 9.00269 4.7992 9.26961
Si 7.98417 2.24534 8.04529
Si 7.63701 7.45127 7.47338
O 4.05297 5.55063 11.9755
O 10.7712 17.6615 13.0781
O 8.66186 3.67257 8.07277
O 8.42474 8.91725 7.60432
O 7.47339 2.07878 6.52437
O 8.10651 6.10729 9.18708
O 9.41244 4.71619 5.69646
O 8.36865 6.8223 6.32333
O 6.35382 8.90966 4.43403
O 10.4532 5.56851 9.26808
O 8.06505 9.76139 9.88831
O 8.58584 4.18637 10.7841
Si 11.9838 4.78344 3.41165
Si 13.8049 17.4873 3.9372
Si 9.1614 9.9417 8.8143
Si 0.762558 2.19025 11.8044
Si 10.3719 1.29668 7.11842
Si 0.677779 5.66664 6.15086
O 10.4637 9.40041 9.36147
O 11.7425 17.1977 10.2488
O 11.8337 2.07519 7.60668
O 1.5131 5.37485 7.59121
O 10.8805 18.0079 6.39724
O 13.7075 2.86001 8.92333
O 9.41556 1.3386 8.33011
O 13.7532 12.3487 8.75539
O 14.9587 6.29455 6.44297
O 13.0671 16.9539 7.86801
O 9.12035 11.3186 8.05325
O 14.9923 1.75821 11.9778
Si 14.4688 13.8675 8.63176
Si 2.37458 10.4575 4.00391
Si 14.5334 12.995 12.229
Si 4.19097 14.556 10.9079
Si 0.693541 8.8562 8.9736
Si 1.42679 17.2228 8.58841
O 6.74793 15.0223 15.1426
O 2.04593 9.38084 9.53328
O 3.52375 11.4328 7.95251
O 1.609 15.6853 8.01905
O 3.45755 8.33501 5.73137
O 2.52524 14.8836 4.97701
O 15.5433 14.2547 9.97911
O 2.11331 0.32636 8.2126
O 0.323308 13.9694 12.6241
O 2.64143 14.2895 10.2315
O 15.4893 17.6288 8.07226
O 4.10802 10.8336 13.327
Si 3.73799 13.9005 4.67591
Si 6.19244 10.741 4.56646
Si 6.56554 14.8739 9.24322
Si 9.95023 12.6944 7.50107
Si 3.89054 11.5658 6.38446
Si 7.5326 16.3053 6.95827
O 5.44165 13.9645 9.7769
O 7.14075 8.64416 12.1243
O 10.079 9.98932 5.50002
O 9.6819 1.98943 5.7527
O 5.24902 10.5721 5.925
O 8.07903 15.8776 5.53285
O 4.65077 12.9918 5.68539
O 6.7522 17.7608 6.86829
O 6.39253 15.3715 7.74634
O 10.7245 13.0137 8.96476
O 6.75932 16.4937 9.95017
O 8.94689 13.654 6.73935
Si 9.20544 14.7483 5.39558
Si 1.79625 8.41075 5.71305
Si 10.3976 16.5666 7.1174
Si 14.1335 11.0947 9.77418
Si 11.0865 11.3824 4.91575
Si 12.3494 16.2735 9.1263
O 8.89503 16.5774 7.91467
O 12.8284 10.414 9.99221
O 1.15027 9.34492 4.61988
O 13.2086 14.8905 9.38785
O 12.6054 11.1817 4.79417
O 1.79418 17.7858 5.10895
O 10.5891 15.5534 5.86991
O 14.1841 16.9398 5.44952
O 10.9091 15.7632 8.51961
O 15.1681 9.73877 9.40386
O 11.6593 0.925441 15.8248
O 14.5202 11.8851 10.9982
Si 13.7984 4.09803 9.94716
Si 6.31263 0.578095 15.6708
Si 2.13067 6.5151 16.3167
Si 4.07666 1.84807 1.98253
Si 3.70663 2.38317 16.3699
Si 4.63337 5.11134 15.8754
O 0.678035 5.68455 15.9294
O 5.71842 17.3286 15.5127
O 2.93683 1.60664 0.288765
O 5.3957 5.87228 16.8658
O 1.01307 3.36792 13.0089
O 3.6621 3.36089 13.1269
O 0.156513 18.0333 13.5347
O 4.20258 9.0694 8.55942
O 3.26872 5.98694 15.249
O 6.47481 16.6109 12.8492
O 1.81706 8.13298 15.8649
O 3.84862 3.37392 2.16394
Si 4.43007 3.91051 11.6357
Si 5.76231 16.9257 11.3369
Si 6.61939 6.89366 16.1726
Si 13.0548 1.19617 15.1244
Si 6.91169 3.26131 14.4646
Si 7.28926 7.2669 13.0814
O 8.06352 6.41576 16.5962
O 9.90309 0.363881 0.485396
O 7.01524 1.67642 14.4059
O 8.62684 6.96344 14.0487
O 7.82208 3.57536 13.0678
O 7.14715 5.95807 12.0903
O 5.02717 1.56756 16.25
O 5.7175 8.37345 10.1244
O 6.2903 7.23169 14.5833
O 13.149 2.16408 13.7406
O 5.47104 4.44238 3.82669
O 7.27571 3.61987 16.2814
Si 8.41198 4.90321 12.2274
Si 11.8765 17.6634 11.7277
Si 9.94161 5.86478 14.3814
Si 14.3423 17.4899 13.2189
Si 13.1775 2.08132 12.0818
Si 11.6122 6.36108 9.85263
O 9.61239 4.52858 15.4931
O 0.574082 1.21907 15.8293
O 0.0984744 17.1727 16.305
O 3.99239 4.01973 16.8364
O 14.1663 15.8845 14.1081
O 12.7534 5.52043 10.2266
O 9.99231 5.49024 12.6905
O 12.0437 7.77191 10.2578
O 13.1721 3.37963 11.3062
O 13.5525 18.0252 14.6068
O 11.283 6.57479 14.3894
O 13.4639 17.1471 11.9758
Si 1.7513 13.4639 12.8664
Si 3.39616 10.3071 9.20079
Si 2.61302 15.8803 14.3186
Si 4.70241 11.5319 11.7282
Si 2.30019 11.2318 13.6416
Si 2.36385 2.47475 13.7906
O 1.81405 15.0903 15.687
O 1.53044 10.1359 14.6195
O 6.15793 10.9472 11.1696
O 2.05024 1.34503 12.8351
O 1.69327 12.0849 12.125
O 5.63088 4.29876 14.5072
O 2.11411 12.8413 14.359
O 4.29947 16.135 11.221
O 2.47717 15.0323 12.7729
O 9.84018 13.9475 11.5015
O 2.83289 1.83778 15.1548
O 4.56905 13.2991 12.0263
Si 1.29815 15.0886 9.58598
Si 6.67579 9.36711 10.7688
Si 7.62095 15.0012 13.7684
Si 9.02569 10.8781 14.939
Si 9.37852 13.4395 9.87846
Si 10.5059 16.5088 14.2777
O 3.35389 14.646 1.5301
O 11.5856 15.3854 13.9787
O 7.59371 13.6611 12.807
O 9.48991 12.1029 16.0692
O 8.22807 12.403 10.7798
O 8.13835 14.1569 9.13081
O 3.82206 11.3096 10.4519
O 11.8175 1.08896 11.8173
O 9.20279 15.5822 14.1294
O 10.0949 9.52094 14.611
O 9.06735 16.4574 2.00062
O 7.66422 10.1527 15.1994
Si 13.1564 14.7645 13.9317
Si 11.6532 9.30634 10.4841
Si 11.2464 18.1075 17.0032
Si 14.3692 10.6796 -0.0542534
Si 11.5326 9.60916 13.6999
Si 13.4236 11.9798 14.7344
O 10.3933 17.0467 15.7646
O 13.3175 9.98947 0.919449
O 12.7911 8.56199 14.222
O 2.58516 17.6559 14.6001
O 11.481 9.76109 12.1448
O 14.5313 11.7879 13.5033
O 12.1734 11.1486 14.0319
O 13.2939 14.0318 12.4453
O 13.3859 13.5719 15.1584
O 15.2824 9.35118 16.5565
O 12.3147 16.8776 0.607404
O 13.7558 11.4687 16.0841
324
 Atoms. Timestep: 22000
Si 0.110484 4.99712 0.203466
Si 5.56687 16.1248 15.0088
Si 4.259 8.86405 3.85936
Si 3.63094 2.03277 6.50868
Si 2.02411 1.3275 4.07656
Si 3.82708 5.92617 3.78023
O 4.0611 5.95424 5.38122
O 3.95536 1.32293 10.2826
O 2.30889 2.34657 5.43864
O 6.05524 8.74134 16.3255
O 2.92743 1.30152 2.86677
O 2.79513 4.93982 3.18621
O 1.08073 4.36542 1.31105
O 2.85012 5.70616 0.433856
O 4.12777 7.35806 3.24321
O 4.55442 0.568444 6.59786
O 3.24179 9.82157 3.0508
O 4.75469 3.20607 6.22677
Si 2.49902 4.40684 1.57882
Si 8.48845 17.9182 1.00156
Si 8.15253 5.66875 5.07939
Si 10.1039 3.26565 4.49611
Si 6.45577 0.572638 3.2147
Si 9.41904 4.87951 2.42116
O 6.94485 4.71127 5.67557
O 6.51114 1.62645 4.58199
O 9.46515 3.36208 3.03339
O 12.8529 4.85823 1.60065
O 7.08144 17.9821 0.0719683
O 9.09753 4.77347 0.924769
O 5.34208 1.01787 1.87027
O 8.56445 9.41561 0.352957
O 8.18675 5.47458 3.55772
O 11.7319 3.40606 3.70457
O 6.17523 12.0456 3.44572
O 11.0247 5.9875 2.73154
Si 8.22971 4.75305 16.8952
Si 0.450283 18.054 15.3863
Si 13.841 4.73253 5.74775
Si 15.5359 1.1307 2.29649
Si 14.9172 2.36183 16.7186
Si 13.5207 6.33176 0.901752
O 13.2814 5.52895 4.40295
O 14.3832 0.482548 3.13462
O 14.7683 1.68787 1.07189
O 13.086 7.57234 1.8118
O 13.4513 2.1163 16.1249
O 14.7572 3.94896 17.0927
O 15.1443 6.20028 0.987632
O 13.0242 6.69462 16.8411
O 15.5519 4.27075 5.97751
O 0.680163 1.85684 3.43643
O 1.13432 6.67546 5.58533
O 13.0077 3.52453 6.48434
Si 1.50354 16.0052 17.1481
Si 1.23624 9.30921 16.3045
Si 2.33268 16.748 4.2343
Si 3.64057 13.3021 1.96626
Si 1.1567 11.3079 1.27012
Si 4.42902 15.8723 0.208813
O 14.9081 14.0868 7.20278
O 2.43691 11.199 5.4033
O 1.06997 11.111 2.97591
O 3.38211 16.8153 2.981
O 1.5845 9.95996 0.374599
O 4.27486 16.0578 14.2061
O 2.50397 12.3687 1.22898
O 5.54022 15.5944 16.5026
O 2.98487 16.8276 0.299688
O 4.93931 12.7031 1.30499
O 3.01318 2.45167 7.93042
O 3.25071 13.3727 3.50474
Si 9.26399 13.1294 12.4584
Si 7.11433 9.8931 17.0274
Si 4.97904 16.2899 2.97149
Si 9.15398 10.9203 4.40338
Si 6.33898 12.0104 1.81039
Si 9.9627 15.3205 1.66774
O 5.25006 14.9131 3.73546
O 7.78925 10.914 5.4209
O 7.73866 12.7182 1.33773
O 9.77941 14.646 3.2455
O 6.18725 10.5724 0.970855
O 9.8216 13.9573 0.716407
O 9.69338 12.0006 13.6609
O 7.76696 -0.0804159 2.44962
O 5.2281 16.7544 1.37621
O 8.67789 10.56 2.8078
O 5.62374 17.5551 3.92468
O 10.3063 12.1189 4.21
Si 9.12338 12.5878 0.322451
Si 11.9127 7.41628 15.791
Si 12.5662 16.7866 1.62629
Si 12.098 8.59774 1.15903
Si 9.68412 10.0114 1.71576
Si 0.277289 16.5168 2.20191
O 11.1648 11.3733 6.90068
O 1.32054 8.58616 7.25205
O 11.0648 9.24255 2.25606
O 0.845185 16.2405 3.89057
O 11.1549 8.12578 17.0462
O 0.664256 15.2844 1.16944
O 10.0433 11.3083 0.858168
O 1.01122 17.9787 2.02276
O 11.7199 15.6365 1.46032
O 15.4272 11.2847 0.807447
O 12.2512 17.4389 3.23075
O 14.3914 16.4832 2.46303
Si 12.956 2.39836 7.71716
Si 2.77139 1.38867 9.19186
Si 0.94353 6.20723 9.50525
Si 5.55948 1.46479 10.7957
Si 14.4325 17.7561 7.31942
Si 4.23248 5.81499 10.1572
O -0.244337 5.2664 10.1045
O 5.86162 -0.0552653 11.7328
O 1.35933 2.19833 9.85995
O 6.54644 8.0879 7.7745
O 0.456816 16.4312 10.2912
O 5.03209 6.45122 8.88042
O 13.6981 0.943454 7.39894
O 2.59079 6.36172 10.1941
O 4.43314 4.05828 9.98226
O 6.65819 1.50548 9.58346
O 0.308436 7.74566 9.58193
O 5.52926 2.67226 11.7932
Si 5.3465 4.52324 5.10448
Si 6.28673 0.63328 6.22744
Si 5.32237 8.09126 8.74209
Si 8.57956 4.87275 9.5676
Si 7.68986 2.13919 8.39861
Si 8.06708 7.45682 7.57805
O 4.68503 5.64562 11.6643
O 10.982 17.8693 12.5122
O 8.35183 3.69533 8.52618
O 8.89278 8.59676 8.37162
O 6.91977 1.7535 7.07616
O 8.66609 6.13364 8.50516
O 9.65456 4.47774 5.62322
O 8.36911 6.83697 6.19064
O 5.82786 9.48265 4.04941
O 10.3125 5.20442 10.029
O 7.48746 10.1125 10.1809
O 8.46707 4.28252 11.0033
Si 12.2247 4.91002 3.13898
Si 13.7435 17.4474 3.77954
Si 8.86441 9.97501 9.31442
Si 0.799446 1.82361 11.3273
Si 10.2117 1.36102 7.32161
Si 0.267497 5.71467 6.59707
O 10.1642 9.91896 10.2265
O 12.3518 16.9739 10.1202
O 11.3067 2.23851 8.10005
O 1.1121 5.36892 7.9216
O 10.4695 17.9844 7.31694
O 13.913 3.14979 8.92165
O 8.91099 1.27562 8.18809
O 13.5777 12.392 9.38469
O 14.1594 5.99392 6.88365
O 13.5102 16.6215 7.96226
O 8.53769 11.0366 7.94282
O 15.1092 1.53785 11.8269
Si 14.6808 13.484 8.61766
Si 2.01358 10.4087 4.0154
Si 14.8261 12.5765 12.4094
Si 4.3732 14.1408 10.7839
Si 0.706472 9.16453 8.75274
Si 1.12439 17.0269 8.94261
O 6.91172 15.6787 14.1256
O 1.72818 10.1813 9.51568
O 3.37709 11.8894 7.87314
O 1.84219 15.679 8.48346
O 3.26532 8.76781 5.25792
O 3.36203 15.6681 5.09043
O 0.513079 13.4907 9.57241
O 2.28933 -0.230237 9.20224
O 0.0600435 13.9752 12.3966
O 2.81941 14.631 10.5528
O 0.122279 17.7487 7.61678
O 3.6119 10.5059 13.0734
Si 4.08084 14.2451 4.7222
Si 6.31965 10.9446 4.62287
Si 6.48192 14.6442 8.80957
Si 9.71985 12.0539 7.21266
Si 3.76113 11.8971 6.12258
Si 7.50358 15.7062 6.5091
O 5.16181 13.7827 9.3161
O 7.4787 8.28963 12.2913
O 10.2397 9.65719 5.2048
O 9.95303 2.0829 5.59913
O 4.92507 11.5406 5.24583
O 7.75831 15.3365 5.01033
O 4.0261 13.5363 6.17508
O 6.592 17.2376 6.38161
O 6.67618 14.5111 7.30007
O 9.9445 12.8353 8.77045
O 6.31848 16.2887 9.27212
O 9.55908 13.5441 6.21454
Si 9.34386 14.8185 4.86269
Si 1.72843 8.19558 5.76618
Si 10.2764 16.2529 7.12562
Si 14.142 10.7557 9.84895
Si 11.5102 10.9085 5.24033
Si 12.6958 15.7573 9.10977
O 8.77526 16.2577 7.45189
O 13.0046 9.8202 10.3647
O 0.899507 9.22891 4.90532
O 13.8547 14.6658 9.63722
O 12.8268 10.4934 4.41342
O 1.9434 -0.141447 4.86054
O 10.4237 15.9333 5.50031
O 13.8918 17.1723 5.36123
O 11.1984 15.6572 8.36035
O 14.8558 9.55495 8.75855
O 11.2382 1.46432 15.6566
O 14.9889 11.106 11.2849
Si 14.2497 4.30453 10.1721
Si 6.5196 0.411795 16.0663
Si 2.21565 6.23149 16.3802
Si 3.8442 1.80719 1.67107
Si 3.43876 2.06842 16.0925
Si 4.48045 4.82556 15.4012
O 0.911114 5.37115 16.0706
O 5.7299 17.6259 15.073
O 2.90477 1.5282 0.303188
O 4.98481 6.07851 16.3177
O 1.11464 3.14017 12.2608
O 3.52747 3.61213 12.8834
O 15.3546 0.020797 14.0775
O 4.3964 9.37679 8.17749
O 3.2142 5.70168 14.9988
O 7.47846 16.5528 11.7554
O 2.12522 7.83765 16.366
O 3.63275 3.49176 1.49429
Si 4.41346 3.93139 11.4972
Si 6.19399 16.6781 10.8702
Si 6.31083 7.0998 16.0881
Si 12.6869 1.33943 14.945
Si 6.84785 2.82888 15.0817
Si 7.37886 7.14376 13.3289
O 7.5445 6.29039 17.0672
O 9.71655 0.262981 0.167612
O 7.78276 1.39941 15.3123
O 8.88405 7.08748 14.2097
O 7.5372 3.22485 13.321
O 7.05792 5.70626 12.7057
O 5.45781 1.71778 16.0011
O 5.65004 8.35476 10.4493
O 6.20425 6.88154 14.4837
O 13.4219 2.14015 13.7926
O 5.03845 4.96371 3.52027
O 7.29884 3.65099 16.3816
Si 8.36256 4.35716 12.6033
Si 12.313 17.8777 11.5013
Si 9.96437 5.84426 14.3981
Si 14.0929 16.976 13.7301
Si 13.6148 2.23496 12.0944
Si 11.6267 6.12446 9.95086
O 9.30355 5.1014 15.784
O 0.320615 1.23584 16.1659
O 0.319783 16.7765 16.2278
O 3.54941 3.58513 16.3566
O 14.0477 15.2883 14.1672
O 12.916 5.36458 9.71693
O 9.81087 5.02314 12.9957
O 11.5553 7.73486 10.338
O 13.6941 3.74167 11.5943
O 13.0571 17.7972 14.738
O 11.2813 6.54161 14.5881
O 13.9055 17.3132 12.1709
Si 1.30219 13.4748 13.3551
Si 3.27244 10.5597 8.92352
Si 2.55892 15.8292 14.518
Si 4.46444 11.1472 11.9273
Si 2.33109 11.2779 13.8611
Si 2.33986 2.38583 13.1503
O 2.04538 14.9075 15.9755
O 1.8103 9.99355 14.8556
O 5.93126 10.3205 12.3219
O 2.00744 1.06707 12.4581
O 1.33231 12.0439 12.6447
O 5.52599 3.78647 14.7022
O 2.31628 12.6311 14.624
O 5.32807 15.4853 11.28
O 2.09506 14.8876 13.3314
O 10.0021 14.2515 11.1877
O 2.5711 1.57471 14.7058
O 4.58262 12.8419 11.6516
Si 1.31271 14.9045 9.83336
Si 6.63515 9.22574 11.3467
Si 7.98126 15.4943 12.8961
Si 9.13919 11.6469 15.232
Si 9.15177 13.323 10.0238
Si 10.7081 16.7397 13.6719
O 3.67264 14.7372 1.17698
O 11.623 15.4701 12.8804
O 8.00196 13.9004 12.8054
O 9.21858 12.9842 16.0568
O 9.06666 12.1057 11.2095
O 7.74614 13.9712 9.46989
O 4.24544 10.7892 10.2995
O 12.3825 1.29798 11.4567
O 9.30191 15.901 13.5858
O 10.2609 10.351 15.2687
O 9.13546 16.4106 1.33558
O 7.4903 11.0779 16.0356
Si 12.6951 14.4567 13.5529
Si 11.4226 9.46031 10.9794
Si 11.0105 -0.0709624 16.4368
Si 14.2997 10.6575 -0.0952354
Si 11.4637 9.88538 14.1234
Si 13.3589 12.0687 14.8051
O 10.7191 17.3304 15.1186
O 12.9811 9.73673 0.425671
O 12.5366 8.80054 14.906
O 2.24699 17.5575 14.6965
O 11.1245 9.54859 12.5257
O 14.7339 12.072 14.0552
O 12.6908 10.8552 13.9458
O 13.1615 13.4098 12.3796
O 12.5124 13.5551 14.9232
O 15.3547 9.72546 16.4292
O 12.3168 17.7732 0.304811
O 13.4473 11.9505 16.4534
324
 Atoms. Timestep: 22500
Si 0.226529 4.70426 -0.0435859
Si 5.10167 16.5871 15.0805
Si 3.94876 8.79037 4.36975
Si 3.60923 2.26312 6.12334
Si 1.70974 1.70658 3.95017
Si 3.97038 5.91789 3.86818
O 4.39641 5.8821 5.48691
O 4.42212 1.13561 9.71453
O 2.40487 2.44126 5.28463
O 6.15516 8.46869 16.8756
O 3.1861 1.69576 2.9631
O 2.63804 5.49348 2.96735
O 1.4644 4.0363 0.91174
O 2.9795 6.20761 0.310318
O 4.24437 7.3912 3.37573
O 4.46375 0.959433 5.59536
O 2.92851 9.79559 3.59844
O 4.91345 3.23353 6.20978
Si 2.77469 5.13447 1.3599
Si 8.55677 18.1104 0.987504
Si 8.47732 5.40963 5.74351
Si 10.2157 3.21544 4.77812
Si 6.56872 1.0754 2.93877
Si 9.32585 4.89382 3.08486
O 6.94885 4.93286 5.55256
O 6.79403 1.52697 4.56242
O 9.12026 3.19599 3.39649
O 12.9451 4.8154 1.89616
O 7.36696 18.0001 17.2135
O 8.38566 4.94522 1.55091
O 5.85428 2.57807 2.35993
O 8.93334 9.4595 -0.0599904
O 8.78875 5.92506 4.23064
O 11.6404 3.27713 3.98353
O 6.21896 11.4492 2.98139
O 10.9039 5.47009 2.99071
Si 8.48023 5.10585 17.1168
Si 0.967223 0.0161515 15.2731
Si 14.127 4.68149 5.69
Si 15.4148 1.53735 2.37594
Si 14.8859 2.13696 16.5741
Si 13.8137 6.00236 1.33226
O 13.3152 5.38601 4.4542
O 13.8939 1.44801 3.20523
O 15.0602 1.95138 0.945912
O 13.1605 7.27519 2.24457
O 13.5768 1.90515 15.8303
O 15.2253 3.69507 16.4934
O 15.2505 5.60899 1.0195
O 13.2132 6.40422 17.1399
O 15.6434 4.28324 5.67562
O 0.553665 2.65059 3.25341
O 1.17605 6.71913 5.55531
O 13.2046 3.52399 6.22416
Si 1.79155 16.1225 0.0184733
Si 1.23195 9.61265 16.5581
Si 1.60271 16.8828 4.18531
Si 3.5176 13.4846 1.81919
Si 1.08321 11.2973 1.56208
Si 4.67714 15.6627 0.45657
O 13.7177 14.3059 7.09882
O 2.31077 11.4747 5.47698
O 0.529097 11.0997 3.13478
O 2.97964 17.2186 3.31611
O 1.80491 10.1773 0.618289
O 3.92998 15.7795 14.3317
O 2.09071 12.5637 1.38914
O 5.54744 15.7441 16.4295
O 3.26834 16.7317 0.389347
O 4.59551 12.3625 1.28321
O 2.97247 2.05153 7.65802
O 3.0385 14.1402 3.26017
Si 8.43247 12.7733 12.1601
Si 7.34849 9.6016 16.7506
Si 4.7314 16.8309 3.27662
Si 9.12861 9.81404 4.30273
Si 6.14265 11.8136 1.37892
Si 9.80279 15.2912 1.9874
O 4.82026 15.7395 4.5449
O 7.48923 10.0698 5.22856
O 6.96969 13.2329 0.995772
O 10.0566 14.4894 3.42219
O 6.60908 10.7147 0.305196
O 9.30159 14.3289 0.745686
O 8.78734 11.6143 13.287
O 8.13941 0.869657 2.30861
O 4.96485 15.601 1.98
O 8.73949 9.351 2.56758
O 5.86895 17.8377 2.63351
O 10.1151 11.1656 4.30564
Si 8.47506 12.8145 0.484627
Si 12.2906 6.91566 16.0425
Si 12.1102 17.2668 1.94047
Si 12.2363 8.33269 1.24139
Si 9.61667 9.79202 1.3369
Si 15.5001 16.6701 2.14585
O 11.3266 11.5952 6.92739
O 0.511821 8.58315 7.23479
O 11.1684 9.36386 1.85168
O 0.225503 16.1691 3.68083
O 11.3961 7.61782 -0.0344713
O 0.446462 15.5682 1.18713
O 9.32301 11.6178 1.34904
O 0.23638 0.10025 2.3826
O 11.5974 15.8253 1.68103
O 15.3124 11.6817 0.787728
O 12.1148 18.0443 3.33169
O 13.7823 16.8683 2.19535
Si 13.4637 2.60507 7.54021
Si 2.9211 1.53826 9.06873
Si 0.956706 6.05123 9.49155
Si 5.88327 1.24467 10.4636
Si 14.6585 18.0062 7.01283
Si 4.10862 5.38679 9.90731
O -0.117817 5.19348 10.3647
O 5.43979 17.9811 11.4084
O 1.76063 2.1666 10.2405
O 6.50789 7.59872 8.00162
O 1.00546 16.1858 9.76788
O 4.75604 6.11047 8.66692
O 14.7246 1.36979 6.96783
O 2.47365 6.16355 10.1259
O 4.25243 3.76604 9.86903
O 7.24393 1.09526 9.56989
O 0.268772 7.43681 9.27785
O 5.86508 2.69154 11.4977
Si 5.38028 4.62895 5.34418
Si 6.0657 0.674287 5.78481
Si 5.23188 7.8653 9.0196
Si 8.60099 4.68973 9.55419
Si 7.77294 1.78962 8.1631
Si 8.06815 7.24503 8.20649
O 5.15546 5.49247 11.2707
O 11.0588 17.6658 12.8056
O 8.05906 3.32056 8.69515
O 9.27248 8.39618 8.31115
O 6.55207 1.31358 7.29463
O 7.68069 6.10766 9.49423
O 9.79639 4.31049 6.02743
O 8.77566 6.35148 7.00484
O 5.45209 9.07076 4.61809
O 10.0751 5.14227 9.33564
O 7.73503 9.5682 9.81862
O 8.46347 4.23538 11.1721
Si 12.3678 4.4487 3.33917
Si 13.562 0.00216525 4.00795
Si 9.25615 9.7634 9.14387
Si 1.03959 1.8825 11.6093
Si 10.6133 1.16221 7.03368
Si 0.233324 5.79479 6.60862
O 10.2815 9.7877 10.45
O 11.9893 16.938 10.3518
O 11.8501 1.81652 7.75201
O 0.808846 5.55295 7.98156
O 10.9319 17.7843 6.54493
O 14.0368 3.35628 8.94894
O 9.20203 1.05267 7.77795
O 13.5497 12.1462 9.45399
O 14.3356 6.08341 6.53557
O 13.6829 17.5431 8.25153
O 9.23211 11.2041 8.30005
O 15.1929 1.54394 11.5929
Si 14.1133 13.6147 8.52472
Si 1.42154 10.5241 4.32182
Si 14.4712 12.702 12.3847
Si 4.20251 13.8674 10.567
Si 0.558848 9.13699 8.92872
Si 1.52886 16.8136 8.28877
O 6.41363 15.8599 14.1927
O 2.02889 9.76261 9.38535
O 3.64972 11.4586 7.62634
O 1.97522 15.2135 7.80388
O 2.99434 8.45439 5.74945
O 2.01783 15.7403 5.13603
O -0.110708 13.647 9.0259
O 2.27498 -0.0607191 8.86965
O 0.0699917 13.3661 11.8907
O 2.67497 13.821 10.0947
O 0.54924 17.2637 7.03916
O 3.89492 10.8707 13.1078
Si 3.37669 14.8415 4.71486
Si 6.11111 10.6032 4.51871
Si 6.39119 14.6381 8.46308
Si 10.091 12.3713 7.43075
Si 3.76781 11.9271 5.95447
Si 7.50995 16.1572 6.21906
O 5.24696 13.6109 9.26788
O 7.78349 8.86164 12.573
O 10.0804 9.04897 5.34487
O 10.4687 1.80554 5.59478
O 5.101 11.6759 5.23557
O 8.18968 15.3686 4.92945
O 3.58076 13.5673 5.96049
O 6.78203 17.5917 5.48708
O 6.50202 14.9948 6.81153
O 10.0459 13.6438 8.56452
O 6.24287 16.2606 9.35878
O 9.42811 13.1448 6.03622
Si 9.5402 14.4497 5.0257
Si 1.49607 8.27169 6.0699
Si 10.5756 16.3718 6.84488
Si 14.087 10.7195 10.3082
Si 11.4377 10.5763 5.51811
Si 12.7041 16.1631 8.93854
O 8.76952 16.6138 7.11392
O 12.7777 9.64368 10.5294
O 0.553729 9.45605 5.13546
O 13.5502 14.7766 9.60373
O 12.7655 9.99583 4.98108
O 1.64747 0.138603 4.7197
O 10.7661 15.1113 5.74358
O 13.843 17.2205 5.23038
O 11.3433 15.9888 8.11835
O 15.0408 9.59621 9.69645
O 11.2777 1.04325 15.3069
O 14.464 11.2497 11.7142
Si 14.0537 4.68776 10.3621
Si 6.54834 0.610118 16.0594
Si 2.25745 6.69693 15.9704
Si 3.98619 2.50483 1.88533
Si 3.88682 2.41999 16.3842
Si 4.70373 5.14619 15.4453
O 1.00415 5.72276 16.0203
O 5.23949 18.0956 15.5393
O 3.49689 1.71535 0.504176
O 5.70106 5.9688 16.6149
O 1.03886 3.00751 12.9361
O 3.61277 3.69918 12.7341
O -0.0147741 17.5108 14.1859
O 4.62159 9.17589 8.37824
O 3.47975 6.22754 14.9984
O 7.02925 16.3051 11.5667
O 1.92394 8.23373 16.2251
O 4.25286 4.23911 1.32877
Si 4.59974 3.72796 11.4735
Si 5.78069 16.5305 10.8496
Si 6.6194 7.16298 16.0751
Si 12.6689 1.03409 14.5897
Si 7.01495 3.33168 15.2485
Si 7.8837 7.46832 13.3663
O 8.14743 6.67981 16.6778
O 9.617 0.362648 -0.11949
O 7.59293 1.66243 15.5384
O 9.25199 6.98476 14.1632
O 8.09646 4.09262 14.0805
O 7.33997 6.06306 12.4031
O 5.55604 2.06427 16.656
O 5.77407 8.12437 10.5471
O 6.57434 7.44738 14.466
O 12.9441 1.8826 13.3227
O 5.17933 4.62631 3.67374
O 7.46571 3.86257 16.8241
Si 8.52948 4.89031 12.6847
Si 12.3001 17.7821 11.6239
Si 10.156 5.3785 14.6029
Si 14.3567 17.0482 13.7514
Si 13.6928 2.05252 11.8281
Si 11.3335 5.68839 10.3232
O 9.74216 4.81554 15.9759
O 0.48781 1.49027 15.9122
O 0.919003 17.558 16.8545
O 3.78094 3.92229 15.8905
O 14.3085 15.4272 13.9286
O 12.8317 5.71839 9.90054
O 10.1604 5.11512 12.9623
O 10.6986 7.40292 10.3705
O 13.6625 3.65972 11.4736
O 13.0822 17.6454 14.6855
O 11.7744 5.93633 14.7197
O 13.7312 17.0781 12.298
Si 1.21181 13.4028 13.0729
Si 3.55523 10.3602 8.95637
Si 2.26195 15.7485 14.4619
Si 4.63846 11.2284 11.8544
Si 2.69955 11.3922 13.9096
Si 2.71791 2.404 13.4232
O 1.65696 15.1893 15.9162
O 2.06221 10.2613 15.1361
O 6.15962 10.6071 11.7705
O 2.39604 1.10809 12.3644
O 1.52149 11.5892 12.7698
O 5.77808 4.18087 14.6295
O 2.41699 12.9573 14.3426
O 4.56646 15.3733 11.1383
O 1.71264 14.9507 13.1998
O 9.41286 13.9585 11.3565
O 3.10698 1.79407 14.9075
O 4.28441 12.8978 11.8708
Si 1.36978 14.584 9.2923
Si 6.92412 9.34319 11.1382
Si 7.37658 15.5618 13.0104
Si 9.00366 11.057 14.9559
Si 8.9106 13.3932 9.80635
Si 10.4459 16.6069 13.7568
O 3.76287 14.3318 0.338856
O 11.5109 15.3632 13.6232
O 7.24538 13.7635 13.0333
O 8.93407 12.2235 16.1388
O 8.24767 12.0189 10.7025
O 7.74377 14.06 8.77754
O 4.23124 10.9542 10.2309
O 12.6157 1.2252 10.9557
O 8.89186 16.2479 13.585
O 10.3666 10.0817 15.118
O 9.06685 16.8389 1.97109
O 7.66465 10.2376 15.3153
Si 12.9445 14.4637 13.8654
Si 11.3695 8.90447 11.1165
Si 11.0164 -0.0763821 16.4464
Si 14.4951 10.5007 0.0162802
Si 11.6968 9.47269 14.3529
Si 13.4251 11.8835 14.9515
O 10.6265 16.8257 15.2969
O 13.5108 9.62181 0.931039
O 12.6592 8.2776 14.9135
O 2.11708 17.432 14.6665
O 11.0361 8.94505 12.6911
O 14.611 12.2586 13.9421
O 12.527 11.0028 13.8721
O 13.1945 13.8699 12.4393
O 12.6394 13.5047 15.0691
O 15.4347 9.60245 16.4024
O 12.1502 -0.055994 0.502663
O 12.8577 11.1173 16.3662
324
 Atoms. Timestep: 23000
Si 0.629244 5.12955 17.1872
Si 5.2741 16.2042 15.2856
Si 3.94983 8.60926 4.63716
Si 3.94381 2.39963 6.5799
Si 2.41036 2.09143 4.14419
Si 3.92617 5.65407 4.30217
O 3.69715 5.48466 5.90244
O 4.21396 0.786672 9.4665
O 2.83209 3.01026 5.49186
O 6.12794 8.45709 16.6966
O 3.54005 1.96138 2.92241
O 2.83544 5.18828 3.21184
O 1.82132 4.30959 1.03241
O 3.26852 6.79876 0.572639
O 4.26322 7.16155 3.90351
O 5.03107 1.14362 6.48072
O 3.31408 9.79679 3.57337
O 4.88108 3.6401 6.90322
Si 3.09987 5.19357 1.44588
Si 7.97368 17.9032 0.959017
Si 8.51057 5.46595 5.73048
Si 10.0838 3.21551 4.57793
Si 6.22052 1.13341 2.98928
Si 9.27049 5.10597 3.02959
O 7.00224 5.30679 6.20944
O 6.56741 2.15914 4.29073
O 8.86789 3.38374 3.4346
O 12.6041 4.72672 1.62799
O 7.40968 0.541051 16.8854
O 8.71497 4.9113 1.46008
O 5.50821 1.97094 1.83869
O 8.27287 9.35786 0.781544
O 8.41195 5.85194 4.13871
O 11.419 3.28334 3.66497
O 6.22717 10.8884 3.10442
O 10.7584 5.74826 3.31974
Si 8.78589 5.00307 17.0107
Si 0.908809 0.202939 14.6205
Si 14.1231 4.60002 5.49365
Si 15.6554 1.78377 2.24133
Si 15.3409 2.50186 16.3822
Si 13.5011 5.94621 0.813553
O 13.4844 5.05996 4.08418
O 13.9527 1.50774 2.84335
O 0.0339189 2.5528 0.889637
O 13.2535 7.20866 1.93649
O 13.8359 2.14914 16.5029
O 15.7179 4.0454 15.8886
O 15.1261 5.56206 0.841458
O 13.7044 6.42434 16.4697
O 0.0141755 4.42852 5.54335
O 1.04538 2.44445 3.39035
O 0.885292 6.91191 5.52194
O 13.517 3.32955 6.06764
Si 1.07253 16.7153 16.7553
Si 1.75266 10.0998 16.1078
Si 1.87695 17.0562 4.28559
Si 3.0426 13.3782 1.99541
Si 1.05816 11.6083 1.55163
Si 3.99299 15.6308 0.657969
O 13.1188 14.0315 7.2606
O 2.76699 11.2679 5.33228
O 1.08724 11.4156 3.10447
O 2.92609 17.2358 2.92428
O 1.78426 10.874 0.288093
O 4.08613 15.5787 14.4158
O 1.55308 13.0656 1.30945
O 5.47249 15.7313 16.8593
O 2.93152 16.6104 -0.113734
O 4.03021 11.9811 1.8976
O 2.73134 2.29774 7.81091
O 2.59166 13.8407 3.54332
Si 8.78948 12.9144 12.2953
Si 7.01149 9.76699 17.0642
Si 4.48785 16.8668 3.29236
Si 9.0119 9.8154 4.6397
Si 5.71665 11.5894 1.62218
Si 9.44793 15.204 2.09506
O 4.83102 15.6622 4.6688
O 7.61068 10.3109 5.24855
O 7.18353 12.2448 1.18095
O 9.05467 14.3028 3.37579
O 5.62919 10.6599 0.127958
O 9.71137 13.8997 0.891593
O 9.11487 11.9944 13.5786
O 7.37934 0.201227 2.31896
O 4.83217 15.9354 1.9215
O 8.5728 9.43624 3.18667
O 5.29186 -0.0336784 3.60581
O 10.184 10.8501 4.07114
Si 8.72996 12.5659 0.647113
Si 12.7077 7.52572 15.6743
Si 12.1943 16.753 1.8627
Si 12.3443 8.35991 1.00412
Si 9.56105 9.87375 1.81207
Si 15.4078 16.796 2.06717
O 11.0705 10.8707 6.8699
O 0.345501 8.79128 7.06193
O 11.1152 9.23812 1.72432
O 0.381547 17.1307 3.70734
O 11.4779 7.55214 17.0579
O 0.474496 15.8681 0.915321
O 9.63976 11.4034 1.71411
O 0.0331711 0.207719 1.56973
O 10.9593 15.6244 2.31706
O 15.2041 10.9492 1.28709
O 12.2265 -0.102702 2.66108
O 13.7806 16.1965 1.98655
Si 13.494 2.38938 7.43057
Si 2.75104 1.25915 9.00817
Si 0.795639 5.74427 9.60761
Si 5.72724 0.886246 10.16
Si 14.196 17.6886 7.30356
Si 3.5422 5.2459 10.6021
O 15.4076 4.76852 9.98426
O 5.61067 -0.0666276 11.4537
O 1.66759 1.33661 10.1562
O 6.40419 6.95517 7.99551
O 0.907954 16.1849 9.42404
O 4.27109 6.40615 9.58345
O 14.6022 1.2689 7.33754
O 1.94251 5.59921 10.6462
O 3.57519 3.63934 10.2392
O 6.88006 0.98082 8.92425
O 0.729496 7.70821 9.25542
O 6.17101 2.81605 10.75
Si 5.42332 4.87945 5.95169
Si 6.56502 1.09856 5.85848
Si 5.26525 7.58774 9.20823
Si 8.92112 4.4747 9.78297
Si 8.25118 1.91565 8.19182
Si 8.0735 6.84756 8.22247
O 4.35944 4.80877 11.9886
O 11.129 17.5962 13.1332
O 8.29181 3.37681 8.75719
O 9.28523 7.99242 8.65209
O 7.95286 1.76612 6.52753
O 7.94645 5.65087 9.40991
O 9.54137 4.36898 5.61257
O 8.79427 6.40708 6.89904
O 5.4294 9.0289 5.14951
O 10.3561 5.04325 9.63635
O 7.84196 9.8834 10.2199
O 9.24186 3.7279 11.2408
Si 12.2 4.69085 3.15242
Si 13.1531 0.669926 3.8757
Si 8.89048 9.53506 8.96843
Si 1.07785 1.93808 11.6704
Si 10.6254 1.11554 6.89636
Si 0.244747 5.67682 6.59052
O 10.1363 9.84815 10.0111
O 11.7411 16.8386 10.2849
O 11.9949 1.8705 7.22931
O 1.24122 5.66093 8.03349
O 10.6716 17.6415 6.50279
O 13.5812 2.58257 9.13122
O 9.70944 1.30683 8.36293
O 13.6509 12.1757 9.16468
O 14.3155 5.88979 6.73673
O 13.0279 16.9168 7.99877
O 8.75243 10.5455 7.81399
O 15.3813 1.08454 11.7563
Si 13.9982 13.6983 8.52946
Si 1.99241 10.4725 4.11365
Si 14.7197 12.9115 12.6234
Si 3.93916 14.1963 10.1908
Si 0.605906 9.06989 8.77415
Si 1.14537 16.6693 7.86279
O 6.87403 15.9895 14.6724
O 2.0685 9.67292 8.75531
O 3.58461 11.4689 7.67725
O 1.93697 15.0562 7.66464
O 3.08525 8.47601 6.02496
O 2.34682 15.9167 5.24307
O 0.0506125 13.4631 8.92579
O 1.95076 -0.0454421 8.15962
O 0.0265441 14.043 12.4341
O 2.42734 13.7042 10.1553
O -0.0886033 17.0165 6.84628
O 4.05691 11.8559 13.1411
Si 3.4055 14.7248 4.83428
Si 6.16519 10.5955 4.76513
Si 6.36818 15.0085 8.62332
Si 9.61354 11.7844 7.31683
Si 3.90001 12.0235 6.16818
Si 7.48697 16.1329 6.35499
O 4.91113 14.2586 8.81515
O 7.49271 8.65236 12.7408
O 9.88946 8.87681 5.62344
O 10.2916 1.82195 5.30658
O 5.45367 11.7132 5.53419
O 7.81137 15.0088 5.14598
O 3.78221 13.7287 6.1368
O 7.09968 17.5584 5.74519
O 6.26672 15.3833 7.00729
O 9.71549 12.719 8.68422
O 6.35732 16.4365 9.60865
O 9.25631 12.969 6.21672
Si 9.29098 14.2588 5.06856
Si 1.3905 8.47872 5.96227
Si 10.4602 16.0955 6.98164
Si 14.1542 10.9344 10.0833
Si 11.2122 10.0694 5.24684
Si 12.3323 15.6906 8.93118
O 8.75825 16.269 7.32567
O 12.6823 10.1254 9.96175
O 0.897977 9.5152 4.85934
O 13.1826 14.6724 9.6548
O 12.5451 9.52614 4.82972
O 2.37164 0.412432 4.65468
O 10.5067 15.2832 5.5685
O 13.0262 0.301679 5.43278
O 11.014 15.2243 8.13494
O 15.389 9.94484 9.63308
O 11.6017 1.40318 16.0582
O 14.9546 11.5463 11.531
Si 13.9425 4.01332 10.2754
Si 6.35509 0.919915 15.7483
Si 2.78185 7.30318 16.3041
Si 4.01946 2.39619 1.53411
Si 3.73875 2.44835 16.1376
Si 4.6742 5.34352 15.7667
O 0.999913 6.65956 16.1265
O 5.22152 17.9423 14.9487
O 3.08809 1.87715 0.306817
O 5.83565 5.80577 16.7892
O 1.95568 3.26061 12.0667
O 4.35781 2.54717 12.6763
O -0.067869 17.2283 14.0249
O 4.57402 8.92752 8.5585
O 3.82438 6.69862 15.0187
O 6.34828 15.7161 11.9293
O 2.84343 8.8843 16.3257
O 4.15394 4.08011 1.22773
Si 4.80469 3.45529 11.4005
Si 5.44547 16.4989 11.0249
Si 6.77368 7.00773 16.1953
Si 13.0263 1.26973 15.2272
Si 7.19177 3.48577 14.7319
Si 8.36281 7.34669 13.2912
O 8.08517 6.61242 16.9825
O 9.50553 0.318238 0.367621
O 7.03773 1.88801 14.5584
O 9.79743 7.37874 14.2754
O 8.24654 3.5109 13.559
O 8.68963 6.06934 12.4113
O 5.20866 1.91801 16.3109
O 5.91216 8.07191 10.5809
O 7.20916 6.96731 14.5174
O 13.6092 1.92736 13.9241
O 5.31434 4.73953 4.1265
O 7.74585 3.80253 16.3104
Si 9.34136 4.55798 12.8064
Si 12.0867 17.4279 11.7106
Si 10.5132 5.90287 14.653
Si 14.1427 16.8936 13.9763
Si 13.7779 1.72895 12.2427
Si 11.6526 6.02798 9.60063
O 10.1876 5.20091 16.1829
O 0.407907 1.65199 15.0133
O 0.316305 -0.168732 16.3293
O 3.60688 4.16603 15.8043
O 14.0051 15.1858 14.5248
O 13.0483 5.35648 9.76291
O 10.5849 4.59727 13.7208
O 11.4754 7.41797 10.2805
O 13.8495 3.36752 11.7479
O 13.4396 17.8242 15.1237
O 12.0581 6.48235 14.634
O 13.5896 16.7058 12.4418
Si 1.55075 14.0119 12.8898
Si 3.60688 10.2344 8.86425
Si 2.36808 15.9416 14.4379
Si 4.62454 11.2772 11.601
Si 2.62518 12.0154 13.7351
Si 2.89849 2.34679 13.1391
O 1.5797 15.3459 15.6983
O 2.03681 10.7264 14.5595
O 5.8793 10.3732 11.7665
O 1.97284 0.956045 12.8656
O 1.71747 12.4209 12.3704
O 5.75801 4.59785 14.5993
O 2.19321 13.4839 14.3988
O 4.08417 15.7035 11.1601
O 2.20725 15.5385 12.8613
O 9.73771 13.585 11.2839
O 3.07151 2.00197 14.7328
O 4.88768 13.1448 11.1074
Si 1.20896 14.4912 8.98616
Si 6.89865 9.264 11.2628
Si 7.37775 15.4341 13.2169
Si 9.09391 11.2092 15.0598
Si 8.70759 13.3252 9.92655
Si 10.3991 16.4388 14.049
O 3.68988 14.0781 0.674517
O 11.2273 15.0127 13.9172
O 7.63387 13.7773 13.0834
O 9.26947 12.3242 16.3545
O 7.57352 12.7325 10.9374
O 7.89658 14.4701 9.16774
O 3.6344 10.8761 10.4039
O 12.606 0.866863 11.4794
O 9.02661 16.1499 13.2182
O 10.0646 10.0369 14.6597
O 8.38979 16.205 1.18464
O 7.69979 10.2167 15.5148
Si 12.6627 14.3652 13.8099
Si 11.5504 9.30768 10.7193
Si 10.712 -0.134 16.6396
Si 14.5805 10.288 17.1693
Si 11.6164 9.75475 14.0262
Si 13.4205 11.7735 15.0391
O 10.1765 17.1702 15.4719
O 13.6063 9.03829 0.12436
O 12.7737 8.94735 14.9358
O 2.26003 17.5201 14.79
O 11.4521 9.39418 12.2792
O 14.7595 11.961 14.1148
O 12.6028 11.0243 13.7872
O 13.2945 13.5294 12.4471
O 12.2381 13.0714 14.998
O 0.0926854 9.63772 16.1892
O 11.8229 17.1948 0.39562
O 13.4453 11.257 16.5747
324
 Atoms. Timestep: 23500
Si 0.692179 5.31026 0.633227
Si 5.48315 16.2124 15.0849
Si 4.40724 8.49646 4.92714
Si 3.38901 2.19444 6.64901
Si 2.05388 1.78227 4.05326
Si 4.10416 5.78829 4.43705
O 4.44016 6.09743 6.00326
O 4.31105 0.251203 9.39901
O 2.30128 2.45831 5.52207
O 6.23624 8.48588 15.8059
O 3.3947 1.7977 3.2103
O 2.73247 5.3551 3.51434
O 1.92436 4.8881 1.36468
O 3.45058 6.58921 0.87585
O 4.55386 7.24765 3.95142
O 4.82553 1.23801 6.42382
O 3.86533 9.60742 3.77016
O 4.22254 3.64673 7.09488
Si 3.17803 5.57627 1.91953
Si 8.31296 17.6891 1.01625
Si 8.48568 5.20666 5.53597
Si 9.99369 2.9654 4.63386
Si 6.59065 1.078 2.83845
Si 9.36648 4.71878 2.66972
O 6.84464 4.57244 6.27168
O 6.80129 2.09724 4.34734
O 9.26556 2.97754 3.13488
O 13.3397 4.39678 1.69352
O 7.03782 0.188315 0.119125
O 9.02775 4.77594 1.14692
O 5.42938 1.80532 2.06834
O 8.14971 9.15167 0.271955
O 8.5418 5.53061 3.90458
O 11.6026 3.15703 4.07175
O 6.1478 10.9689 3.29917
O 10.9855 5.35718 2.7394
Si 8.95466 5.07876 16.6859
Si 0.978477 0.132062 15.1473
Si 14.0339 4.45766 5.5899
Si 15.2786 1.97087 2.50532
Si 15.5212 2.65678 16.3945
Si 13.5705 5.91561 0.984897
O 13.4528 5.00257 4.23411
O 13.7479 1.98167 3.02184
O 15.346 2.22208 0.954672
O 12.6059 7.09265 1.69127
O 13.9605 2.65083 15.9752
O 15.5567 4.25289 16.7244
O 15.0963 6.23547 1.09004
O 13.7416 6.84355 16.5005
O 0.0815725 3.99442 5.26495
O 0.857335 2.80174 3.55866
O 1.18215 6.68763 5.2822
O 13.1646 3.11748 6.07069
Si 1.752 16.4608 0.0184459
Si 1.94255 9.65339 15.984
Si 1.68986 16.6202 4.1786
Si 3.56438 13.6425 1.96441
Si 1.53586 11.5941 1.19811
Si 4.13753 16.3471 0.719808
O 14.6971 13.9175 6.83036
O 2.64701 11.4318 5.21401
O 2.05666 10.9478 2.65395
O 2.98318 16.7265 3.04259
O 2.07889 10.9725 16.8594
O 4.46676 15.2524 14.125
O 2.09766 13.0776 1.31006
O 5.33526 16.2958 16.7198
O 3.00054 17.4507 0.344249
O 4.86899 12.6697 1.61276
O 2.73421 2.0366 8.03704
O 3.44443 13.7625 3.5855
Si 8.85501 12.9234 12.273
Si 6.89548 9.70043 16.4749
Si 4.60087 17.0361 3.46307
Si 9.19093 10.0559 4.39359
Si 6.08659 11.5141 1.68913
Si 9.66539 14.9165 2.21869
O 4.8832 15.973 4.666
O 7.77858 10.3165 5.37782
O 7.48121 12.3783 1.27245
O 8.99804 14.3792 3.56819
O 5.79648 10.3853 0.435653
O 9.83532 13.6849 0.979114
O 9.13518 11.7164 13.4543
O 7.96682 0.626603 2.23058
O 5.09085 16.1265 1.98754
O 8.56983 9.41908 2.98541
O 5.50419 0.15181 4.10128
O 10.5569 10.9073 4.13291
Si 9.03499 12.4029 0.58114
Si 12.5751 7.39637 15.4277
Si 12.1677 16.557 1.78647
Si 12.0554 8.40788 0.886643
Si 9.04899 9.57094 1.42522
Si 15.1435 16.1593 2.11213
O 10.4543 11.2891 7.0186
O 0.738963 8.9726 7.13798
O 10.5161 8.89769 1.31437
O 0.380089 15.986 3.48003
O 11.3918 7.87592 16.4252
O 0.62152 15.8936 1.01602
O 9.73138 11.0587 1.3702
O 15.1563 0.137358 2.49866
O 11.1513 15.3749 2.1219
O 15.4765 11.2507 1.2795
O 12.2378 17.9368 2.90133
O 13.6764 15.7808 1.84974
Si 12.956 2.34501 7.44205
Si 2.68359 0.746067 9.06969
Si 0.839297 5.78508 9.41689
Si 5.61174 0.982573 10.182
Si 14.2668 17.6437 6.66649
Si 3.55423 5.50646 10.0266
O 15.4696 4.72435 10.1685
O 5.68049 17.9461 11.5003
O 1.2405 0.79843 9.75436
O 6.97324 7.57879 8.71565
O 0.331314 16.2087 9.24647
O 4.5299 6.50905 9.47863
O 14.0252 1.11385 7.21825
O 2.07609 5.9577 10.4858
O 3.02674 3.75256 9.93383
O 6.78314 1.06588 9.08385
O 0.271617 7.5942 9.7224
O 5.71317 2.77477 10.3694
Si 5.16471 4.5008 6.09853
Si 6.52386 1.38032 5.74155
Si 5.6816 7.85585 9.58527
Si 9.38118 4.44807 9.21665
Si 7.95162 1.85928 8.10687
Si 8.33133 7.00434 8.06361
O 4.54847 4.93317 11.4027
O 10.7167 17.4053 12.2289
O 9.06851 3.00406 8.57239
O 9.31269 8.20466 8.67368
O 7.17451 2.28488 6.76716
O 8.17762 5.40748 8.88945
O 9.57762 4.10318 6.06479
O 8.64647 6.68134 6.34287
O 5.56786 9.27402 5.70006
O 11.0113 5.02106 9.14856
O 7.57775 9.56005 10.1437
O 9.58036 4.15755 10.7388
Si 12.283 4.4349 3.16236
Si 13.5971 0.399247 3.28459
Si 8.91686 9.82556 9.25376
Si 0.875722 1.57942 11.3633
Si 10.5629 0.832452 6.89633
Si 0.451913 5.43983 6.25346
O 9.90034 9.98906 10.4576
O 13.0675 17.1022 10.2702
O 11.6511 1.54515 7.81503
O 1.10166 5.56966 7.73982
O 10.8008 17.453 6.33421
O 13.6645 3.14173 8.6448
O 9.01342 0.700674 7.63743
O 13.4839 12.0247 8.83355
O 14.4427 5.45247 6.7768
O 13.2019 16.5949 7.14851
O 8.38937 10.646 8.00733
O 14.9145 1.84634 11.7243
Si 14.2377 13.673 8.27337
Si 2.51689 10.38 4.08824
Si 14.0806 13.5113 12.3453
Si 3.96175 14.3322 10.7083
Si 0.63354 9.0797 8.9346
Si 1.03453 16.4886 7.88755
O 6.87648 15.1986 15.0746
O 2.31459 9.30699 9.15257
O 3.36459 11.3231 7.88372
O 1.47769 14.9436 7.71029
O 3.01215 8.36806 5.88517
O 2.3207 15.6191 5.34699
O 0.0792836 13.6645 9.32511
O 2.41091 17.6373 7.98859
O 15.4904 14.277 12.245
O 2.38765 14.4493 10.2813
O 0.255467 17.3803 6.67467
O 4.01147 11.336 13.2649
Si 3.65861 14.5656 5.06057
Si 6.33502 10.6148 5.07631
Si 6.36279 15.0513 9.12658
Si 9.18376 11.974 7.42231
Si 3.72573 11.841 6.4332
Si 7.22339 16.1908 6.21384
O 4.86686 14.6163 9.37102
O 8.13068 8.73264 12.5813
O 9.92045 9.15656 5.50951
O 10.2689 1.72323 5.62579
O 5.29091 11.6729 5.69704
O 7.45365 14.9402 5.23174
O 3.70379 13.6423 6.48678
O 7.01537 17.6492 5.99474
O 6.45141 15.5841 7.54913
O 9.59648 12.8322 8.83595
O 6.826 16.0362 10.1153
O 8.37442 12.8595 6.1885
Si 8.79987 14.1721 5.40389
Si 1.36393 8.28325 5.77053
Si 10.1575 16.1961 7.16423
Si 13.9203 11.2163 10.0824
Si 11.2521 10.0594 5.71443
Si 12.5201 16.0571 8.93999
O 8.60115 16.2891 7.34043
O 12.8116 10.1974 10.3635
O 1.08444 9.39081 4.63767
O 12.9008 14.4884 8.97752
O 12.6334 9.44778 6.22642
O 1.4098 0.265227 4.5693
O 10.1026 14.8334 6.26757
O 13.8578 0.00868312 4.77773
O 10.946 16.4086 8.56702
O 15.4555 10.5892 9.29447
O 11.5431 1.48786 16.0115
O 14.0437 12.5039 11.0854
Si 13.8531 4.33481 9.96892
Si 6.56141 0.991749 15.9407
Si 2.87509 7.32406 16.474
Si 4.01684 2.72295 1.80487
Si 3.75672 2.54233 16.0216
Si 4.67179 5.18241 15.4464
O 1.33923 6.56539 16.6979
O 5.83411 17.8365 14.6503
O 3.34437 2.38048 0.515912
O 5.73577 6.05728 16.4499
O 1.52676 2.90986 12.6009
O 4.18352 2.12863 12.3627
O 0.0291264 17.2413 13.9437
O 4.9685 9.36308 9.031
O 3.9038 6.68783 15.2391
O 6.75621 15.8396 12.295
O 3.30853 8.8619 16.3631
O 4.22646 4.27112 2.01135
Si 4.17221 3.3677 11.1842
Si 5.83197 16.3741 11.2681
Si 6.98098 6.91849 15.8653
Si 12.9811 1.82474 15.1012
Si 7.31221 3.4133 14.5021
Si 8.21365 7.25086 13.2187
O 8.31401 6.5275 16.6704
O 9.46905 17.7771 17.0749
O 7.67508 1.98011 15.2966
O 9.68434 7.02626 13.8241
O 7.98101 3.19233 13.011
O 8.11967 6.01274 12.1286
O 5.08948 1.66853 16.2832
O 5.87617 8.12608 11.197
O 6.90377 6.80264 14.3034
O 12.9829 2.46689 13.5438
O 4.82972 4.27444 4.34959
O 8.23386 4.59283 15.3538
Si 8.90846 4.43541 12.1675
Si 12.2002 17.766 11.5328
Si 10.4791 5.63221 14.5739
Si 14.0195 17.1649 14.2097
Si 13.2611 2.19132 12.0621
Si 11.7658 6.34765 9.73259
O 10.4437 5.03628 16.1024
O 1.01141 2.15008 15.2577
O 0.614869 17.4381 16.5324
O 3.75061 4.19855 16.2776
O 13.4258 15.6166 14.7932
O 13.2561 5.88375 9.81143
O 10.1005 4.57099 13.2942
O 11.4496 7.8815 10.2454
O 12.9359 3.71754 11.3478
O 13.647 0.402177 15.3095
O 12.1074 5.97218 14.4292
O 13.1901 17.6791 12.9894
Si 1.30591 13.7311 12.8709
Si 3.61184 10.3313 9.1506
Si 2.77955 15.7612 14.5439
Si 4.77631 11.5096 11.8518
Si 2.46767 11.6648 13.6497
Si 2.7072 2.03266 13.1167
O 2.29536 15.3215 16.028
O 1.82499 10.1913 14.2945
O 6.01175 10.6424 12.4765
O 2.07431 0.590135 12.1348
O 1.58225 12.2735 12.1143
O 5.84648 4.16646 14.5254
O 1.84366 13.103 14.3217
O 4.41617 15.6564 11.5356
O 1.97175 15.2215 13.2707
O 9.58515 13.9905 11.0198
O 3.23781 2.04063 14.5754
O 4.91746 12.999 11.7473
Si 1.09351 14.7214 9.2624
Si 6.74609 9.42543 11.5916
Si 7.45028 15.2474 13.5939
Si 8.96909 11.1081 14.8678
Si 8.53754 13.1079 10.0573
Si 10.1031 16.7842 13.5761
O 3.59382 14.7248 0.714296
O 10.87 15.1609 13.8878
O 7.86725 13.6922 13.142
O 9.10119 12.349 16.0597
O 8.14169 11.975 11.0796
O 7.26533 13.6937 9.29081
O 4.01935 11.1699 10.5402
O 12.2416 1.32937 11.0224
O 8.56205 16.6537 13.7514
O 10.0476 9.70752 14.83
O 8.523 16.0936 1.69534
O 7.40451 10.5964 15.274
Si 12.2793 14.5184 14.1759
Si 11.3598 9.34837 10.8695
Si 10.9319 17.8867 16.333
Si 14.8014 10.4861 0.0538967
Si 11.4585 9.59753 14.0006
Si 13.0567 12.074 14.7761
O 10.6034 17.6466 14.8324
O 12.936 9.76724 0.88553
O 12.7094 8.47412 14.3299
O 2.39622 17.4408 14.6544
O 11.0747 9.28224 12.4771
O 14.3863 12.586 13.6553
O 12.4908 10.8466 14.0045
O 12.6683 14.4112 12.5539
O 12.1007 13.2321 15.1899
O 0.192091 9.31379 16.4448
O 11.8179 16.8988 0.329519
O 14.0919 11.5136 16.0486
324
 Atoms. Timestep: 24000
Si 0.708984 4.93058 0.45575
Si 5.65334 15.9493 15.4251
Si 4.90602 8.73611 4.66856
Si 3.50732 2.22159 6.29829
Si 1.95135 1.66528 3.89384
Si 4.61 5.83268 4.39569
O 4.80823 5.86745 6.13116
O 4.62451 0.884904 9.45617
O 2.41104 2.72077 5.22295
O 6.45805 8.36315 16.5193
O 3.46058 1.59019 3.18589
O 3.34392 5.85075 3.45583
O 1.5253 4.84244 1.91418
O 3.49503 6.76451 0.814829
O 5.29435 7.17256 3.9741
O 4.48392 0.979689 6.26777
O 3.89613 9.25197 3.51945
O 4.58477 3.38789 6.72265
Si 3.10931 5.27875 1.96241
Si 8.5072 0.169656 1.3045
Si 8.3544 5.40869 5.27094
Si 9.88328 3.25778 4.34931
Si 6.82174 1.49958 3.55748
Si 8.97721 4.8623 2.4582
O 7.20197 4.52995 6.20581
O 7.1445 1.67574 5.07463
O 9.02794 3.32788 3.01332
O 13.0371 4.79341 1.85489
O 7.46809 0.605048 0.100257
O 8.50784 5.01617 1.02771
O 5.71881 1.96945 2.31814
O 8.82619 9.28269 0.262899
O 7.81719 5.47078 3.5316
O 11.4954 3.15908 3.71796
O 6.3155 11.3715 2.9771
O 10.5383 5.57825 2.45346
Si 8.76104 5.13324 16.4963
Si 0.96748 0.450634 15.0346
Si 13.6236 5.04305 5.59898
Si 14.7193 1.90379 2.05759
Si 14.7853 2.75071 16.2095
Si 13.478 5.81424 0.820906
O 13.0673 5.18935 4.09532
O 13.6257 1.92555 3.44217
O 14.0165 1.99328 0.594906
O 13.0035 7.11255 1.76743
O 13.5036 3.37211 15.5834
O 0.308841 3.43066 0.250983
O 15.1227 5.93599 0.816943
O 13.354 6.18999 16.3215
O 15.232 5.015 5.50304
O 0.852711 2.33382 2.80014
O 1.01205 7.34534 6.11354
O 13.1868 3.40889 6.14168
Si 1.67134 16.4331 0.186517
Si 1.50245 9.64355 16.1197
Si 1.98617 16.5127 4.44575
Si 3.55607 13.4332 2.6177
Si 1.49648 11.3676 1.54117
Si 4.48275 16.1131 1.25608
O 15.0131 13.7307 6.69534
O 2.63182 11.283 4.82212
O 1.72651 10.2241 2.69695
O 3.28122 17.1842 3.82891
O 2.14553 10.8243 0.147158
O 4.34791 15.5953 14.5442
O 2.16431 12.5316 2.32861
O 5.4909 15.9577 17.0809
O 3.11941 16.7509 0.73372
O 4.4952 12.4092 1.58355
O 2.88674 2.09975 7.82084
O 3.8164 13.3374 4.2454
Si 8.93224 12.632 12.2901
Si 7.33026 9.71874 16.5457
Si 4.90152 16.8407 4.01599
Si 9.32802 9.97317 4.51645
Si 6.00701 11.8595 1.36301
Si 9.51802 15.088 1.87196
O 5.38692 15.4129 5.12448
O 8.25234 11.1005 4.88799
O 7.53341 12.7028 1.21175
O 9.23951 14.3761 3.37459
O 6.35777 10.7287 0.314515
O 9.43785 14.092 0.572862
O 9.18038 11.3391 13.2571
O 7.99297 0.970354 2.66015
O 5.4994 16.5652 2.54552
O 8.85626 9.11268 3.01858
O 5.95494 0.0770247 4.10271
O 10.7782 10.6234 4.2294
Si 9.13538 12.4834 0.66278
Si 12.4805 7.03306 15.378
Si 12.0533 16.5943 1.82043
Si 12.3815 8.48916 1.05878
Si 9.50912 9.64665 1.74024
Si 15.0942 15.7201 2.33555
O 10.6065 11.4901 7.19002
O 1.42008 9.44937 7.33371
O 11.0486 9.09038 1.475
O 0.752933 15.6821 3.58956
O 11.5524 7.75934 16.6497
O 0.348471 15.3637 0.969475
O 9.50572 11.4317 1.84145
O 14.5344 17.5968 2.36859
O 11.1808 15.2078 1.89165
O 15.5681 11.4137 1.09864
O 12.2912 17.6541 3.05588
O 13.5676 15.5837 1.75186
Si 13.4646 2.46541 7.51358
Si 3.13135 0.819522 8.90128
Si 1.02642 6.0865 9.30953
Si 6.0004 1.41909 10.3769
Si 14.4279 17.673 7.03714
Si 3.73553 5.91545 10.0625
O -0.0847774 5.11357 10.2269
O 6.15856 0.465832 11.6155
O 1.42564 1.5717 10.0334
O 6.51992 7.38374 7.95674
O 0.476369 15.888 9.91448
O 4.39292 6.53134 8.73225
O 14.5241 1.26518 7.35758
O 2.32503 6.52613 10.3462
O 3.67168 4.31965 9.892
O 7.32297 1.11414 9.51281
O 0.282198 7.64648 9.08118
O 5.85438 3.01807 10.9071
Si 5.53857 4.41239 6.10957
Si 6.0888 1.13823 6.21111
Si 5.20141 7.82113 8.95482
Si 9.11264 4.49311 9.29719
Si 7.98917 1.83962 8.14376
Si 8.03142 7.13094 7.71563
O 4.63529 5.53908 11.5403
O 10.9054 17.4896 12.3954
O 8.35146 3.49943 8.07531
O 8.86677 8.50495 7.92939
O 6.2904 1.95889 7.52253
O 8.42778 5.8567 8.70754
O 9.67639 4.71267 5.04748
O 8.3926 6.75353 6.01153
O 6.24697 9.51005 5.13825
O 10.8102 4.75052 9.51457
O 7.5295 9.62372 10.0427
O 8.71989 3.85623 10.6799
Si 11.8672 4.67209 3.05124
Si 13.4505 0.432479 3.8192
Si 8.74785 9.79361 9.00644
Si 0.797028 2.13277 11.5194
Si 10.481 1.06118 6.53585
Si 0.0828506 6.11043 6.66426
O 10.1019 9.93133 9.90192
O 12.5608 16.737 9.83965
O 12.0921 1.5046 7.20085
O 1.24915 5.45442 7.70767
O 10.5902 17.3794 6.56503
O 13.4073 3.50143 8.68535
O 9.06758 1.14516 7.34248
O 13.5938 11.7824 8.48864
O 13.6063 6.43223 6.5735
O 13.2514 16.8518 7.58987
O 8.26918 11.2366 8.18652
O 14.6608 1.81268 11.854
Si 14.5939 13.3002 8.22893
Si 2.4862 9.89955 4.10695
Si 14.1753 12.8362 12.2594
Si 3.78599 14.2314 10.9987
Si 0.697995 9.27842 8.79804
Si 1.35502 16.1952 8.23034
O 6.87698 15.0233 15.2058
O 1.82455 9.95892 9.83945
O 3.51416 11.2248 7.53515
O 1.95807 14.4475 8.15406
O 3.69766 8.60896 6.00691
O 2.72443 15.4307 5.35372
O 0.455847 12.8843 9.41259
O 2.41715 17.4518 8.48286
O 15.3839 14.1343 12.504
O 2.14181 14.339 10.985
O 0.423108 16.6855 7.10839
O 3.30225 10.6759 12.9495
Si 4.16297 14.452 5.52466
Si 6.70117 11.035 4.52796
Si 5.89767 14.779 8.98609
Si 9.28263 12.2918 7.49443
Si 3.86312 11.9245 5.98459
Si 7.30778 16.0104 6.80223
O 4.64317 14.0052 9.5099
O 7.30905 8.469 12.4274
O 9.80425 9.09814 5.79553
O 9.83866 1.62739 5.06633
O 5.35477 11.739 5.35835
O 7.92266 15.4922 5.28957
O 4.11312 13.3965 6.67247
O 6.63662 17.5506 6.51196
O 6.21334 14.9619 7.39553
O 9.37942 13.1485 8.81548
O 6.22824 16.1376 10.0391
O 8.7127 13.2371 6.25656
Si 9.19323 14.4693 4.98075
Si 1.97871 8.67993 6.11313
Si 10.4779 15.7175 7.15404
Si 13.7843 10.8055 9.77677
Si 11.119 10.2038 5.92622
Si 12.8233 15.6523 8.64901
O 8.74303 16.0747 7.7746
O 12.9346 9.42717 10.1736
O 1.11771 9.22731 4.6852
O 13.6468 14.353 9.19347
O 12.5194 9.57335 6.27653
O 1.40313 0.379799 4.58174
O 10.403 14.7492 5.86842
O 13.9963 0.0810961 5.20015
O 11.2983 15.3255 8.32896
O 15.1346 10.256 9.34173
O 11.2172 2.0496 15.9459
O 13.6658 12.112 10.8964
Si 13.9978 4.58603 9.96205
Si 6.71873 0.794461 15.6775
Si 2.78158 6.72586 16.2703
Si 4.16972 2.46158 1.83234
Si 3.83487 2.01346 16.0552
Si 4.79531 4.84621 15.4811
O 1.72624 5.51932 16.2027
O 6.56461 17.1727 14.811
O 3.64936 1.45012 0.655333
O 5.94023 5.40539 16.4999
O 1.16424 3.52718 12.4063
O 3.86129 2.5479 12.311
O 15.4494 17.4466 14.1405
O 4.19404 9.17234 8.57805
O 3.99993 6.35811 15.049
O 6.22308 15.7236 12.6821
O 2.56408 8.33367 16.144
O 4.30464 4.09538 1.7714
Si 4.40225 3.80199 11.2459
Si 5.53204 16.5321 11.6202
Si 6.6183 6.74016 16.015
Si 12.3959 2.2673 14.7406
Si 7.12582 3.52472 14.4714
Si 8.08093 7.13466 13.2845
O 8.25701 6.77427 16.543
O 9.94786 0.68523 0.736251
O 7.24445 1.85124 14.5444
O 9.7344 7.00417 13.8867
O 7.79839 3.74062 13.1063
O 8.19048 6.27267 11.7164
O 5.13712 1.07344 15.691
O 5.54033 8.0568 10.6236
O 7.04222 7.1298 14.3775
O 12.5656 3.09895 13.3833
O 5.25321 4.30316 4.52576
O 8.04131 3.94944 15.7985
Si 8.83573 4.50665 12.1374
Si 12.2986 17.6612 11.2085
Si 10.5154 5.56649 14.2361
Si 13.8758 17.3779 13.868
Si 13.2426 2.61086 11.8751
Si 11.6433 6.2854 9.3498
O 10.1517 5.022 15.7463
O 0.185606 1.98003 15.2043
O 0.582695 17.8602 16.7888
O 3.98493 3.63607 16.1998
O 13.5773 16.0211 14.5609
O 13.0486 6.04233 9.75262
O 10.1949 4.37105 13.1465
O 11.0615 7.50773 10.3496
O 13.2665 4.10324 11.3201
O 13.1537 0.868811 14.7945
O 12.0917 5.84144 14.3701
O 13.7355 17.2671 12.2349
Si 1.3426 13.6235 12.9902
Si 3.2759 10.4753 8.95151
Si 2.66591 15.8117 14.5616
Si 4.2553 11.2833 11.7683
Si 1.83376 11.3972 13.5523
Si 2.33027 2.52111 13.1267
O 2.29232 15.3223 16.2273
O 1.36872 10.0089 14.3874
O 5.61757 10.4039 12.0649
O 1.61167 1.14923 12.3736
O 1.49789 12.1397 12.0951
O 5.60025 3.7959 14.5475
O 1.76534 12.7098 14.4068
O 4.00081 15.8491 11.5573
O 1.97541 14.9819 13.4244
O 9.4766 13.8941 11.1721
O 2.76351 1.99029 14.8342
O 4.34114 13.1097 12.1166
Si 1.21319 14.1956 9.75973
Si 6.56116 9.28535 11.2939
Si 7.48402 15.3854 13.6079
Si 9.42599 10.8552 14.8675
Si 8.48783 13.3686 10.0268
Si 10.2674 16.6133 13.6608
O 3.73763 14.5935 1.58303
O 11.0671 15.2134 13.7828
O 8.21336 13.9407 13.3849
O 9.50145 12.0915 16.0315
O 8.15231 11.8301 10.9008
O 7.06957 13.9349 9.60865
O 4.0647 11.6128 10.2345
O 12.4326 1.48122 10.7552
O 8.77623 16.2857 13.4271
O 10.3836 9.5923 14.9032
O 8.64117 16.5607 1.85964
O 7.97994 10.335 15.2328
Si 12.687 14.8614 13.8136
Si 11.3013 9.30047 10.6489
Si 10.7713 0.329544 16.3148
Si 14.4123 10.6688 0.257049
Si 11.8378 9.45348 13.9429
Si 13.3034 12.1205 14.7167
O 9.97068 17.4405 15.2278
O 13.0654 9.9744 0.935166
O 12.6605 8.1156 14.0283
O 2.26612 17.3685 14.6003
O 11.389 9.56097 12.2779
O 14.241 11.6769 13.5268
O 12.2411 11.0752 14.2531
O 12.9493 13.7795 12.6081
O 13.2227 13.8914 14.9388
O 15.4302 9.45685 16.3752
O 11.8954 17.0322 -0.00456042
O 13.945 11.8685 16.3445
324
 Atoms. Timestep: 24500
Si 0.585129 4.91683 0.684957
Si 5.4935 15.4701 15.0249
Si 5.20642 8.48697 4.44269
Si 3.42431 2.12745 6.50012
Si 2.01678 1.90233 4.1666
Si 4.70715 5.96223 4.04478
O 4.64232 6.05401 5.79789
O 4.4726 1.37121 9.67939
O 2.31509 2.80156 5.49022
O 6.47677 8.16828 16.4167
O 3.49227 1.98563 3.53076
O 3.32853 5.76113 3.31344
O 1.70426 4.16986 1.61208
O 3.46524 6.4871 0.738747
O 5.574 7.24538 3.54566
O 4.40442 0.838076 6.22623
O 4.1601 9.29733 3.36609
O 4.69509 3.22642 6.50819
Si 3.04456 5.0251 1.83459
Si 8.1374 17.6832 0.956579
Si 8.47814 5.13449 5.73305
Si 10.1687 3.28727 4.77992
Si 6.74184 0.973756 3.26472
Si 9.12012 4.92448 2.7702
O 7.1466 4.53185 6.39017
O 6.94401 1.76321 4.87816
O 9.02756 3.21425 3.35651
O 12.4317 5.11957 1.5864
O 6.78963 0.0753289 0.0805866
O 9.05961 4.66487 1.07574
O 5.90809 1.77387 1.88957
O 8.32557 9.46392 0.725282
O 8.09757 5.39459 4.01566
O 11.4087 4.02869 3.96934
O 6.46856 11.6434 3.1609
O 10.3434 6.23311 2.70854
Si 8.88165 4.86116 16.5237
Si 1.31975 0.0837508 14.5806
Si 13.9783 5.15172 5.26452
Si 15.0757 1.63993 2.60695
Si 14.9271 2.16331 16.3881
Si 13.4591 6.42908 0.927239
O 13.1895 5.7592 3.97331
O 13.9954 1.88014 4.03436
O 15.4036 1.47261 0.928174
O 13.2199 7.87116 1.7314
O 13.4797 2.58232 15.6676
O 15.3083 3.76824 16.7652
O 15.1061 5.91214 1.46116
O 13.6568 6.65042 16.2261
O 0.144044 4.81925 4.9829
O 0.72169 2.65073 3.36302
O 1.52542 6.74739 6.18728
O 13.1606 3.81042 5.98847
Si 1.8187 16.5071 0.0372721
Si 1.31701 9.59667 16.0688
Si 1.93234 16.5348 4.33418
Si 3.46417 13.3449 2.08965
Si 1.46284 10.9785 1.38688
Si 4.55313 15.6618 0.903876
O 14.2767 14.6072 7.0775
O 3.14945 11.598 4.70198
O 1.92742 9.86253 2.39972
O 3.45766 16.8679 3.61322
O 1.76592 11.051 16.7522
O 4.25742 15.2109 14.1333
O 1.99761 12.4577 1.79399
O 5.50633 15.3473 16.7662
O 3.23108 17.0673 0.916243
O 4.95408 12.8271 1.78232
O 2.50852 2.10452 7.89051
O 3.13932 14.3585 3.38834
Si 9.18578 12.5564 12.3905
Si 7.05881 9.62175 16.5272
Si 4.86601 16.2994 3.9232
Si 9.34516 10.2016 4.78011
Si 5.93953 11.6395 1.6349
Si 9.53959 14.9662 1.73791
O 4.8187 15.3659 5.37152
O 8.09221 11.0801 5.17143
O 7.2818 12.602 0.938873
O 8.98799 14.4662 3.3218
O 5.72181 10.2729 0.684897
O 9.63467 13.8876 0.492983
O 9.5676 11.6136 13.503
O 8.06928 0.683987 2.42425
O 5.06739 15.5595 2.46425
O 8.72403 9.34571 3.41673
O 6.20463 17.28 3.85446
O 10.8403 11.175 4.62296
Si 8.74812 12.3867 0.588941
Si 12.4028 7.49824 15.3135
Si 12.2488 16.9429 1.97705
Si 12.0415 8.88649 1.0219
Si 9.21896 9.86662 2.06533
Si 15.1251 15.7386 2.38432
O 11.2065 11.9469 7.15142
O 1.66565 9.0555 7.34632
O 10.6336 9.24048 1.61045
O 0.841547 15.7788 3.4486
O 11.406 8.03255 16.6011
O 0.707508 15.6773 1.19808
O 9.47918 11.6274 1.98202
O 14.9212 17.8739 2.98413
O 10.9659 15.9307 2.04881
O 15.3944 10.9776 1.6379
O 12.2678 17.7524 3.28577
O 13.6302 15.6442 2.11276
Si 12.9864 2.77292 7.26527
Si 2.44986 1.60923 9.52823
Si 0.812436 5.90198 9.52571
Si 5.80208 1.38156 10.6633
Si 14.3727 17.6884 7.27265
Si 3.69466 5.51722 10.1768
O 14.731 5.29012 10.2951
O 5.60493 0.162044 11.8266
O 1.31218 2.53421 10.1906
O 6.21926 7.54207 7.54551
O 0.995681 15.9818 10.0601
O 4.22685 6.35418 8.77611
O 13.5903 1.31656 6.65801
O 2.16042 5.37281 10.3196
O 3.77516 3.57767 10.4292
O 7.2344 1.01579 9.83538
O 0.678094 7.5867 9.46159
O 5.99367 2.81607 11.3339
Si 5.5271 4.49011 5.80149
Si 5.99524 1.02896 6.18419
Si 5.10167 7.73002 8.88181
Si 8.83742 4.7129 8.9649
Si 8.07726 1.6492 8.61734
Si 7.78189 7.10849 7.72184
O 4.66488 5.47531 11.6861
O 11.1791 16.8832 12.9445
O 8.2215 3.40606 8.3489
O 8.83566 8.24279 8.22152
O 6.72282 1.84132 7.43552
O 7.71496 5.78461 8.48116
O 9.86581 4.45251 5.75919
O 8.52008 6.56583 6.37579
O 6.31879 9.41308 5.11599
O 9.97594 5.94544 8.91458
O 7.04506 10.032 9.56446
O 8.88003 4.47267 10.6365
Si 11.8048 5.37818 3.09914
Si 13.4073 0.423726 4.42068
Si 8.56127 9.72464 8.79847
Si 0.914274 2.46066 11.9374
Si 10.7918 1.48852 7.09464
Si 0.377717 5.77105 6.46074
O 9.81613 10.2222 9.88613
O 11.413 16.5797 10.0855
O 11.2958 2.85044 7.73643
O 1.17312 5.22624 7.94683
O 11.303 17.8771 6.85143
O 13.9425 3.28227 8.50966
O 9.58864 1.32064 8.28496
O 13.5742 12.2504 8.54496
O 14.3007 6.42863 6.46884
O 13.7063 17.3274 8.64841
O 8.46421 10.8797 7.48823
O 14.7118 2.12063 11.8208
Si 14.2865 13.8124 8.52238
Si 2.73944 10.1229 3.76988
Si 14.218 12.6505 12.0926
Si 4.24119 14.0085 10.975
Si 0.937052 9.1398 8.83642
Si 1.42691 16.7569 8.83125
O 6.70744 14.6437 14.8475
O 2.18811 10.1944 9.30633
O 4.22981 11.0828 7.34346
O 2.52025 15.4148 8.50106
O 3.97332 8.14077 5.56805
O 2.20504 15.6899 5.51212
O 0.311003 13.6735 9.46959
O 1.99254 0.0953404 9.7395
O 15.4002 13.6623 11.9909
O 2.50876 13.9012 10.7879
O 0.497007 17.4399 7.79304
O 3.47329 10.6089 12.2411
Si 3.42298 14.5537 5.08337
Si 6.56382 11.1018 4.69622
Si 6.54081 14.9477 9.44603
Si 9.54078 12.3585 7.21317
Si 4.0275 11.8459 5.94876
Si 7.31682 16.0155 6.81256
O 5.38207 13.7606 9.75657
O 7.89647 8.39397 11.6333
O 10.0437 9.34144 5.96678
O 10.5715 1.77566 5.48464
O 5.54981 11.9655 5.56324
O 7.45844 15.0832 5.40011
O 3.4679 13.3225 6.31524
O 6.69351 17.479 6.24894
O 6.58801 14.8527 7.83478
O 9.42854 12.8229 8.8176
O 5.98133 16.3058 9.91013
O 9.59409 13.5753 6.15879
Si 8.92012 14.6107 4.92648
Si 2.22987 8.23736 6.04496
Si 10.5133 16.3875 6.55344
Si 13.8273 10.8009 9.6181
Si 11.3414 10.4594 6.05324
Si 12.234 15.969 8.85879
O 8.80918 16.4837 7.46416
O 12.3565 9.98555 9.64507
O 1.899 9.22446 4.86225
O 13.2219 14.8281 9.47886
O 12.5127 9.61448 6.36362
O 1.87728 0.294765 4.35561
O 10.1546 15.7906 5.17247
O 13.8376 17.048 5.56228
O 11.6497 15.509 7.40511
O 14.9912 9.70417 9.29145
O 11.3145 1.36805 15.383
O 13.6806 11.3818 11.2534
Si 13.5279 4.51405 9.62545
Si 6.3448 0.756665 15.5471
Si 2.60354 6.78595 16.2684
Si 4.39759 2.24589 2.20232
Si 3.87017 2.4305 16.4916
Si 4.84378 4.84887 15.3086
O 1.24066 5.95962 16.5602
O 5.61018 17.1026 14.9577
O 3.29455 1.95008 0.935713
O 6.05415 5.68656 16.214
O 1.3736 3.70133 12.9494
O 4.03317 2.92086 13.0502
O 0.194546 16.7611 14.0014
O 4.07104 8.89041 8.61865
O 3.80832 6.10172 15.1756
O 6.409 15.854 12.8273
O 2.56344 8.35534 16.119
O 4.28102 3.83144 1.7828
Si 4.53317 3.8466 11.7035
Si 5.4979 16.5694 11.4682
Si 6.88977 6.88343 15.7724
Si 12.7182 1.57615 14.4681
Si 7.2713 3.16386 14.5648
Si 7.55403 7.19408 12.8819
O 8.27738 6.34687 16.2086
O 9.6029 0.5206 0.432663
O 7.3728 1.52342 14.5241
O 8.75823 7.34119 13.9133
O 8.43053 3.79118 13.4165
O 7.12369 5.77781 12.0211
O 5.07691 1.75549 15.708
O 5.76637 8.13734 10.236
O 6.37059 7.40199 14.0291
O 12.5137 2.72091 13.3868
O 5.67881 4.61286 4.03003
O 7.94571 3.49705 16.149
Si 8.52739 4.91196 12.1471
Si 11.9815 17.2409 11.5673
Si 9.9021 6.14245 14.1712
Si 14.0085 16.842 13.5624
Si 13.0427 2.4893 11.6729
Si 11.322 6.45752 9.54438
O 10.0164 4.879 15.2421
O 0.227044 1.67059 14.9396
O 1.17688 0.197704 16.349
O 3.7624 3.9504 16.0478
O 13.7827 15.3955 14.2126
O 12.6854 5.86422 9.09254
O 9.95061 5.61086 12.6538
O 11.061 7.89651 10.3854
O 12.4472 3.79396 10.6748
O 13.2449 0.129707 14.4125
O 11.2147 6.90942 14.3099
O 13.5642 16.7209 12.0741
Si 1.36869 13.4921 12.6949
Si 3.9124 10.4305 8.8748
Si 2.55886 15.4705 14.1516
Si 4.97241 11.3747 11.4689
Si 2.22917 11.0388 13.0726
Si 2.57677 2.62822 13.6733
O 2.12023 15.556 15.7569
O 1.53651 9.79097 14.3624
O 6.07061 10.2774 12.1388
O 1.86894 1.21485 12.8889
O 1.02893 11.4291 12.2124
O 5.98691 4.26274 14.194
O 2.37989 12.7844 13.7271
O 4.23437 15.6006 11.5359
O 1.91506 14.9834 12.8358
O 10.2501 13.6178 11.2501
O 2.83378 2.06042 15.0412
O 5.02623 12.7979 12.1532
Si 1.50628 14.6421 9.62339
Si 6.66207 9.25365 10.9923
Si 7.68909 15.0321 13.4936
Si 9.09527 10.8439 14.9456
Si 9.00576 13.1597 10.2199
Si 10.332 16.1199 14.1954
O 3.2929 14.4656 0.832472
O 11.0318 14.7076 13.9558
O 7.95884 13.657 12.8932
O 9.34873 11.8633 16.0451
O 8.37332 11.8589 11.0311
O 7.84062 14.3741 10.0749
O 4.7911 11.2201 10.0393
O 12.1591 1.03676 10.8537
O 8.75498 16.0808 14.0421
O 10.1296 9.63072 14.4939
O 8.59939 16.2196 1.11791
O 7.6234 10.2989 15.1568
Si 12.5847 14.3461 13.8189
Si 11.0626 9.56927 10.4512
Si 10.8764 0.231739 16.4771
Si 14.5947 10.3706 0.192682
Si 11.6192 9.74011 13.6957
Si 13.1095 11.8947 15.0401
O 10.5978 16.7312 15.5481
O 12.973 10.0605 0.483148
O 12.8181 8.79065 14.3867
O 2.58793 17.1909 13.8391
O 11.7156 9.80594 12.0207
O 14.3077 12.3689 13.8246
O 11.883 11.1784 14.6348
O 12.9182 13.9674 12.3709
O 12.5644 13.4198 15.4479
O 0.083904 9.12778 16.8821
O 12.3936 17.5057 0.323611
O 14.2209 11.3729 15.9757
324
 Atoms. Timestep: 25000
Si 0.665118 5.34366 16.9876
Si 5.43588 15.925 15.0376
Si 4.8459 8.26768 4.80942
Si 3.63894 2.33237 6.96314
Si 1.79653 2.01348 4.42552
Si 4.36898 5.60941 4.34904
O 4.34968 5.40702 6.01298
O 4.34701 1.43266 10.1526
O 2.37264 2.6777 5.76947
O 5.60209 8.40461 16.6367
O 3.3049 2.01338 3.42704
O 3.48211 5.89863 3.11781
O 1.93905 4.84674 0.921959
O 3.59011 6.78896 0.223944
O 5.60274 6.83375 4.2888
O 4.41579 1.07693 6.28023
O 4.17999 9.09455 3.48326
O 5.22403 3.20858 7.08813
Si 3.38627 5.42988 1.53982
Si 8.18311 17.4854 0.96039
Si 8.35846 5.45651 5.37467
Si 10.1 3.56536 4.40635
Si 6.44565 0.72026 2.98946
Si 9.36095 5.14184 2.74952
O 7.39959 4.22526 5.88198
O 6.89715 0.956994 4.51383
O 9.2954 3.57345 2.98983
O 13.0676 4.80899 1.5058
O 6.89858 17.4366 16.7014
O 9.10646 4.99522 1.14822
O 5.13548 1.58757 2.26811
O 7.80644 9.31375 1.2808
O 8.34439 5.86043 3.70603
O 11.9481 3.41824 4.00664
O 6.62029 11.4428 3.21049
O 10.9712 5.52318 3.06399
Si 8.34018 5.30239 16.7984
Si 1.23041 0.196171 14.3762
Si 14.2835 5.078 5.66232
Si 14.8679 1.91739 2.53387
Si 15.0178 2.51438 16.4646
Si 13.6183 6.33428 0.900955
O 13.5092 5.33904 4.25756
O 13.6337 1.6808 3.8114
O 14.9015 2.84245 1.2459
O 13.1139 7.73556 1.56587
O 13.4231 2.1963 16.4625
O 15.0736 4.15418 16.2174
O 15.2087 6.16249 0.761941
O 13.3587 6.46421 16.3472
O 0.305114 4.38855 5.60836
O 0.392265 2.46632 3.70212
O 2.38223 6.30429 5.72339
O 13.3442 4.40442 6.71857
Si 1.26594 16.0265 16.6001
Si 1.43976 9.51299 15.6649
Si 1.8863 16.6981 4.12824
Si 2.85451 12.9491 2.29506
Si 1.33906 10.8101 1.17814
Si 3.75584 15.3889 0.780552
O 13.7598 15.0676 7.57001
O 2.99256 11.084 4.79725
O 2.28217 10.134 2.20805
O 3.16699 16.8281 3.06843
O 1.74566 10.9124 16.5714
O 4.22761 15.2304 14.3505
O 1.54827 12.3343 1.66899
O 5.10763 15.4704 16.5842
O 2.71201 16.6571 0.317237
O 4.31689 12.387 2.33772
O 2.7175 2.73643 8.25875
O 2.50733 13.5996 3.70279
Si 8.74015 12.6988 12.1803
Si 6.94891 9.6224 16.9535
Si 4.61882 16.0425 3.38117
Si 9.60957 10.1822 4.67657
Si 6.04072 12.0765 1.74763
Si 9.58882 14.8589 2.04632
O 4.66782 15.2047 4.73531
O 8.27484 10.9112 5.25589
O 7.47015 12.9553 1.23185
O 9.31156 14.0913 3.54159
O 5.92408 10.8437 0.506983
O 9.73848 13.9272 0.694419
O 8.56332 11.5706 13.3474
O 7.56477 0.748769 1.85433
O 5.03303 15.1978 2.01028
O 8.82395 9.16377 3.69217
O 5.78841 17.1562 3.43611
O 11.053 11.0524 4.37815
Si 8.82499 12.4445 0.778645
Si 12.3269 7.52194 15.4643
Si 12.2906 16.464 2.04788
Si 12.2477 8.87469 0.739365
Si 9.17489 9.73316 2.05989
Si 15.2624 16.5415 1.83806
O 11.6411 11.7942 6.84981
O 1.00481 8.77177 6.76503
O 10.7163 9.20182 1.57156
O 0.600183 16.226 3.3282
O 11.3139 8.15215 16.5266
O 0.206988 15.4008 0.692504
O 9.30518 11.3453 1.92436
O 15.4675 0.330451 2.04572
O 10.9321 15.7053 2.32938
O 15.2222 10.2046 1.36623
O 12.7159 17.063 3.55558
O 13.7912 15.8422 1.78421
Si 13.1802 3.09179 7.59902
Si 2.88962 2.06936 9.79445
Si 0.609099 6.32851 9.67366
Si 5.68516 1.26439 11.0098
Si 14.2632 0.173143 7.23319
Si 3.55893 5.35445 10.6329
O 14.9014 5.79153 10.4448
O 5.59876 17.8694 11.8814
O 1.64004 2.96076 10.7519
O 6.09633 7.84158 7.89819
O 0.632699 16.1516 10.2283
O 4.39506 6.35746 9.2834
O 13.9408 1.75646 7.04617
O 1.88929 5.75409 10.4578
O 4.10743 3.75186 10.3725
O 6.80247 1.59912 9.72197
O 0.209467 7.89917 9.28716
O 5.89036 2.62182 11.7807
Si 5.60349 4.32232 5.92068
Si 6.1048 0.773739 5.86883
Si 5.13608 7.66442 9.03135
Si 8.45692 5.12702 9.47155
Si 7.66516 2.07848 8.34172
Si 7.50559 7.30083 7.8694
O 4.18622 5.32948 12.1062
O 10.8467 16.9213 12.778
O 7.82632 3.82344 8.64181
O 8.55586 8.49453 8.00512
O 7.09012 1.34875 6.94583
O 7.40146 6.41042 9.34727
O 9.99821 4.96187 5.40768
O 7.62413 6.74901 6.23175
O 6.1155 9.30425 4.94955
O 9.84774 6.21098 8.86928
O 7.72405 9.72227 9.99859
O 8.95061 4.31274 10.7252
Si 12.4723 4.63768 3.08949
Si 13.7973 0.163919 4.12307
Si 8.8792 9.72054 8.96381
Si 0.601386 2.3493 12.0782
Si 10.5701 1.46298 6.92527
Si 0.935863 5.83893 6.33876
O 10.1452 9.6977 9.85773
O 11.7738 16.4153 10.3145
O 11.643 2.47991 7.56639
O 1.26581 5.73723 8.05017
O 10.9716 17.8108 6.4295
O 13.9803 3.30402 9.09895
O 9.38915 1.99722 8.15835
O 13.6832 12.3439 8.12114
O 15.0929 6.61995 6.21682
O 13.0921 17.6821 8.22747
O 9.17519 11.0989 8.11897
O 14.6291 1.93313 11.7052
Si 14.3186 13.8011 8.51796
Si 2.73207 9.87553 3.71563
Si 14.0471 13.3422 11.718
Si 4.33386 14.2352 10.6589
Si 0.488992 9.18461 8.19509
Si 1.30141 17.3783 9.24311
O 6.93394 15.1147 14.7878
O 1.71527 9.81656 8.96191
O 3.81719 11.3219 7.52864
O 2.5603 16.5004 8.73725
O 3.65564 8.32167 6.03313
O 2.39776 15.7112 5.51867
O 0.407038 14.0311 8.73566
O 1.72785 0.8884 9.90202
O 0.0858398 13.7152 11.9988
O 2.78878 14.6148 10.0276
O 0.185163 0.195004 8.19996
O 3.73406 10.0098 12.8635
Si 3.22412 14.4319 5.01727
Si 6.67856 10.7769 4.74946
Si 6.98601 15.024 9.28964
Si 10.1437 12.3416 7.19236
Si 3.96794 11.7144 5.97216
Si 7.46398 15.9988 6.55068
O 5.61139 14.0872 9.66311
O 7.82279 8.41389 12.291
O 10.4292 9.54556 6.03928
O 10.3521 2.13248 5.39735
O 5.5146 11.6828 5.60473
O 8.19446 15.5788 5.14643
O 3.83583 13.4482 6.14777
O 5.99762 17.0526 6.5604
O 6.91939 14.9496 7.69039
O 10.6581 13.2885 8.77397
O 6.47137 16.4045 9.99101
O 9.64023 13.4037 6.08321
Si 9.52284 14.55 5.0955
Si 2.04625 8.06811 5.58018
Si 10.3454 16.4122 6.8205
Si 13.8045 11.1395 9.26539
Si 11.8429 10.4472 5.72352
Si 12.6119 16.1646 8.88032
O 8.85204 16.7118 7.14342
O 12.6133 10.2925 10.065
O 1.6746 8.69389 4.22605
O 13.6505 14.4217 10.0457
O 13.1455 9.8166 5.97236
O 1.82678 0.344051 4.67115
O 10.7621 15.4021 5.51285
O 14.1423 17.5808 5.58937
O 11.2153 15.8179 8.08857
O 14.5903 10.0109 8.38609
O 11.2352 1.08545 15.5591
O 14.3933 11.9766 10.6857
Si 13.6875 4.52257 10.0875
Si 6.22999 0.455408 15.5102
Si 2.90789 6.82813 15.8913
Si 3.96281 2.47466 1.90235
Si 3.66002 2.12896 16.2601
Si 4.8671 4.92569 15.1949
O 1.27096 6.23437 15.9146
O 5.42364 17.4012 14.4479
O 2.97163 2.06804 0.661973
O 5.79981 5.47421 16.4325
O 1.03623 3.72456 13.1671
O 3.65616 2.85871 13.0141
O 0.0478909 17.2609 13.5715
O 3.77879 8.49365 8.55359
O 3.68275 5.92868 14.7916
O 7.41082 16.2939 12.371
O 2.63054 8.48778 15.901
O 4.27426 4.07938 1.75961
Si 4.69866 3.65188 11.9568
Si 5.94984 16.3052 11.4927
Si 6.30121 6.99605 16.0831
Si 13.0421 1.39503 15.1156
Si 7.02194 3.28063 14.6051
Si 7.92003 7.16979 13.2979
O 7.65024 6.69303 16.9571
O 9.55656 17.5604 0.267196
O 7.07556 1.63303 14.6651
O 9.59739 7.13163 13.6509
O 8.15291 3.34809 13.3144
O 7.72103 5.62973 12.697
O 5.17608 1.62219 16.1304
O 5.8173 7.99932 10.6605
O 6.7515 7.05992 14.5411
O 13.0695 2.47145 13.926
O 5.2419 4.29704 4.10772
O 7.6317 4.01615 16.1472
Si 8.78516 4.57281 12.3253
Si 11.9148 17.3666 11.6736
Si 10.285 5.80388 14.3854
Si 13.9672 16.8173 13.4844
Si 13.1113 2.33438 12.1909
Si 11.248 6.22149 9.6186
O 9.69949 5.31216 15.8983
O 0.0821903 1.70863 15.1151
O 0.660084 17.4962 15.9202
O 3.64258 3.68216 15.7515
O 13.59 15.5157 14.3114
O 12.4022 5.17337 9.33495
O 10.2334 4.57374 13.1372
O 11.8231 7.73121 10.1526
O 12.8429 3.64362 11.2336
O 13.428 17.8709 14.5945
O 11.7578 6.39978 14.339
O 13.4354 17.0611 12.0285
Si 1.31916 12.8758 12.4162
Si 3.3131 10.0922 8.85997
Si 2.46333 15.203 13.9142
Si 4.46212 11.1126 11.5549
Si 2.23243 10.9051 13.2912
Si 2.27948 2.70533 13.8722
O 1.41087 14.8334 15.1965
O 1.45401 9.4236 13.8867
O 5.9221 10.4226 11.8077
O 1.41119 1.3308 12.978
O 1.94417 11.6084 11.6298
O 5.82335 4.19313 14.0788
O 1.68554 12.345 14.0698
O 4.7329 15.3996 11.7288
O 2.29421 14.2635 12.7352
O 10.3378 13.0997 11.4913
O 2.58498 1.3449 14.9926
O 4.22003 12.8155 11.4342
Si 1.50975 15.0938 9.49715
Si 6.80196 9.16238 11.1863
Si 8.01572 15.5733 13.5872
Si 8.96875 11.0639 14.8538
Si 9.59075 13.4803 10.0726
Si 10.565 15.9822 14.2014
O 2.85662 13.9951 1.02173
O 10.8037 14.3192 13.8153
O 8.06368 13.926 12.9526
O 9.3311 11.9245 16.301
O 8.23013 12.6165 10.6051
O 8.50333 14.7516 9.60996
O 3.98888 10.8862 10.0225
O 12.1486 0.990036 11.8825
O 9.04043 16.3074 14.4386
O 10.0791 9.94446 14.6233
O 8.4669 16.0409 1.56628
O 7.58842 10.4564 15.5257
Si 12.5035 14.3088 13.7438
Si 11.4975 9.30676 10.5639
Si 11.0067 17.674 16.5208
Si 14.637 10.1588 16.9326
Si 11.4814 9.75302 13.7186
Si 13.6111 12.2151 14.9249
O 11.4618 16.2561 15.4566
O 13.0886 9.86449 17.0321
O 12.5654 8.80569 14.5737
O 2.31829 16.8546 14.0294
O 11.6975 9.18233 12.1745
O 14.5307 12.719 13.5787
O 12.3624 11.2165 14.3964
O 12.5295 13.8585 12.1184
O 12.576 13.4749 15.2844
O 0.108048 8.93921 16.4778
O 12.1022 17.546 0.670689
O 14.3681 11.5431 16.1549
324
 Atoms. Timestep: 25500
Si 0.597926 5.32385 0.139166
Si 5.35838 15.6243 15.1906
Si 5.08753 8.24154 4.52775
Si 3.76629 1.88755 6.81343
Si 2.11666 1.67449 4.4385
Si 4.38031 5.46856 4.01853
O 4.54379 5.76904 5.67655
O 4.10097 1.90702 10.2806
O 2.50677 2.41656 5.76319
O 6.15961 8.16004 16.5952
O 3.49213 1.96156 3.29933
O 2.93149 5.67665 3.18324
O 1.46531 4.62499 1.4196
O 3.45389 6.6494 0.409028
O 5.2626 6.84804 3.627
O 4.60993 0.496108 6.58959
O 4.37301 9.1215 3.22926
O 4.4999 3.36968 6.66342
Si 2.94471 5.31696 1.67715
Si 8.35381 17.7576 1.51489
Si 8.24807 5.67698 5.43128
Si 10.1671 3.52443 4.82265
Si 6.12546 0.861281 3.07741
Si 9.36087 4.94123 2.87032
O 7.01442 4.61697 5.88962
O 6.3457 1.31758 4.65657
O 9.15592 3.47027 3.50279
O 13.1721 4.9103 1.74899
O 6.96665 17.7816 0.330155
O 9.42259 4.71179 1.27433
O 5.64826 2.02123 2.04729
O 8.09552 8.72102 1.09488
O 8.43825 5.92757 3.7376
O 11.67 3.39132 4.15468
O 6.51936 11.2273 3.25897
O 10.832 5.5709 3.0098
Si 8.85496 4.85637 16.7643
Si 0.931762 0.0329773 15.1991
Si 13.9677 5.08331 5.97567
Si 15.2575 1.13862 2.34321
Si 15.2277 2.55669 16.4109
Si 13.8314 6.09556 0.871759
O 13.1792 5.53613 4.57925
O 13.7192 1.33398 3.00667
O -0.120136 2.16956 0.853508
O 13.1084 7.26522 1.59733
O 13.5244 2.72385 16.1131
O 15.4841 4.17407 16.3185
O 15.3373 6.16609 1.13325
O 13.79 6.16418 16.2685
O -0.188616 4.39103 5.78372
O 1.14901 1.78534 3.15197
O 1.83054 6.40636 6.01844
O 12.8528 4.21919 6.92461
Si 1.58348 15.9 16.9179
Si 1.51603 9.40204 15.2067
Si 1.74343 16.772 4.49813
Si 3.02821 12.8233 1.68211
Si 1.26349 10.5979 0.927271
Si 4.24544 15.1472 0.375235
O 13.8055 15.6105 8.12895
O 3.18286 11.118 4.17442
O 2.11669 9.61394 1.85265
O 2.91024 17.0317 3.4869
O 1.6878 10.756 16.3752
O 4.00425 15.1759 14.4745
O 1.76573 12.1722 1.32114
O 5.5634 15.0704 16.5262
O 3.23516 16.3576 -0.041448
O 4.37001 11.9877 1.92846
O 2.81261 2.17308 8.15082
O 2.53468 13.8709 3.13732
Si 8.86791 12.6093 12.5455
Si 7.0879 9.27149 16.9318
Si 4.34754 16.2915 3.16258
Si 9.26776 10.2445 4.63856
Si 6.1159 11.6013 1.84394
Si 9.54427 14.7864 2.00722
O 4.46769 15.3026 4.60369
O 8.01085 10.9883 5.32744
O 6.74086 12.9166 1.2057
O 9.70304 14.1246 3.51612
O 6.35223 10.656 0.582201
O 9.45143 13.6881 0.836466
O 8.90632 11.2014 13.5198
O 7.77374 0.551176 2.68154
O 4.50378 15.47 1.86888
O 8.97344 9.87675 3.17353
O 5.48555 17.3948 3.03488
O 10.5468 11.3258 4.40893
Si 8.46535 12.4372 0.434802
Si 12.6135 6.83273 15.3734
Si 12.1245 16.6869 2.21429
Si 12.0693 8.13846 0.548109
Si 9.27021 9.60396 1.57171
Si 15.6144 16.3282 2.15865
O 11.4302 10.9518 7.33292
O 1.1264 8.86255 6.96436
O 10.7078 9.05619 1.04898
O 0.362154 16.4522 3.6352
O 11.5838 6.89921 16.789
O 0.762548 15.4351 1.05829
O 9.2454 11.1917 1.04876
O 15.4454 17.8328 1.62694
O 11.1452 15.4062 1.89659
O 15.2089 10.3905 0.751303
O 11.657 17.3843 3.83632
O 13.7575 16.2678 2.499
Si 13.052 2.92826 7.86295
Si 2.49083 1.75879 9.56477
Si 0.864189 6.29412 9.54838
Si 5.67192 1.97823 10.5971
Si 14.3974 0.448905 6.88907
Si 3.62091 5.86236 10.9359
O 15.6375 5.25989 10.3875
O 6.10854 0.473251 10.9402
O 1.06457 2.70786 10.4372
O 6.15266 7.74607 8.11002
O 1.17631 16.0581 9.88871
O 4.56062 6.23524 9.62286
O 14.2061 1.952 7.15907
O 2.12784 6.53145 10.5817
O 3.14029 4.26124 10.909
O 6.93153 2.36982 9.51649
O 0.548144 7.87813 9.32567
O 5.78574 3.39704 11.3959
Si 5.48534 4.50513 5.83738
Si 6.18561 0.635884 6.0689
Si 4.95456 7.64335 9.17071
Si 8.66713 4.79829 9.49317
Si 7.80928 2.38829 8.1661
Si 7.73985 7.30255 7.97907
O 4.43621 5.62463 12.3123
O 10.941 17.7689 12.8095
O 8.30512 4.1524 8.04467
O 8.84692 8.54276 7.90252
O 7.18514 1.57005 6.94432
O 8.1402 6.42355 9.3466
O 9.74617 4.90059 5.8466
O 7.80671 6.96227 6.28455
O 6.16307 9.26383 5.25478
O 10.2485 5.36349 9.164
O 7.2069 9.81257 9.87248
O 8.18886 4.11779 10.8721
Si 12.1949 4.65017 3.16922
Si 12.9651 0.0918973 4.1572
Si 8.68721 9.79677 9.11342
Si 0.641509 2.18356 11.8385
Si 10.3995 1.50285 7.08756
Si 0.535452 5.75116 6.59407
O 9.83814 9.6597 10.2185
O 12.2131 17.0347 10.3201
O 11.6744 2.02258 7.97555
O 1.01959 5.44107 8.11974
O 10.3466 -0.0842419 6.76708
O 13.6741 3.22662 9.34797
O 9.20186 1.70728 8.28911
O 14.2574 12.4888 8.14382
O 14.6277 6.35884 7.00796
O 13.595 18.0721 8.2694
O 8.79104 11.2035 8.26545
O 14.6638 1.99614 12.4998
Si 14.6275 14.1838 8.63023
Si 2.9928 9.73297 3.35454
Si 13.9832 13.2307 11.3399
Si 4.7031 14.2054 10.6621
Si 0.601394 9.24038 8.55316
Si 1.43582 17.2612 8.55232
O 6.45755 14.9749 14.4039
O 1.57396 10.1546 9.50401
O 3.16162 11.0513 7.26572
O 2.62472 16.2409 7.98107
O 3.87079 7.98219 5.79673
O 2.15573 15.571 5.36183
O 0.770607 14.1213 8.37629
O 1.64951 0.339058 9.8173
O 15.3824 14.0158 11.7453
O 3.45127 14.3407 9.72406
O 0.399581 -0.202773 7.41464
O 3.50177 10.5797 12.8807
Si 3.19124 14.3064 4.82514
Si 6.47539 10.7376 4.79383
Si 7.13388 14.8842 8.85173
Si 10.1661 12.1318 7.70576
Si 3.71243 11.4799 5.85673
Si 7.34076 15.869 6.34937
O 5.9801 13.9479 9.50921
O 7.4856 8.30262 11.9475
O 10.4423 9.34434 5.54489
O 10.2678 2.26241 5.75208
O 5.35012 11.6411 5.68585
O 7.85489 14.8458 5.30187
O 3.39053 13.0559 5.72528
O 6.79568 17.2397 5.56734
O 6.24129 15.0548 7.3451
O 10.6142 12.925 9.03986
O 6.96235 16.3622 9.6156
O 9.85002 13.3058 6.42852
Si 9.5156 14.4809 5.28329
Si 2.17134 8.05979 5.72931
Si 10.0504 16.5552 7.17534
Si 13.7966 11.2751 9.24972
Si 11.7164 10.3731 5.55932
Si 12.5958 16.7838 8.73851
O 8.46626 16.483 7.45317
O 12.1891 10.4732 9.75939
O 1.96441 8.63876 4.24077
O 13.5128 14.2534 9.95184
O 13.2545 10.375 4.90481
O 1.5803 0.247775 5.12815
O 10.3356 15.8792 5.74244
O 13.5834 17.8905 5.56999
O 11.3222 16.0481 8.17025
O 14.4797 9.86325 8.58858
O 11.4953 1.55965 16.3565
O 14.1176 11.7517 10.9166
Si 14.1022 4.48243 10.2759
Si 6.21488 0.443116 16.2045
Si 2.66344 6.82552 16.0746
Si 3.98431 2.63469 1.88649
Si 3.65009 2.03547 16.1686
Si 4.71272 4.73197 15.4403
O 1.17463 6.02384 15.8532
O 5.76355 17.2308 15.1886
O 3.05857 1.96686 0.628435
O 5.69201 5.60291 16.4818
O 1.07126 3.61478 13.1653
O 3.86947 3.07026 13.1849
O 0.146355 17.8844 13.6879
O 3.84859 8.69837 8.8212
O 3.70187 6.03991 15.0569
O 7.12039 16.5042 12.2737
O 2.54938 8.31769 15.2226
O 4.26912 4.29718 1.5787
Si 4.33921 4.06384 11.9941
Si 6.23053 16.756 10.967
Si 6.73246 6.68535 16.0995
Si 12.6165 1.703 15.2922
Si 7.15035 3.04592 14.7804
Si 7.97107 7.26229 13.1683
O 8.22823 6.38943 16.9314
O 9.5819 0.438005 0.776018
O 6.77245 1.4582 14.9301
O 9.52206 7.31492 13.5045
O 8.03664 3.28493 13.3452
O 7.42727 5.72788 12.6585
O 5.12394 1.67331 16.7361
O 5.02317 8.3886 10.6878
O 7.16916 7.32883 14.6481
O 12.0992 2.29056 13.8232
O 5.12334 4.01343 4.19134
O 7.89986 3.56936 16.1722
Si 8.31997 4.54073 12.3821
Si 12.1176 -0.0485371 11.6202
Si 10.358 5.69296 13.9436
Si 14.2243 17.4531 13.8385
Si 13.1217 2.59408 12.4011
Si 11.586 6.20402 9.55915
O 10.0142 5.27586 15.5863
O 0.323635 1.59942 15.3858
O 0.59225 17.1713 16.4628
O 3.72202 3.75024 16.0056
O 14.1339 15.8226 14.2408
O 13.1451 5.78794 9.62859
O 9.88887 5.06452 12.4718
O 11.2786 7.72857 10.0752
O 13.449 4.09645 11.8868
O 13.1383 0.189041 14.9116
O 11.9784 5.97857 13.9956
O 13.4903 17.2986 12.4253
Si 1.36964 13.5729 12.4091
Si 3.08875 10.3182 9.0484
Si 2.36793 15.6295 14.483
Si 4.26233 11.4437 11.6248
Si 2.10963 11.4857 13.2886
Si 2.31471 2.63505 13.5376
O 1.55322 14.755 15.705
O 1.14672 10.1798 13.6635
O 5.68053 10.7066 11.8767
O 1.87777 1.11075 12.4392
O 1.84864 12.242 11.6314
O 5.70463 4.00516 14.5391
O 2.13493 12.9182 14.0584
O 4.79422 15.7876 11.0778
O 1.77933 15.1858 13.0623
O 10.291 13.1007 11.8477
O 2.59742 1.74664 15.0191
O 4.42222 13.1343 11.9348
Si 2.03988 14.9543 8.9681
Si 6.3855 9.3303 11.2764
Si 7.67354 15.5427 13.3614
Si 8.82468 10.8674 15.0941
Si 9.53716 13.2245 10.3236
Si 10.7444 16.6759 14.0528
O 3.32765 13.793 0.49377
O 11.6334 15.233 13.6644
O 8.12378 13.9782 12.9648
O 8.44409 12.5311 15.915
O 8.34903 12.0189 11.077
O 8.46018 14.2758 9.59878
O 3.6998 11.1572 10.1865
O 12.2899 1.65929 11.2948
O 9.28481 16.0267 13.7094
O 10.5589 10.2439 15.0632
O 8.35606 16.0835 2.06564
O 7.82329 9.73658 15.5545
Si 13.1902 14.5811 13.7768
Si 11.324 9.24199 10.6631
Si 10.8455 18.0854 17.0184
Si 14.5255 9.72263 16.5376
Si 11.437 9.49956 13.8202
Si 13.6759 11.813 14.3517
O 10.8676 16.8266 15.7855
O 13.0387 9.04614 16.765
O 12.2501 8.15316 14.6565
O 2.21979 17.3188 14.7284
O 11.2237 8.91286 12.4109
O 15.1514 12.445 13.8164
O 13.1787 10.431 13.4777
O 12.7846 13.62 12.4235
O 13.1414 13.3297 14.9066
O -0.110498 8.70521 15.7704
O 11.9495 17.6976 1.13894
O 14.2257 11.118 15.8299
324
 Atoms. Timestep: 26000
Si 0.500029 5.04619 0.26789
Si 5.52173 15.755 15.2202
Si 4.63411 8.2301 4.44204
Si 3.51015 2.30184 6.78593
Si 2.15532 1.57026 4.31213
Si 4.31079 5.56203 3.83246
O 4.05644 5.18412 5.46337
O 3.98791 1.38409 9.89897
O 2.19308 2.45494 5.61507
O 6.62471 8.20791 16.2699
O 2.94553 1.44033 3.0149
O 3.1051 6.12101 3.05243
O 1.5269 4.76368 1.4904
O 3.73603 6.34923 0.567756
O 5.36182 6.95149 3.89202
O 4.40508 0.961291 6.72624
O 3.92814 9.50136 3.53131
O 4.90265 3.16008 6.67062
Si 3.05365 5.25933 1.62738
Si 8.5573 17.9855 1.28352
Si 8.28374 5.43198 5.37703
Si 10.2562 3.33672 5.05704
Si 6.27295 1.0545 3.29305
Si 9.4634 4.67835 2.7386
O 7.01324 4.65397 5.92096
O 6.072 1.28538 4.79258
O 9.5346 3.11479 3.37448
O 12.8368 4.47947 2.1683
O 7.15356 0.0335968 0.307758
O 9.08419 4.70833 1.20312
O 5.59059 1.94097 2.27815
O 8.67453 9.13295 0.54654
O 8.24238 5.4549 3.66299
O 11.9021 3.72293 4.34847
O 6.74201 11.4017 2.85973
O 10.6399 5.88516 2.79741
Si 8.70674 4.68645 16.7721
Si 1.07794 -0.0155708 15.6965
Si 13.8426 5.16313 5.99948
Si 15.4065 1.24503 2.70381
Si 15.3597 2.2001 16.8839
Si 13.205 5.70985 1.04731
O 13.2423 6.03245 4.47717
O 14.2281 1.48769 3.79082
O 15.1786 1.5974 1.08104
O 12.4361 7.12573 1.48083
O 14.1159 1.97485 15.8256
O 0.182379 3.73724 16.5027
O 14.865 5.92067 1.24335
O 12.84 6.11374 16.3906
O 15.4534 4.46481 6.19146
O 0.804569 2.2286 3.37926
O 1.47086 6.20568 5.84063
O 12.7757 4.29229 6.73655
Si 1.6012 15.8167 0.142343
Si 1.67473 9.45289 15.4893
Si 1.60941 16.5526 4.21684
Si 3.19114 12.8777 1.88496
Si 1.07219 10.7368 0.969109
Si 4.18789 15.1706 0.699451
O 13.2272 14.7427 7.80553
O 2.26788 11.0614 4.84005
O 1.6354 9.82826 2.26186
O 2.95059 16.4894 3.32438
O 1.95345 10.3969 16.8027
O 4.26721 15.5933 14.2557
O 1.88972 12.1682 1.42759
O 5.13614 15.3938 16.6667
O 3.12556 16.4266 0.646366
O 4.29715 11.8679 1.68916
O 2.58733 2.66512 8.11623
O 3.24911 13.7384 3.32595
Si 8.65795 12.8185 12.2646
Si 7.27897 9.45564 16.9013
Si 4.63651 16.3669 3.42171
Si 9.2795 10.3421 4.50688
Si 5.88689 11.4526 1.47185
Si 9.58246 15.1515 2.08731
O 4.74125 15.2877 4.67451
O 7.9993 10.9622 5.09744
O 6.90196 12.2904 0.284432
O 9.35542 14.4023 3.44427
O 6.09758 10.103 0.680535
O 9.37549 13.9246 1.09802
O 9.17403 11.5942 13.2434
O 7.71155 0.697878 2.70894
O 5.00194 15.7898 1.95443
O 8.71964 9.44377 3.28001
O 5.49638 17.6109 3.60131
O 10.6114 11.2656 4.27552
Si 8.86179 12.4751 0.383165
Si 12.1096 7.26111 15.542
Si 12.2783 16.7342 1.60777
Si 12.0029 8.47765 0.744937
Si 9.62412 9.90911 1.7451
Si 15.329 16.2532 2.17304
O 11.1397 11.2216 6.807
O 1.22744 8.91003 7.0426
O 11.1389 9.33206 1.84616
O 0.188199 15.9434 3.7441
O 11.1422 8.16915 16.6059
O 0.303176 15.069 1.18517
O 9.56569 11.5011 1.34742
O -0.0411307 17.8076 2.3837
O 11.2045 15.7904 2.08822
O 15.0524 10.2785 0.930969
O 12.3331 17.8629 2.84087
O 13.8496 16.1528 1.66344
Si 13.1594 2.91055 7.89594
Si 2.50225 1.73042 9.3623
Si 0.581393 6.29539 9.67073
Si 5.36782 1.48495 10.4428
Si 14.3204 0.247294 7.31564
Si 3.44298 5.74304 10.2662
O 15.1907 5.27419 10.5607
O 5.91156 0.271873 11.2858
O 1.39082 2.30352 10.2784
O 6.44837 7.39873 7.88049
O 0.975554 16.3262 9.56153
O 4.15948 6.73113 9.15656
O 14.2036 1.81852 6.99352
O 1.85897 5.94249 10.6246
O 3.31171 4.13302 10.2543
O 6.61539 1.57508 9.3236
O 0.37061 8.00751 9.62349
O 5.66571 3.03289 11.1056
Si 5.40961 4.28622 5.62362
Si 6.00617 0.724337 6.30597
Si 5.14419 7.97158 8.93851
Si 8.96009 4.55141 9.08299
Si 7.75785 1.9209 8.44078
Si 8.05368 7.27327 7.62775
O 4.4616 5.91493 11.568
O 11.0448 17.4466 12.6752
O 8.19625 3.58874 8.18074
O 8.69849 8.69655 7.79231
O 7.23195 1.86804 6.99511
O 8.57299 6.03982 8.49828
O 9.58802 4.72398 5.71798
O 8.42505 6.81476 6.12462
O 6.17361 9.05257 4.6483
O 10.6208 5.02786 9.20402
O 7.46114 9.84956 10.093
O 8.63443 3.78199 10.5693
Si 12.0674 5.21261 3.6724
Si 13.5128 18.0189 4.20987
Si 8.58636 9.88131 8.91961
Si 0.754883 2.05663 12.0104
Si 10.5973 1.40669 7.46421
Si 0.327223 5.89392 6.96745
O 9.98167 9.97344 9.79882
O 12.6338 16.4505 10.4103
O 11.8191 2.18508 8.34024
O 0.830752 5.37912 8.35748
O 11.5247 0.0221259 6.73437
O 14.0077 3.85746 8.95377
O 9.32042 1.0818 8.43178
O 13.0908 12.3646 8.57155
O 14.6127 6.68861 6.89721
O 13.5769 17.5398 8.48299
O 8.654 11.1598 7.85844
O 14.9314 2.29658 11.906
Si 14.025 13.6219 8.63104
Si 2.25877 9.73156 3.72924
Si 14.2425 13.4524 11.7743
Si 4.37839 14.5047 10.4895
Si 0.881801 9.37524 8.53235
Si 1.33693 17.1033 8.27517
O 6.80355 14.9533 14.7743
O 1.87865 10.2887 9.49576
O 3.57069 11.2933 7.56812
O 1.35139 15.4584 7.57851
O 3.29175 8.05864 5.51528
O 1.99509 15.3247 5.12416
O 0.0633824 13.693 8.5521
O 2.50043 0.157575 8.59457
O 15.5442 14.4003 11.9058
O 2.57812 14.3123 9.92519
O 0.302396 0.157704 7.4875
O 3.64295 11.2318 12.4146
Si 3.37602 14.4584 4.69095
Si 6.45603 10.6273 4.43719
Si 6.93955 14.8207 8.9165
Si 9.87717 12.1543 7.42883
Si 3.53445 11.5759 5.74646
Si 7.48937 16.0667 6.26853
O 5.6058 13.9774 9.52213
O 7.3608 8.46717 12.4797
O 10.305 9.24467 5.47382
O 9.81333 2.09422 6.11589
O 5.09959 11.1154 5.2085
O 7.78919 15.166 4.97812
O 3.88282 13.1758 5.63882
O 6.52548 17.3178 6.48051
O 6.64111 15.0475 7.33144
O 10.2607 12.9524 8.86117
O 6.93128 16.4218 9.59106
O 9.27524 13.2268 6.25557
Si 9.34595 14.4523 5.19774
Si 1.71738 7.86135 5.74714
Si 10.6636 16.6711 6.78695
Si 14.0536 11.1156 9.66451
Si 11.3603 10.4483 5.37339
Si 12.6735 16.1875 8.77656
O 8.97654 16.6591 6.90267
O 12.7498 10.1179 9.77747
O 1.1888 8.86075 4.60342
O 13.7712 14.2255 10.0917
O 13.0864 10.3466 4.90843
O 1.41339 0.0231271 4.82786
O 10.6326 15.6205 5.47505
O 13.734 17.771 5.73296
O 11.1985 15.7736 8.11276
O 15.2392 10.2284 9.00423
O 11.6692 1.57609 16.1979
O 14.2437 12.0902 10.8313
Si 13.7193 4.74752 10.2776
Si 6.58198 0.446567 16.106
Si 3.01257 6.76339 16.2506
Si 3.96633 2.22781 2.0405
Si 4.03035 2.17317 16.2528
Si 5.08787 4.78401 15.7546
O 1.40721 5.81322 16.2515
O 5.86325 17.4714 15.0745
O 3.6364 1.54097 0.732717
O 5.99066 5.61181 16.8162
O 1.3231 3.30367 12.9973
O 3.74301 3.24574 12.9149
O 15.2297 18.004 14.89
O 4.42721 9.17378 8.26828
O 3.88422 5.7502 15.2659
O 6.89228 16.4049 12.4043
O 2.44052 8.09345 15.3661
O 3.9178 3.88713 1.79572
Si 4.39544 4.08226 11.5509
Si 6.08211 16.7294 11.0357
Si 6.98843 6.58044 15.8324
Si 12.7061 1.76615 14.9917
Si 7.43411 2.89077 14.5645
Si 7.57815 6.99764 13.0857
O 8.41712 6.25967 16.5611
O 9.8351 0.743204 0.700722
O 7.58281 1.22836 14.8724
O 9.02834 6.53608 13.9311
O 8.29874 3.2586 13.2361
O 7.59467 5.68536 11.9293
O 5.38843 1.53332 16.1406
O 5.6811 8.38538 10.447
O 6.42643 6.75757 14.3384
O 12.5098 2.24352 13.4067
O 5.51345 4.36087 3.83624
O 7.62042 3.468 16.3781
Si 8.59647 4.37285 12.0612
Si 12.4347 17.5343 11.6349
Si 10.153 5.44142 14.0315
Si 13.8329 17.3644 14.3597
Si 13.253 2.42858 11.9287
Si 11.2264 6.37289 9.9822
O 9.84014 4.62463 15.4731
O 0.912242 1.4301 16.2285
O 0.856348 17.3269 17.0873
O 4.04384 3.81046 16.2391
O 14.1241 15.7006 14.66
O 12.9219 6.31508 10.0191
O 10.1288 4.77554 12.5747
O 10.8 7.81368 10.5044
O 12.9802 3.92231 11.6239
O 12.5265 0.0972158 14.8006
O 11.4276 6.39177 14.237
O 13.8357 17.2804 12.6385
Si 0.839003 13.3595 13.2835
Si 3.51333 10.5129 8.96562
Si 2.61088 15.7489 14.4701
Si 4.88951 11.8706 11.5853
Si 2.22481 11.5474 13.2309
Si 2.49473 2.44166 13.6317
O 2.45524 15.0364 16.0453
O 2.29594 10.1075 13.9679
O 6.20125 11.0502 11.9111
O 1.87508 1.07367 12.5474
O 1.05461 11.9689 12.1489
O 6.07478 3.69311 14.656
O 1.99623 12.6523 14.3563
O 4.65587 16.165 10.8449
O 1.66633 14.9797 13.4544
O 10.0071 13.3935 11.4688
O 2.69122 2.17666 15.1025
O 4.52485 13.5071 11.7983
Si 1.27126 14.7184 9.10377
Si 6.57559 9.5132 11.4494
Si 7.59933 15.3036 13.4368
Si 8.98265 11.071 14.852
Si 9.35078 13.2057 10.005
Si 10.4667 16.774 13.9025
O 3.26414 13.9354 0.699655
O 11.5342 15.6095 14.378
O 7.47535 13.9321 12.7045
O 9.30327 12.1555 16.047
O 8.27118 12.299 10.7374
O 8.45617 14.5276 9.1581
O 4.47499 11.6719 9.88468
O 12.4614 1.0648 11.2494
O 9.28387 15.6813 13.7922
O 10.2723 9.98901 14.8659
O 8.64004 16.4149 1.91755
O 7.69158 10.4103 15.5885
Si 12.7845 14.7565 14.0774
Si 11.377 9.57002 10.5016
Si 10.9809 0.221853 16.5173
Si 14.4595 10.1081 16.6331
Si 11.7206 9.67103 14.0288
Si 13.6266 12.2279 14.5701
O 10.0714 17.6691 15.1959
O 13.344 9.21458 0.130615
O 12.7191 8.46514 14.5972
O 2.23169 17.4437 14.8159
O 11.2572 9.50925 12.1709
O 14.6796 12.9948 13.5131
O 12.9769 10.7838 14.257
O 12.7573 14.2307 12.6043
O 12.6469 13.4346 15.3075
O 0.115309 9.58695 15.4561
O 12.0087 17.3496 0.0560522
O 14.2497 11.6294 16.0803
324
 Atoms. Timestep: 26500
Si 0.178406 5.23764 16.9751
Si 5.34942 16.0257 15.2807
Si 4.43925 8.5142 4.71302
Si 3.68822 2.09831 6.5466
Si 2.29788 1.49357 4.17681
Si 4.2516 5.67639 4.1854
O 4.13801 5.57022 5.87243
O 4.42969 1.2485 9.85018
O 2.31827 2.41404 5.47566
O 6.78887 8.31007 16.1133
O 3.13958 0.788867 2.68415
O 2.80513 5.45806 3.31396
O 1.20905 4.76426 0.938675
O 3.22844 5.807 0.598874
O 5.04034 7.00492 3.99222
O 4.45881 0.790208 6.10633
O 3.37459 8.86445 3.59631
O 4.87894 3.09044 6.49097
Si 2.45982 4.94856 1.70841
Si 8.33624 17.9066 0.592397
Si 8.20188 5.35027 5.31126
Si 10.3626 3.28128 4.37835
Si 6.42594 0.854006 2.81843
Si 9.12989 4.63521 2.6584
O 7.20318 4.52354 6.09583
O 6.49225 1.56344 4.71537
O 9.02757 3.07047 3.20545
O 13.1728 5.1076 1.60822
O 7.4029 17.8016 16.6564
O 8.82465 4.57153 1.08028
O 5.40657 1.94324 1.91137
O 8.85524 9.54915 0.206597
O 7.97781 5.58923 3.69089
O 11.5043 3.69655 3.27998
O 6.22965 11.0939 3.00116
O 10.7104 5.81859 2.75596
Si 8.76458 4.90956 16.7145
Si 0.514436 17.8243 15.6573
Si 13.7383 5.16257 5.83419
Si 15.1778 1.4738 2.35863
Si 14.8417 2.22132 16.9793
Si 13.6623 6.55106 0.61223
O 13.0979 5.16844 4.30253
O 13.7207 1.17622 3.16045
O 14.876 2.55644 1.25538
O 12.9721 7.77536 1.42037
O 13.3517 2.0227 16.4129
O 15.275 3.80314 16.7791
O 15.2391 6.33766 0.633035
O 13.2163 6.33343 16.4958
O 15.5481 4.79332 6.10299
O 0.624975 1.97897 3.30353
O 1.56312 6.56524 6.60484
O 13.0014 4.11456 6.69435
Si 1.57239 15.6811 -0.0118291
Si 1.73487 9.37444 16.332
Si 1.98991 16.7993 3.91126
Si 3.71706 13.0617 2.03043
Si 1.46025 11.112 1.54365
Si 4.41111 15.6728 0.528647
O 13.3087 14.8239 8.20569
O 3.13124 11.0704 4.86805
O 1.2788 10.3431 2.98238
O 3.34027 16.4886 3.12142
O 2.45258 10.3182 0.0985114
O 4.04856 15.1592 14.8533
O 2.1305 12.5736 1.78323
O 5.58835 16.0443 16.8819
O 3.11342 16.7203 0.328544
O 4.91491 12.3556 1.32447
O 2.77959 2.13662 7.74875
O 4.10182 13.5465 3.53399
Si 8.86702 12.8442 12.1428
Si 7.44368 9.84754 16.5321
Si 5.03707 16.2564 3.27326
Si 9.26515 10.2006 4.17827
Si 6.35962 11.4983 1.45752
Si 9.96641 15.4599 1.7128
O 5.11204 15.4862 4.7655
O 7.81167 10.2605 4.76963
O 7.2458 12.9192 0.886705
O 9.98473 15.0775 3.28049
O 6.39082 10.483 0.231883
O 9.56202 14.1243 0.953757
O 9.3961 12.1881 13.4066
O 7.57319 0.834494 1.71727
O 5.32652 15.681 1.84599
O 9.1654 9.51644 2.64909
O 5.75562 17.6724 3.37251
O 10.576 11.4198 4.07894
Si 8.77241 12.7935 0.281895
Si 12.3462 7.4834 15.6026
Si 12.4967 16.5563 1.34614
Si 12.1111 8.86135 0.672774
Si 9.703 10.349 1.37881
Si -0.128212 16.6963 1.84943
O 11.248 12.1135 6.54456
O 0.997518 8.69177 7.96309
O 11.1617 9.96125 1.34403
O 0.190361 16.6877 3.49872
O 11.3814 8.28414 16.6331
O 0.762178 15.3261 1.40891
O 9.58842 11.9627 1.42566
O 15.3701 0.0937583 1.53024
O 11.3468 15.5211 0.929056
O 15.657 11.177 1.12809
O 12.1961 17.0342 3.01478
O 14.0689 16.1186 1.4775
Si 13.1587 2.87492 7.59681
Si 2.85558 1.41672 9.25747
Si 0.525714 6.02896 10.0046
Si 6.02896 1.33642 10.7064
Si 13.8456 0.0983364 7.07176
Si 3.54781 5.68569 10.0861
O 15.6054 4.66851 10.7598
O 5.72024 0.32375 11.9096
O 1.64756 2.23773 10.3649
O 6.48172 7.35351 7.6431
O 0.373465 16.4923 9.79894
O 4.01254 6.90569 9.13379
O 13.8322 1.73471 6.75443
O 2.04657 5.72882 10.405
O 3.74782 4.0547 9.82291
O 7.47581 1.20986 10.1126
O -0.0127818 7.57229 10.0102
O 6.12788 3.15064 10.7372
Si 5.51575 4.48016 5.8353
Si 6.13147 0.77651 5.97306
Si 5.40225 7.88077 8.87539
Si 8.73673 4.57397 9.28648
Si 7.84083 1.71327 8.56464
Si 8.10513 7.03326 7.79427
O 4.75221 5.59563 11.2831
O 11.1944 17.2167 13.1072
O 8.10165 3.45262 8.41888
O 8.88643 8.41742 8.10081
O 6.69625 1.03652 7.72087
O 7.65294 5.79487 8.87489
O 9.83521 4.65055 5.26062
O 8.4655 6.62191 6.32749
O 5.59069 9.57356 5.19336
O 10.4014 5.24815 9.24895
O 8.03943 9.51858 9.99378
O 9.03653 3.79671 10.654
Si 12.3344 5.12734 2.91446
Si 13.3937 17.8673 3.76074
Si 9.27273 9.81122 8.9106
Si 1.08555 1.64873 11.6838
Si 10.6031 1.42741 6.93735
Si -0.0811138 6.12218 7.03956
O 10.7697 9.84514 9.51369
O 12.048 16.9689 10.291
O 11.53 2.39039 7.82947
O 0.447042 5.51845 8.41486
O 10.9831 -0.0656197 6.67973
O 14.0258 3.24603 8.85045
O 9.29766 0.857384 7.9059
O 14.0363 11.8492 8.94368
O 14.1676 6.78209 6.66649
O 12.8548 17.5417 7.9263
O 9.03318 11.0367 7.77359
O 15.0765 1.63675 11.6706
Si 14.0609 13.6604 9.15787
Si 2.25424 9.86041 4.19077
Si 13.6363 13.2481 11.9889
Si 4.05771 14.3306 10.5181
Si 0.929064 9.11814 9.60561
Si 0.939427 17.3409 8.52457
O 6.738 15.0745 14.8141
O 2.55137 9.28589 9.60865
O 3.34728 10.916 7.34087
O 1.51104 15.7075 8.00325
O 3.62994 8.24667 6.16076
O 1.94361 15.1882 4.64173
O 0.0357119 13.8798 8.89985
O 2.23165 -0.0584299 9.01968
O 15.3652 13.2681 11.9717
O 2.31205 14.1928 10.2197
O 15.5442 17.9904 7.66426
O 3.85154 10.7441 12.8141
Si 3.60434 14.6637 4.99366
Si 6.36944 10.9579 4.71394
Si 6.43501 15.6505 9.09699
Si 9.87101 12.4491 7.28157
Si 3.98401 11.9714 5.94444
Si 7.48604 16.1961 6.27515
O 5.32202 14.446 9.4035
O 7.41532 8.70198 12.6695
O 10.0299 9.22035 5.30962
O 10.1005 2.08374 5.41895
O 5.60025 11.7852 5.84906
O 7.87281 15.4024 4.97206
O 3.25848 13.3656 5.99535
O 6.71738 17.5225 5.80179
O 6.31862 15.8245 7.38783
O 9.7996 13.4596 8.47109
O 5.82866 16.9136 9.90879
O 9.19771 13.3703 5.93093
Si 9.41038 14.7129 5.03014
Si 1.94862 8.12401 6.38714
Si 10.2984 16.7189 6.92505
Si 14.3748 10.9654 10.4209
Si 11.0419 10.5449 5.44152
Si 12.4203 16.0804 8.74364
O 8.71928 16.7185 7.23482
O 13.2291 9.52461 10.1468
O 1.33792 9.0602 5.25945
O 13.3832 14.1633 10.5754
O 12.6489 10.1482 5.64657
O 1.98707 -0.0124497 4.87345
O 10.5146 15.8327 5.69811
O 13.6196 18.0429 5.233
O 10.9544 16.0013 8.2163
O 0.184666 10.3693 10.3209
O 11.1763 1.26128 15.3722
O 13.5479 11.7249 11.5815
Si 14.1005 4.02558 10.139
Si 6.51122 0.406177 15.5254
Si 2.72376 6.27879 16.4326
Si 3.68146 1.92318 1.54364
Si 3.93782 2.10652 16.1825
Si 4.82292 4.75694 15.6669
O 1.17552 5.78635 15.902
O 5.45408 17.6273 14.8834
O 3.14074 1.1995 -0.133255
O 5.56278 5.90022 16.3644
O 1.55048 3.16861 12.6865
O 4.05336 2.79968 12.0275
O 15.661 17.0897 14.3212
O 4.66651 9.19611 8.33856
O 3.46089 5.48234 15.1116
O 5.88476 15.964 12.6761
O 2.1587 7.92234 16.4106
O 3.2179 3.36782 2.0444
Si 4.76122 3.991 11.1633
Si 5.14893 16.8333 11.3699
Si 6.85767 6.72412 15.8855
Si 12.9209 1.33949 15.0815
Si 7.16431 3.10548 14.4536
Si 7.95331 7.22905 13.191
O 8.00912 6.26626 16.8984
O 9.69713 0.458465 0.255965
O 7.25267 1.522 14.8565
O 9.34532 7.16413 14.091
O 7.95956 3.16648 12.9755
O 8.15571 6.07515 11.7409
O 5.47493 1.31296 16.5802
O 6.13995 8.02197 10.3468
O 6.93615 6.52876 14.3735
O 13.1066 2.31331 13.7
O 5.10405 4.34533 4.12731
O 7.71842 3.85971 15.952
Si 8.49759 4.56234 12.0566
Si 12.1328 17.4941 11.9031
Si 10.3864 5.84746 14.3179
Si 14.1345 16.805 13.8509
Si 13.5334 2.0174 12.0977
Si 11.5459 6.13091 9.9524
O 10.0137 5.1546 15.7111
O -0.160336 1.12057 16.0725
O 0.596276 16.9407 17.1081
O 3.85629 3.67409 16.347
O 13.6153 15.6473 14.8212
O 13.0265 5.43499 9.95926
O 10.0152 4.75779 13.1314
O 11.294 7.63408 10.6095
O 13.6833 3.65175 11.5745
O 13.4388 18.1206 14.7175
O 11.8853 6.5069 14.3484
O 13.6039 16.7413 12.2802
Si 0.817325 13.1195 13.547
Si 3.41135 10.1956 8.65195
Si 2.36914 15.5474 14.6859
Si 4.59911 11.451 11.3851
Si 2.47094 11.2654 13.5713
Si 2.90774 2.22139 13.2305
O 1.54467 14.6556 16.1615
O 1.77871 9.93217 14.8578
O 5.91013 10.4882 11.2771
O 2.21468 0.681838 12.6923
O 1.13953 11.6195 12.4314
O 5.82255 4.21174 14.4415
O 2.11048 12.6499 14.6298
O 4.03111 15.6918 11.261
O 1.82215 14.7941 13.3962
O 9.86235 14.0362 11.2387
O 3.00112 1.91489 14.6895
O 4.88266 12.9696 11.4063
Si 1.11299 15.0133 9.47575
Si 6.73425 9.21468 11.2071
Si 7.26488 15.3115 13.1604
Si 9.29648 11.5329 14.8798
Si 8.9626 13.6408 9.82124
Si 10.0559 16.4664 14.1311
O 3.54357 14.2858 0.921258
O 10.8502 15.0869 14.6175
O 7.32029 13.8821 12.3509
O 9.33695 12.4513 16.1525
O 8.68373 12.0873 10.6224
O 7.78083 14.8908 9.89946
O 4.03999 11.2664 9.8723
O 12.1429 1.00368 11.8389
O 8.64983 16.3071 13.511
O 10.5412 10.6999 14.9114
O 8.92663 16.6906 1.39969
O 7.93701 10.8104 15.2234
Si 12.3791 14.5321 14.379
Si 11.6696 9.2233 10.702
Si 11.0047 0.0834629 16.4977
Si 14.7529 10.5385 0.032946
Si 11.7534 10.0218 13.9037
Si 13.6747 12.2249 15.0275
O 9.99419 17.2127 15.5877
O 13.2728 9.92467 0.505401
O 12.5632 8.72784 14.6753
O 2.00837 17.1425 14.8882
O 11.2663 9.61624 12.2671
O 15.1651 13.0722 14.5841
O 12.9491 11.2453 14.072
O 12.5052 13.6149 13.04
O 12.7602 13.4405 15.5859
O 15.6899 9.45463 16.7158
O 12.4259 17.6675 0.152106
O 13.9726 11.6036 16.3418
324
 Atoms. Timestep: 27000
Si 0.218858 4.80382 17.2151
Si 5.37389 15.9009 15.0604
Si 4.30183 8.57463 4.80393
Si 3.69899 1.75932 6.06985
Si 1.84007 1.20335 4.0296
Si 4.12175 5.70395 3.7681
O 4.19516 5.08135 5.32583
O 4.06807 1.44091 9.59463
O 2.50455 2.2552 5.16676
O 6.47193 8.46845 16.3444
O 2.53385 1.18963 2.6405
O 2.45497 5.70223 3.27076
O 1.28964 4.16723 1.06237
O 3.13938 5.99157 0.786325
O 4.50774 7.09199 4.23548
O 4.67512 0.426007 5.81459
O 3.04905 9.41614 4.17849
O 5.13778 2.69625 6.08846
Si 2.56789 4.84502 1.84794
Si 8.52928 0.0638719 0.759754
Si 8.38832 5.65732 5.10017
Si 10.3434 3.2774 4.36491
Si 6.20663 1.17661 2.72985
Si 9.16035 4.75252 2.33166
O 7.03287 4.70412 5.35427
O 6.92275 1.74826 3.9686
O 9.22724 3.32418 3.11868
O 12.7214 4.65359 1.17897
O 7.46115 0.345898 16.9019
O 8.47423 5.31673 0.990116
O 5.13786 1.64824 1.61774
O 8.61448 9.05533 0.590672
O 8.44772 5.89898 3.38608
O 11.7907 3.34011 3.72929
O 6.1813 11.4229 2.94839
O 10.7146 5.47643 2.44383
Si 8.75499 5.20771 16.838
Si 0.636288 17.8593 15.146
Si 13.6258 5.12866 5.34947
Si 15.3921 1.20503 2.4886
Si 15.2491 2.06748 16.8352
Si 13.5936 5.93631 0.673303
O 12.9191 5.50554 4.00673
O 14.0489 0.941292 3.21517
O 15.0904 1.93103 1.17717
O 12.8933 7.30789 1.59592
O 13.667 1.83985 16.1653
O 15.5523 3.52507 16.3164
O 15.0605 5.24955 1.11492
O 13.7773 6.5698 16.6094
O 15.3413 4.92412 5.29941
O 0.402595 1.94166 3.6819
O 0.655751 7.25129 5.7743
O 13.0052 3.62857 6.1274
Si 1.79574 16.186 17.2235
Si 2.01349 9.6108 16.7627
Si 1.47723 16.4205 4.50687
Si 3.43996 13.2237 2.1641
Si 1.50268 11.1683 1.79586
Si 4.33258 15.8214 0.709212
O 13.4838 14.8488 8.55961
O 2.64268 11.8071 5.04842
O 1.26097 10.451 3.16345
O 2.8249 17.0257 3.47131
O 2.6379 10.5892 0.7522
O 3.80969 15.8898 14.4601
O 1.9385 12.6472 2.09318
O 5.07867 15.7003 16.6295
O 3.14717 16.9627 0.0617463
O 4.3892 12.2097 1.50603
O 2.60157 1.55163 7.39945
O 4.01766 13.6161 3.57181
Si 8.75664 13.3211 12.1685
Si 7.64944 9.74731 16.7568
Si 4.49372 16.7726 3.36669
Si 9.52508 10.3682 4.52634
Si 5.96628 11.7444 1.27489
Si 9.68906 15.3746 1.58406
O 4.68569 15.8457 4.85215
O 7.82606 10.3278 4.99672
O 7.08342 12.9335 0.689985
O 9.32634 14.8183 3.16348
O 6.60843 10.373 0.448481
O 9.26024 14.3101 0.454371
O 9.49029 12.1836 13.1936
O 7.66043 0.806267 1.92195
O 5.29505 16.317 1.93941
O 9.18092 9.88265 2.99259
O 5.1107 0.0130295 3.29049
O 10.9092 11.1612 4.31493
Si 8.733 12.7561 0.113164
Si 12.9605 7.73484 15.6266
Si 12.1805 17.0182 1.76539
Si 12.5161 8.74975 1.03067
Si 9.65546 9.95539 1.52036
Si 15.5766 16.4639 2.04582
O 11.1029 11.652 6.97273
O 0.890936 8.29263 7.92962
O 10.9173 8.95821 1.47859
O 0.0239687 16.1131 3.69051
O 12.1521 8.71031 16.7503
O 0.983109 15.4354 1.23563
O 9.19529 11.4904 0.999652
O 0.529767 -0.11862 1.89848
O 11.2723 15.5728 1.70033
O 15.68 11.035 1.31125
O 11.9817 17.5219 3.31634
O 13.9153 16.6073 1.67649
Si 13.3083 2.43028 7.19174
Si 2.4604 1.50052 9.02649
Si 0.915312 5.91101 9.35919
Si 5.46571 1.14257 10.0758
Si 14.338 18.0173 7.18514
Si 3.87393 5.55532 10.0597
O 15.6511 4.76436 10.3988
O 5.51171 -0.0310455 11.2033
O 1.25576 2.01075 9.83735
O 6.68764 7.94741 7.75494
O 0.444146 16.2799 9.70072
O 4.85752 6.68094 9.37063
O 14.4736 1.34497 6.77681
O 2.49306 5.453 9.39766
O 4.1445 3.94017 9.90021
O 6.67872 1.00513 8.90515
O 0.406485 7.41584 10.0831
O 5.69319 2.14791 11.4214
Si 5.52087 4.19891 5.14367
Si 6.45507 0.813009 5.54392
Si 5.74586 7.9947 9.08518
Si 8.92773 4.72823 9.64711
Si 7.75393 1.83336 7.99246
Si 8.16998 7.20865 7.92067
O 4.66178 5.35758 11.6356
O 11.5288 16.9443 12.863
O 8.11206 3.37885 8.94268
O 9.17423 8.41279 8.2441
O 7.52189 1.64608 6.45351
O 8.14542 6.06731 9.18192
O 9.73258 4.36313 5.43452
O 8.33293 6.90573 6.17339
O 5.83239 9.10372 4.42985
O 10.4043 5.0161 9.10203
O 7.70075 10.3967 9.85869
O 9.34481 4.15111 11.1478
Si 12.2116 4.60797 2.76299
Si 13.312 -0.102965 4.19058
Si 9.09145 9.89623 9.12625
Si 1.18437 1.70811 11.7037
Si 10.283 1.13208 6.44077
Si 15.6031 6.08684 6.36148
O 10.1219 9.45046 10.2416
O 12.1719 16.8415 10.3035
O 11.67 1.92182 7.11535
O 0.630144 5.62924 7.8143
O 10.494 17.8753 5.95502
O 13.9301 3.20426 8.61151
O 9.44378 1.44054 7.86
O 13.9178 11.9285 8.61572
O 13.924 6.40694 6.33741
O 13.6154 17.4482 8.40212
O 8.90461 11.0527 8.10744
O 15.4064 1.08267 11.796
Si 13.8168 13.4507 9.09976
Si 1.83099 10.4321 4.63993
Si 14.3879 12.8546 11.8727
Si 3.76015 14.2087 10.7906
Si 0.896028 8.80438 9.43591
Si 1.16544 17.1191 8.39946
O 6.38768 14.914 14.4644
O 2.1931 9.53328 9.74592
O 3.45121 11.5437 7.60842
O 1.60999 15.7138 7.92954
O 3.36735 8.48282 6.31099
O 2.09633 15.0784 5.03018
O -0.131927 13.5458 9.09067
O 2.16794 -0.115578 9.14632
O 0.038468 13.4104 12.1162
O 2.12099 14.1659 10.2065
O 0.0213449 17.5515 7.39604
O 3.57013 10.9674 13.3127
Si 3.74462 14.6297 4.96339
Si 6.35098 10.6519 4.51176
Si 5.89702 15.314 8.82759
Si 9.74688 12.3686 7.31907
Si 3.87842 12.143 6.04257
Si 7.16127 16.1358 6.45639
O 4.94813 14.1289 9.48098
O 7.83802 9.14886 12.358
O 10.0728 9.60733 5.82346
O 10.3403 1.81243 4.88661
O 5.31345 11.3555 5.65874
O 7.81537 15.2113 5.30246
O 3.60194 13.7896 6.24709
O 6.54051 17.466 5.7278
O 5.78752 15.3669 7.08935
O 9.51024 13.2045 8.72932
O 5.67427 16.8213 9.5487
O 9.08283 12.6373 5.86922
Si 9.31754 14.3468 4.96388
Si 1.769 8.31343 6.44613
Si 9.97955 16.4955 6.94788
Si 14.1787 10.7784 9.89741
Si 11.4743 10.3212 5.66572
Si 12.5637 16.2906 8.85749
O 8.3786 16.5646 7.39717
O 12.577 10.1377 9.95358
O 0.824997 9.71135 5.86627
O 13.3342 13.4388 10.6998
O 13.1359 10.05 5.67815
O 1.34357 -0.0389085 4.99321
O 10.1737 15.2527 6.00396
O 13.6502 17.6576 5.56053
O 11.1917 16.7607 8.08712
O 15.6701 9.98854 9.77632
O 11.3686 1.53947 15.372
O 14.7142 11.466 11.2035
Si 14.2802 4.0125 9.92298
Si 6.50255 0.518742 15.6247
Si 2.45142 6.36045 16.6032
Si 3.49687 2.06812 1.56792
Si 3.82026 2.07923 16.3024
Si 4.70228 4.90853 15.6476
O 0.85238 6.02257 16.4322
O 5.9946 17.4096 14.8325
O 2.83585 1.69405 0.188383
O 5.53111 6.09485 16.3241
O 1.10509 2.58173 13.1246
O 3.64675 3.19409 12.7207
O 15.0925 17.2419 14.4771
O 4.69807 9.3583 8.69083
O 3.38987 6.00781 15.2841
O 6.66205 15.7924 12.0242
O 2.38551 8.13511 16.8832
O 3.29092 3.38133 2.13717
Si 4.63266 3.52703 11.4452
Si 5.37984 16.5316 11.2028
Si 6.70385 7.22335 15.5277
Si 12.8308 1.25903 14.8302
Si 7.02667 3.45714 14.8626
Si 8.04941 7.70745 13.1272
O 8.14659 6.64243 16.0617
O 9.85097 0.546894 -0.0233094
O 6.83983 1.78021 14.7268
O 9.52423 7.59102 13.9439
O 7.72882 3.89988 13.3594
O 8.11221 6.32424 11.9259
O 5.18425 1.22903 16.5391
O 6.65382 8.19618 10.4629
O 6.68051 7.36706 13.9464
O 13.0368 2.25334 13.4818
O 5.16549 4.29026 3.48882
O 7.78976 4.07845 16.1364
Si 8.80178 4.91393 12.4256
Si 12.6722 17.1922 11.7481
Si 10.5473 6.13736 14.598
Si 13.5388 16.7069 14.2478
Si 13.9154 1.86834 12.1958
Si 11.5856 6.07418 9.76269
O 10.1863 5.33372 16.1006
O 0.421943 1.13868 15.7633
O 0.58981 17.2019 16.8757
O 3.87287 3.6626 16.3433
O 12.8678 15.6539 15.1372
O 13.0837 5.40289 9.8987
O 10.0631 5.02125 13.4711
O 11.7502 7.44928 10.9697
O 13.9427 3.08339 11.2224
O 12.7689 17.9545 15.1652
O 12.0636 6.4442 14.9335
O 13.6046 16.1462 12.5872
Si 0.65542 13.2835 13.8213
Si 3.45756 10.4828 9.06875
Si 2.19073 15.6753 14.491
Si 4.25552 11.545 11.8113
Si 2.23065 11.4116 14.1782
Si 2.70349 2.05972 13.3791
O 2.21939 15.1116 16.1338
O 2.26285 10.1693 15.3576
O 5.69906 10.8263 11.8156
O 2.64032 0.906177 12.3371
O 0.723754 11.6641 13.5533
O 5.46297 3.92072 14.677
O 2.31036 13.1026 14.5572
O 4.24132 15.5701 11.6704
O 1.12904 14.9665 13.3003
O 9.43528 14.4725 10.9819
O 3.56256 1.72441 14.693
O 4.29677 13.2882 11.9493
Si 0.900258 14.7984 9.30919
Si 6.79055 9.77746 11.2312
Si 7.37574 15.5341 13.4861
Si 9.56711 11.6695 14.6307
Si 8.61365 13.7007 9.85501
Si 10.2031 16.3721 13.9891
O 3.52133 14.4614 1.12252
O 10.8963 14.7966 13.7792
O 8.28694 14.2418 13.5073
O 9.57183 12.6046 16.0537
O 7.99261 12.628 10.9185
O 7.41571 14.5266 9.06057
O 3.8487 11.579 10.2909
O 12.7091 0.561095 11.7393
O 8.64477 16.6065 13.7992
O 11.0495 10.8217 14.5783
O 8.97896 16.9264 1.5483
O 8.23189 10.4036 15.3986
Si 12.505 14.1655 14.4178
Si 11.6267 9.16681 10.7725
Si 11.0351 0.0886198 16.357
Si 14.9578 10.2523 0.0850201
Si 12.4509 10.1174 13.7836
Si 14.1497 12.1943 15.2421
O 10.5245 17.1227 15.3711
O 13.7963 9.5717 0.866412
O 13.307 8.57127 14.376
O 1.85544 17.1597 14.3355
O 12.1237 9.86202 12.2064
O 15.2233 13.3858 14.9911
O 13.7886 11.1487 13.9752
O 13.2543 13.4412 13.1756
O 12.8294 13.0707 15.533
O 0.40765 9.41376 16.9405
O 11.8634 17.5639 0.174867
O 14.1847 11.2345 16.591
324
 Atoms. Timestep: 27500
Si 0.428715 5.30194 0.461452
Si 5.19719 16.3206 14.9072
Si 4.29126 8.89281 4.02417
Si 3.79717 1.84298 6.32436
Si 2.0082 1.21007 4.06362
Si 4.00908 6.0593 4.09449
O 3.8173 5.72193 5.93457
O 4.41125 1.22492 9.88079
O 2.23112 2.07563 5.49554
O 6.40055 8.81334 16.1641
O 2.90735 0.998818 2.77343
O 2.89803 5.03493 3.31528
O 1.47206 4.5222 1.48371
O 3.54424 6.11028 0.794614
O 4.46465 7.46919 3.24643
O 4.6154 0.544288 6.34442
O 3.47416 10.2848 3.73405
O 4.7791 2.99666 5.78156
Si 2.92699 4.86767 1.82076
Si 8.13026 17.5298 1.02665
Si 8.14764 5.6598 5.45735
Si 9.47676 3.23743 4.42392
Si 6.30182 0.771256 3.1446
Si 8.72188 5.2651 2.73538
O 6.66985 4.96192 5.66354
O 6.99203 1.56452 4.48433
O 8.5831 3.77004 3.14834
O 11.9581 4.77386 1.31959
O 7.34779 0.111766 17.0165
O 8.46479 5.5016 1.13742
O 5.5922 1.36141 1.80537
O 8.51987 9.0322 0.80526
O 8.14297 6.28189 3.90176
O 10.9051 3.06293 3.34005
O 6.48355 11.0921 3.16433
O 10.269 5.67162 2.81192
Si 8.63511 5.55684 16.8212
Si 0.663187 0.165265 15.2336
Si 13.9972 4.69381 4.72616
Si 15.2826 1.22219 2.26149
Si 15.298 2.56979 16.6635
Si 13.0775 5.72153 0.749766
O 12.9702 5.12139 3.56123
O 14.0276 1.71307 3.08561
O 15.0256 1.92954 0.902015
O 13.1142 7.18743 1.5462
O 13.9745 2.25102 15.6537
O 15.6602 4.10471 16.6061
O 14.8051 5.51868 1.08636
O 13.0322 5.99787 16.4247
O -0.0524979 4.26042 4.8169
O 0.57192 1.8101 3.44775
O 0.736821 7.14322 5.09975
O 13.4101 3.329 5.60476
Si 1.14749 16.2994 -0.0794057
Si 1.89139 9.71109 17.0183
Si 1.83809 16.3755 4.28641
Si 3.68779 13.2409 1.87495
Si 1.08436 11.4705 1.9319
Si 3.90929 16.1202 0.493798
O 13.8748 14.8414 8.40063
O 2.6312 11.887 5.60296
O 0.825935 11.729 3.64128
O 2.93794 16.3805 3.21655
O 1.45275 9.79542 1.2296
O 3.72215 15.5139 14.289
O 2.59884 11.9563 1.35575
O 5.05185 16.4812 16.6195
O 2.655 17.1573 0.511295
O 5.2235 12.7178 1.75957
O 3.61005 2.196 7.87556
O 3.42293 13.7352 3.52682
Si 8.89487 12.5998 12.3877
Si 7.54386 9.70554 17.0477
Si 4.59555 16.8252 3.25672
Si 9.29868 10.3559 4.69512
Si 6.49036 11.7847 1.76141
Si 9.49885 14.9293 2.1553
O 5.0112 15.6728 4.38215
O 7.81941 10.5998 5.32128
O 7.80938 12.5779 1.13437
O 9.01089 13.8468 3.25665
O 6.5903 10.6036 0.551296
O 10.0837 14.0064 0.670924
O 9.40911 11.4999 13.3612
O 7.42416 17.9709 2.44841
O 4.98647 16.4269 1.85737
O 9.11154 9.60033 3.27787
O 5.36072 -0.101731 4.11773
O 10.6188 11.5333 4.52753
Si 9.30487 12.7336 0.373941
Si 12.6021 7.36105 15.6432
Si 12.2691 16.7559 1.87296
Si 12.5605 8.52901 0.805362
Si 9.82696 9.66098 1.75856
Si 15.1223 16.0966 2.23473
O 10.9717 11.8891 7.04702
O 1.55435 8.37744 7.37121
O 11.3692 8.95309 1.90142
O 0.390374 16.0388 3.50861
O 11.8004 8.32454 16.6821
O 0.413572 15.4831 1.01343
O 10.2117 11.2353 1.18768
O 14.6687 17.7887 2.18972
O 11.0722 15.6174 2.37847
O 15.3899 11.7738 1.15353
O 12.2205 17.9071 2.98616
O 13.5811 15.7237 2.30457
Si 13.2146 2.36437 7.14081
Si 2.88868 1.19816 8.94774
Si 0.714583 5.80431 8.99301
Si 5.96994 1.2632 10.5481
Si 14.4429 17.5789 6.82661
Si 3.76675 5.44793 9.87602
O 15.289 4.7381 9.70731
O 6.4524 -0.0999107 11.0642
O 1.46844 1.69587 9.93919
O 6.65784 7.92487 8.5096
O 0.507716 15.9842 9.91013
O 4.35794 6.59719 8.81671
O 14.225 1.04164 7.2158
O 2.26486 5.27022 9.72175
O 4.19542 3.94109 9.62428
O 7.17267 1.82575 9.74725
O 0.114372 7.41999 9.38331
O 5.64477 2.64524 11.5486
Si 5.11828 4.84591 5.80223
Si 6.27534 1.23199 6.10176
Si 5.26177 7.79257 9.31446
Si 9.1307 4.57563 9.2777
Si 8.06119 2.07333 8.41089
Si 8.09251 7.26619 8.13181
O 4.59654 5.4125 11.1995
O 10.8451 17.174 12.6356
O 9.1031 3.33438 8.09861
O 9.29819 8.34975 8.63582
O 7.05622 2.01906 7.16923
O 8.21745 5.84766 8.94206
O 9.39609 4.4425 5.58027
O 8.26929 7.25624 6.39036
O 5.71876 9.26354 4.61638
O 10.5812 5.22615 9.3479
O 7.60572 9.78095 10.1479
O 8.70913 4.20759 10.8646
Si 11.576 4.55215 2.85532
Si 13.5781 0.330545 3.75563
Si 8.8652 9.82137 9.30883
Si 1.14842 1.70061 11.4262
Si 10.3161 1.07964 6.71615
Si 0.268123 5.7388 5.75221
O 10.345 10.2982 10.0144
O 12.0458 16.5721 10.1869
O 11.8628 1.7305 6.80704
O 0.853123 5.46483 7.22179
O 10.8089 17.917 6.35251
O 13.2794 3.26638 8.44013
O 9.17445 0.780045 8.03552
O 13.9377 12.039 8.36153
O 14.3809 5.92063 5.60085
O 13.1059 17.3563 7.75324
O 8.70292 11.1339 8.29403
O 15.4974 0.950384 11.5633
Si 14.5787 13.3452 9.05153
Si 2.10813 10.9555 4.49343
Si 13.8833 13.1066 11.7182
Si 4.01198 14.2537 10.8018
Si 0.696195 9.2107 8.48439
Si 1.24863 16.8376 8.38584
O 6.36791 15.4144 14.4731
O 1.76269 10.2736 9.06823
O 4.16121 11.516 7.94732
O 2.28029 15.3884 8.20588
O 3.3113 8.25874 5.33431
O 2.37025 15.5337 5.50995
O 0.418161 13.2992 8.96463
O 2.24457 -0.0905252 8.11682
O 15.2449 12.8527 12.5348
O 2.44127 14.1414 10.3885
O -0.0942324 16.8071 7.55538
O 3.56037 11.0977 13.5161
Si 3.78776 14.7304 5.04075
Si 6.39675 10.6961 4.73915
Si 6.2858 14.7784 8.58787
Si 9.60249 12.5421 7.48286
Si 4.17864 12.159 6.4336
Si 7.13782 16.2983 6.34938
O 4.6292 14.398 9.1579
O 7.6019 9.08064 12.6101
O 10.1886 9.41133 5.99343
O 9.59542 1.66346 5.20778
O 5.39932 11.929 5.3674
O 7.55967 15.4159 4.82208
O 3.85616 13.731 6.31333
O 7.02764 17.8847 6.06771
O 6.06939 15.4336 7.10328
O 9.92768 13.3257 8.99041
O 7.11404 16.2762 9.43714
O 8.79785 13.4024 6.09211
Si 9.05924 14.5048 4.8525
Si 1.75884 8.25254 5.64264
Si 10.0864 16.3658 6.6554
Si 13.9268 10.8174 9.62994
Si 11.3133 10.6632 5.82839
Si 12.6373 15.8243 8.49398
O 8.47453 16.1116 7.20056
O 12.8063 9.6368 9.72355
O 1.26054 9.74467 5.21555
O 14.387 14.0637 10.5251
O 13.0838 10.3674 5.76094
O 1.77141 17.9635 4.74232
O 10.4687 15.2425 5.39136
O 13.8705 17.6091 5.02627
O 11.015 15.7452 7.94555
O 15.0325 9.84857 8.74902
O 11.5985 1.38734 16.0683
O 13.8139 11.6782 10.8804
Si 13.8012 4.10514 9.91971
Si 6.46676 0.669907 15.7128
Si 2.6753 6.56054 16.6507
Si 4.05558 1.78067 1.58268
Si 3.77965 2.40511 16.1457
Si 4.88079 4.94353 15.4362
O 1.00995 6.4949 16.8215
O 5.69763 17.884 14.443
O 3.05145 1.88572 0.200292
O 5.1423 6.44079 16.2631
O 1.38698 3.15188 12.1286
O 3.87337 3.51109 12.5903
O 15.3443 17.8607 14.198
O 4.19171 9.06049 8.87291
O 3.4496 5.72166 15.2925
O 7.48559 15.7301 11.8525
O 2.69915 8.36536 16.6441
O 4.02971 3.55107 1.80144
Si 4.61615 3.85184 11.3038
Si 6.29865 16.3982 10.9771
Si 6.46448 7.25213 15.6963
Si 12.9021 1.14925 15.0449
Si 7.21457 3.45768 14.5938
Si 8.04592 7.62079 13.3103
O 7.68995 6.84211 16.6198
O 9.71933 18.0083 0.888909
O 7.0796 1.91567 14.5921
O 9.15239 7.18659 14.3201
O 7.94313 3.88341 13.2149
O 8.20129 6.57292 12.1107
O 5.15479 1.38113 16.6068
O 5.58957 8.34109 10.7982
O 6.63821 7.21619 14.1428
O 13.0734 1.51696 13.3779
O 5.26403 5.15366 4.06465
O 7.69132 4.09197 16.0379
Si 8.71521 4.98349 12.3548
Si 12.1883 17.366 11.5287
Si 10.2541 6.21148 14.4615
Si 14.0996 16.9373 13.8709
Si 13.7916 1.61177 11.8393
Si 11.9054 6.26625 10.0596
O 9.99942 5.52702 16.0453
O 0.616645 1.72236 15.7332
O 0.353624 17.533 16.74
O 4.71814 3.67963 16.7291
O 13.9685 15.4676 14.6207
O 13.2336 5.43181 10.5454
O 10.1543 5.31087 12.9381
O 11.0704 7.48324 10.783
O 13.7805 2.76767 10.7879
O 12.9689 17.7807 14.8377
O 11.8648 6.54054 14.4409
O 13.6703 16.8739 12.2177
Si 0.46247 13.5645 13.6934
Si 3.43465 10.4728 9.14384
Si 2.11106 15.9003 14.699
Si 4.45572 11.5305 11.9971
Si 1.98182 11.0979 14.3508
Si 2.63408 2.46904 13.1174
O 1.3016 15.2133 16.1072
O 2.42505 10.8334 15.8939
O 5.99234 10.9553 11.9769
O 2.25563 0.866623 12.5886
O 0.711603 10.0891 13.8386
O 5.84596 4.32602 14.3743
O 1.81415 12.8457 14.0468
O 4.91199 15.6701 11.4143
O 0.902333 15.2204 13.7526
O 9.8585 13.6086 11.4654
O 3.02358 2.45193 14.8063
O 4.36263 13.1888 11.9066
Si 1.2219 14.5743 9.47137
Si 6.6266 9.59998 11.4777
Si 7.68607 15.5216 13.4227
Si 9.6684 10.9601 14.9834
Si 8.71093 13.2188 9.95772
Si 10.4891 16.6884 14.121
O 3.50617 14.6218 0.835047
O 11.3714 15.4069 14.3325
O 7.91925 13.8464 13.2568
O 9.7891 12.3447 15.9919
O 8.07231 12.0021 10.9171
O 7.3614 13.6278 8.99086
O 3.90866 11.0033 10.6277
O 12.5104 0.751921 11.4112
O 8.90498 16.367 14.1008
O 11.0681 10.1074 14.8972
O 8.24053 15.9111 1.76882
O 8.44586 9.92746 15.4126
Si 12.7283 14.5548 14.2
Si 11.5249 9.44606 10.7601
Si 10.8507 -0.0613458 16.8566
Si 14.9679 10.4428 -0.121082
Si 12.3134 9.58849 14.0239
Si 13.7904 12.0019 14.9911
O 10.3302 17.4442 15.5278
O 13.8863 9.36765 0.764765
O 13.2523 8.63886 14.8528
O 1.88267 17.4402 15.0476
O 11.8315 9.28822 12.2912
O 15.2775 13.0087 14.9007
O 13.4506 10.8668 13.7942
O 12.7421 13.8168 12.601
O 12.8192 13.3114 15.1106
O 0.149013 9.76059 16.2571
O 12.0882 17.3783 0.354096
O 13.9006 11.2771 16.3363
324
 Atoms. Timestep: 28000
Si 0.122889 4.77865 0.266589
Si 5.12361 16.0994 14.8808
Si 4.50887 8.79783 4.20164
Si 3.67998 2.69849 6.66112
Si 2.16684 1.49049 4.05919
Si 4.31159 6.33982 3.49408
O 4.61139 6.72221 5.40034
O 4.61374 1.33585 9.68508
O 2.41994 2.39675 5.43142
O 6.42099 8.64295 16.433
O 3.44818 0.989448 3.26788
O 2.67944 5.82389 3.64976
O 1.35258 4.18489 1.30974
O 2.64734 6.19006 0.962131
O 4.92049 7.58154 2.82943
O 4.82218 1.55493 6.27528
O 3.86832 10.3062 3.57738
O 4.08934 4.16608 6.30068
Si 2.43132 5.07075 2.17493
Si 8.21267 17.5615 0.403106
Si 8.3038 5.70343 5.55468
Si 9.55156 3.28815 4.73301
Si 6.69143 0.898771 2.96458
Si 8.86444 5.1814 2.89696
O 6.82706 5.20048 5.87523
O 7.03919 1.28006 4.44557
O 8.44873 3.56467 3.40594
O 11.9012 4.4836 1.23396
O 7.14927 17.5553 16.5001
O 8.59081 5.44552 1.29254
O 5.6284 2.06163 2.31339
O 8.59132 9.4916 0.78236
O 8.13819 6.16238 3.86563
O 10.9825 3.3114 3.98887
O 6.86488 12.0822 3.62768
O 10.5735 5.62104 3.05116
Si 8.49917 5.02162 16.9342
Si 0.629448 17.8885 14.8526
Si 14.1049 4.46287 4.98561
Si 15.3936 1.67024 2.37427
Si 15.3386 2.2965 16.2676
Si 13.1882 5.59349 0.871898
O 13.0678 4.74142 3.69812
O 13.9398 2.17888 3.01893
O 15.466 1.768 0.836657
O 13.2255 7.17174 1.6126
O 13.7545 2.49469 15.8055
O 0.352743 3.78327 16.2061
O 14.4871 4.68496 0.967101
O 13.4493 6.23348 16.5291
O 0.166262 4.41966 4.84239
O 0.878423 2.22468 3.44795
O 0.647405 7.1389 5.21964
O 13.9317 3.2387 5.99944
Si 1.00231 16.1047 -0.164314
Si 1.72102 9.69985 16.4644
Si 1.79098 16.4383 4.14322
Si 4.00834 13.3768 1.44907
Si 1.53383 11.5043 1.31471
Si 3.95747 16.1551 0.351021
O 13.9054 14.7376 8.23601
O 2.57282 11.1672 5.37797
O 1.19735 11.3779 2.94592
O 3.04809 16.2612 3.07272
O 2.34549 10.106 0.776093
O 3.96055 15.3747 14.0921
O 2.65807 12.4942 0.746459
O 4.54267 16.6887 16.1893
O 2.45733 16.7815 0.444951
O 5.39962 12.7304 1.29759
O 2.92032 2.52392 8.00933
O 3.69859 13.1007 3.15365
Si 8.81718 12.5573 12.6579
Si 7.5068 9.73642 16.8398
Si 4.6434 16.4443 3.28333
Si 9.23016 9.9356 4.72883
Si 6.78588 12.0992 1.64974
Si 9.35941 15.1917 2.10231
O 4.77712 15.2469 4.30888
O 8.01964 10.3717 5.7209
O 8.09486 12.9343 0.962924
O 8.72811 14.3292 3.38188
O 6.4462 10.7075 0.502666
O 10.4476 14.2281 1.30493
O 9.91575 11.9714 13.6638
O 7.51536 0.491766 1.69911
O 4.8423 16.5066 1.509
O 8.79288 9.19076 3.22466
O 5.66973 17.8336 3.36197
O 10.2919 11.3127 4.35301
Si 9.67634 12.5982 0.81988
Si 12.5511 7.40777 15.8089
Si 11.9131 16.6447 2.12983
Si 12.3371 8.47761 1.31413
Si 9.6257 9.67088 1.98217
Si 14.9522 16.1661 2.35254
O 11.1507 11.9412 7.0031
O -0.0624504 9.24911 6.75745
O 11.0497 8.7864 2.19391
O 0.319375 16.1368 3.60999
O 11.7191 8.28431 17.1085
O 0.248957 15.3387 1.13551
O 9.94597 11.3123 1.72897
O 14.8672 17.9801 2.28059
O 10.6331 16.1564 2.87527
O 0.0494625 11.4205 0.887809
O 12.173 17.7714 3.5975
O 13.3794 15.6197 2.23186
Si 13.063 2.64729 7.37861
Si 3.11263 1.50844 9.26525
Si 0.791968 5.95787 8.8331
Si 5.93749 1.39138 10.6645
Si 14.4587 0.149042 7.0428
Si 3.7397 5.63416 9.89214
O 15.4498 4.87086 9.89093
O 6.08902 0.161249 11.6612
O 1.76996 1.82488 10.4382
O 6.30569 7.82187 7.5798
O 0.862556 16.6536 9.25138
O 4.45024 6.38554 8.48825
O 13.9112 1.29343 8.10731
O 2.17972 5.75501 9.49472
O 3.53143 3.80762 10.0231
O 7.24701 1.35003 9.61438
O 0.146334 7.44909 8.70992
O 5.81204 2.98062 10.9664
Si 5.15243 5.21422 5.50509
Si 6.3553 0.904396 5.84016
Si 4.97753 7.89255 8.73877
Si 8.68731 4.83508 9.23015
Si 8.07323 1.63272 8.2915
Si 7.93129 7.5246 8.00993
O 4.38751 5.51905 11.4613
O 10.6018 17.0355 12.1672
O 8.20149 3.45878 8.58126
O 8.97459 8.55076 8.56606
O 7.04118 1.89225 6.93423
O 7.91464 6.09637 8.90595
O 9.50159 4.54611 5.76971
O 8.52078 7.25668 6.29645
O 6.09259 9.45341 4.30219
O 10.3512 5.6962 9.01475
O 7.24112 9.65006 9.88608
O 9.16489 4.59022 11.0166
Si 11.5594 4.53407 3.05279
Si 13.5052 0.592337 3.88156
Si 8.76721 9.93252 9.39383
Si 1.06858 1.85073 11.8444
Si 10.5119 1.19969 6.74109
Si 0.299119 5.63718 5.97205
O 10.0024 9.7479 10.3663
O 12.5202 16.6849 9.8073
O 11.8265 1.97097 6.60707
O 0.783231 4.96953 7.38401
O 10.9278 17.865 6.13869
O 12.9294 3.64281 8.58649
O 9.42016 0.891205 8.07597
O 14.7396 11.8891 8.70378
O 14.2943 5.93823 6.04147
O 13.7211 17.0242 7.45279
O 9.01225 11.0777 8.34618
O 15.226 1.47114 11.7827
Si 14.8807 13.6141 9.00521
Si 2.28979 10.4836 3.9869
Si 14.0426 12.996 11.7553
Si 4.25945 14.503 10.6785
Si 0.262181 9.07827 8.30255
Si 1.59662 17.3304 7.9681
O 6.36343 14.9332 14.9548
O 1.72845 9.50378 8.79006
O 3.20202 11.4138 7.7899
O 2.19011 15.8567 7.50738
O 3.35079 8.72358 5.61931
O 2.28374 15.0716 4.81315
O 0.875712 13.5796 8.81888
O 2.98404 0.144081 8.29299
O 15.3348 12.8176 12.7915
O 2.90348 14.6673 9.87749
O 0.496544 18.1312 7.10737
O 4.1773 11.1621 13.3187
Si 3.55323 14.0606 4.38155
Si 6.57545 10.8276 4.92955
Si 6.68558 14.8592 9.42147
Si 9.62893 12.4519 7.61293
Si 3.81934 11.8135 6.28432
Si 7.57459 16.1932 6.48386
O 5.12417 14.5401 9.30835
O 7.47666 8.24921 11.9881
O 10.6275 9.38427 5.18629
O 9.3882 1.70128 5.35032
O 5.58206 11.5784 6.29142
O 8.0536 15.4029 5.03589
O 3.96125 13.3961 5.84505
O 6.55608 17.4328 6.26494
O 7.01803 15.1976 7.80594
O 9.85433 13.3029 9.07848
O 6.70073 16.2728 10.131
O 9.32546 13.0883 6.12835
Si 9.10666 14.2158 5.01868
Si 1.2915 8.55108 5.59483
Si 10.5459 16.3915 6.49121
Si 13.9156 10.8158 9.66817
Si 11.3957 10.9086 5.62413
Si 13.0219 16.0733 8.4084
O 8.93874 16.7096 6.96249
O 12.3975 10.0072 9.46597
O 1.21845 9.34725 4.12793
O 14.5083 14.064 10.5966
O 12.9819 11.1062 5.43038
O 1.79343 -0.0420568 4.50472
O 10.6044 15.0891 5.30873
O 14.1249 0.213638 5.28646
O 11.6354 15.9889 7.57599
O 14.7577 9.39908 9.40842
O 11.7824 1.29053 16.3196
O 14.0318 11.5173 11.1907
Si 13.8891 4.54358 9.9786
Si 6.23818 0.469379 15.5742
Si 2.22432 6.67675 16.4995
Si 4.10725 2.26775 2.08711
Si 3.75887 2.26558 16.5904
Si 4.55262 5.00087 15.8149
O 0.777179 6.25453 16.9017
O 6.05786 17.4073 14.1916
O 3.02825 1.78377 0.661971
O 5.43387 6.13984 16.5178
O 1.1854 3.39386 13.0403
O 3.9401 2.9862 12.9948
O 0.00266798 17.4068 13.4974
O 4.56145 9.35854 8.80632
O 3.0145 5.62575 15.2321
O 7.4258 16.0832 12.5375
O 2.02312 8.30868 15.9207
O 3.36194 3.72371 2.56033
Si 4.45548 3.68001 11.4728
Si 6.24785 16.5075 11.6721
Si 6.5896 7.17022 16.0022
Si 12.8874 1.44433 15.1182
Si 6.97302 3.32795 15.0071
Si 7.60107 7.00696 13.1603
O 8.1098 6.57534 16.354
O 9.56564 0.302211 0.162399
O 7.14308 1.76391 15.2855
O 9.17306 7.41146 14.0321
O 7.82183 3.16255 13.4952
O 7.35852 5.50353 12.4325
O 4.82566 1.16226 15.8746
O 5.23221 7.77175 10.6372
O 6.29897 7.14083 14.3618
O 12.595 2.05947 13.3927
O 5.01578 5.01123 3.83969
O 7.3213 3.91156 16.5355
Si 8.49574 4.37036 12.5573
Si 12.1748 17.5382 11.1448
Si 9.94918 6.12199 14.5734
Si 14.1128 17.1049 13.504
Si 13.3114 1.98969 11.9411
Si 11.428 6.27179 10.0571
O 9.85935 4.98391 15.9322
O 0.212327 1.26465 15.3102
O 0.127927 17.2707 16.33
O 4.22678 3.70943 16.8019
O 13.9274 15.438 13.9642
O 12.9751 5.78994 10.0483
O 9.67717 4.90375 13.4467
O 11.1443 7.58297 10.8524
O 13.4098 3.23167 11.0057
O 13.4302 18.0475 14.7004
O 11.5453 6.58652 14.7195
O 13.4209 17.2801 12.0015
Si 0.812169 13.1009 13.9037
Si 3.08246 10.5209 9.04805
Si 2.36026 15.6442 14.5276
Si 4.74148 11.4607 11.7594
Si 2.61557 10.5123 13.8919
Si 2.36335 2.35987 13.8344
O 1.77065 15.0598 16.0299
O 2.84138 10.4363 15.5325
O 5.90253 10.472 11.4463
O 2.11423 1.04207 12.9482
O 2.3573 9.04148 13.4056
O 5.72045 4.2338 14.7344
O 1.97298 12.0317 13.6866
O 4.7536 15.6571 11.6459
O 1.1415 14.804 13.8013
O 9.4926 13.9307 11.7906
O 2.46711 2.31027 15.4548
O 4.95289 13.1527 11.4861
Si 1.70642 15.1436 8.91954
Si 6.36503 8.90831 10.9643
Si 7.65771 14.8036 13.6392
Si 9.75858 11.2727 15.2973
Si 9.05737 13.2699 10.4356
Si 10.2925 16.2691 13.6468
O 3.22727 14.4897 0.496002
O 11.1264 14.8854 13.9042
O 7.54775 13.3398 13.1073
O 9.88172 12.3091 16.4565
O 8.75627 11.5983 11.2856
O 7.59157 13.7014 10.321
O 3.52115 11.4998 10.4392
O 12.0865 1.10975 11.2429
O 8.87751 15.524 14.406
O 10.8851 10.1861 15.0661
O 8.42781 15.8928 0.970817
O 8.23852 10.5641 15.4203
Si 12.6867 14.4017 13.8386
Si 11.4367 9.2712 10.6903
Si 10.8798 17.8977 16.5434
Si 14.6186 10.3649 0.39679
Si 12.3249 9.85062 14.0091
Si 14.0466 12.0933 15.3724
O 10.3216 17.1615 15.1561
O 13.6782 9.52775 1.36416
O 12.9357 8.81988 14.9453
O 2.32702 17.3038 14.7766
O 12.0092 9.55206 12.2891
O 15.5139 12.5964 15.1992
O 13.1981 11.0937 14.3917
O 12.7709 13.5697 12.3361
O 13.0334 13.3743 15.1657
O 0.103747 9.29313 16.6823
O 11.7126 16.9984 0.510894
O 13.9318 11.5781 16.9188
324
 Atoms. Timestep: 28500
Si 0.433778 4.64194 0.15867
Si 5.32985 15.6946 14.9082
Si 4.2787 8.92645 4.02217
Si 3.42535 2.50668 6.66031
Si 2.10334 1.1968 4.30625
Si 4.19957 6.17455 4.02468
O 4.77755 6.25264 5.54197
O 4.69543 1.58456 9.72371
O 2.35259 1.9948 5.65068
O 6.67239 8.50059 16.9456
O 3.50573 1.29773 3.50852
O 2.74232 5.43861 3.80092
O 0.882964 4.70002 2.03014
O 2.94935 5.74695 0.59018
O 4.28785 7.4545 3.06226
O 4.57161 1.17492 6.57968
O 3.49066 10.1673 3.51242
O 4.38965 3.46909 5.73863
Si 2.51262 5.08812 2.13693
Si 8.07105 17.7531 0.862049
Si 8.51064 5.16812 5.53282
Si 10.2007 2.90569 4.38044
Si 6.59438 1.25191 3.20611
Si 9.09584 4.94134 2.65402
O 6.99375 4.4345 5.87442
O 6.84256 1.83382 4.69199
O 9.30689 3.03373 2.99966
O 12.0666 4.43509 1.73503
O 6.81196 17.8122 16.9977
O 8.77488 5.28362 1.12977
O 5.45895 2.1852 2.44578
O 9.56947 8.98811 0.887506
O 8.04228 5.34852 3.80648
O 11.6687 3.45357 3.99901
O 6.31028 11.2426 3.34961
O 10.5288 5.61145 2.87742
Si 8.40353 4.93035 16.7971
Si 1.16039 17.3456 14.3893
Si 14.0616 4.96575 5.41774
Si 15.5323 1.53237 2.09844
Si 0.0140219 1.50867 16.3133
Si 13.0883 5.38524 0.567173
O 13.3184 5.54276 3.93487
O 14.578 2.40255 3.19461
O 15.2334 0.722662 0.707721
O 13.1607 6.80416 1.46571
O 14.1579 2.08331 15.7693
O 0.54227 2.94631 16.8843
O 14.489 4.54243 0.220971
O 12.5564 6.03281 16.0977
O 0.0618343 4.36975 5.07917
O 1.40483 1.7801 2.89933
O 1.4692 6.92823 5.70483
O 13.2178 3.87311 5.99965
Si 1.14042 15.9985 16.8521
Si 1.73347 9.21913 16.1054
Si 1.74863 16.3033 4.13375
Si 3.74651 13.1621 1.84343
Si 1.56302 11.3812 1.1329
Si 3.79352 15.9952 0.568633
O 13.4673 14.9654 8.28411
O 2.40244 11.4498 5.41828
O 1.13284 11.4315 2.7909
O 2.66261 16.7963 2.97257
O 1.97243 9.89909 0.659978
O 4.28392 14.5992 14.3548
O 2.72734 12.2418 0.521679
O 4.83478 15.2976 16.5589
O 2.43069 17.0726 17.022
O 5.29781 12.5392 1.49148
O 2.6655 3.14288 8.0573
O 3.30971 13.0514 3.34786
Si 9.27827 13.0891 12.6092
Si 8.06262 9.5122 0.0575294
Si 4.43671 16.9461 3.27501
Si 9.1635 10.6953 4.76228
Si 6.67583 11.8813 2.04159
Si 9.5922 15.404 2.25143
O 4.91391 15.309 3.88073
O 7.8545 10.5148 5.38669
O 7.95631 12.5821 1.20372
O 8.94503 14.4193 3.56133
O 7.12409 10.3209 1.20845
O 10.2077 14.205 1.34825
O 10.1076 12.168 13.67
O 7.8158 0.816743 2.18229
O 4.62262 16.9946 1.56936
O 9.27345 9.52263 3.57944
O 5.60479 17.8883 3.84755
O 10.1642 11.896 4.58541
Si 9.56499 12.5414 0.915203
Si 12.3599 7.45463 15.3989
Si 12.1394 17.2394 1.85169
Si 12.7954 8.46136 1.10161
Si 10.0734 9.73106 2.23465
Si 14.968 16.3693 2.36832
O 11.6312 12.1897 7.00554
O 1.02156 8.81186 7.04412
O 11.6928 9.19584 2.06599
O 0.487898 15.6437 3.42613
O 12.2752 8.69141 16.6466
O 0.118687 15.8341 1.0242
O 10.2698 11.4202 1.82867
O 14.8689 0.0342528 2.72704
O 10.7982 16.4819 2.2606
O 0.043245 11.4902 0.490232
O 12.1238 0.495523 3.17478
O 13.368 16.2672 2.07861
Si 13.3665 3.02859 7.39352
Si 3.00355 2.14389 9.35281
Si 0.743253 5.92427 9.08579
Si 5.98882 1.68308 10.7686
Si 14.4831 0.435221 6.97
Si 3.58256 5.47674 10.2127
O 15.1843 4.82637 9.78775
O 5.81724 0.376035 11.7245
O 1.34463 2.30023 10.0318
O 6.19232 7.1362 7.61071
O 0.709686 16.8217 9.84667
O 4.33024 6.08167 9.04967
O 14.5877 2.0196 7.46042
O 1.88317 5.59126 10.162
O 3.60289 3.66401 10.356
O 7.40619 1.76368 9.73035
O 0.462467 7.5337 8.74993
O 6.04159 3.27572 11.0924
Si 5.39639 4.7283 5.45458
Si 6.08284 1.26761 5.95833
Si 5.1145 7.59847 8.77821
Si 8.6111 4.97861 9.89084
Si 7.88379 2.30811 8.29552
Si 7.92258 7.14642 7.9159
O 4.52989 5.48376 11.5176
O 10.9163 17.2772 12.2251
O 8.46133 4.01776 8.46585
O 8.92361 8.41502 8.44786
O 6.75986 2.33914 7.13788
O 7.95662 6.35301 9.31215
O 9.91104 4.29889 5.48503
O 8.65178 6.4803 6.554
O 5.77501 9.12974 4.67183
O 10.0106 5.74983 9.79788
O 7.56028 10.0525 9.74038
O 8.66144 4.0283 11.2199
Si 11.9343 4.8014 3.19057
Si 13.7988 0.967515 3.69407
Si 9.02436 9.93251 9.03809
Si 0.791352 2.08276 11.7325
Si 10.5654 1.53067 7.13954
Si 0.528187 5.66971 6.23304
O 10.0805 10.1525 10.2546
O 12.161 16.5736 9.96636
O 11.871 2.27524 7.61105
O 1.10943 5.04044 7.73171
O 11.2908 0.0110264 6.77765
O 13.0302 4.19141 8.39629
O 9.18461 1.51852 7.99274
O 13.6505 12.2447 8.73749
O 14.5998 5.98493 6.55339
O 13.3264 17.6567 7.68047
O 9.26285 11.0183 7.81402
O 14.8017 1.78298 11.7369
Si 14.1721 13.7969 8.98395
Si 2.05543 10.9029 4.02106
Si 14.1996 12.6312 11.6842
Si 3.84623 14.4515 10.3136
Si 0.573269 9.05675 8.56164
Si 1.64784 17.5492 8.5958
O 7.03616 15.2159 15.0658
O 1.77168 9.93207 8.93367
O 3.77836 11.0751 7.56783
O 2.38302 16.0383 8.0138
O 3.38071 8.62071 5.34512
O 2.64077 15.3871 5.10927
O 0.246723 14.1365 8.24207
O 2.82632 0.504104 8.9218
O 15.1936 13.1755 12.7647
O 2.41323 14.0756 9.86719
O 0.294905 17.7832 7.44529
O 3.94726 11.3366 13.3674
Si 3.68093 14.3902 4.51277
Si 6.34406 10.5874 4.8172
Si 6.6771 15.3478 9.3394
Si 10.2057 12.3304 7.58792
Si 3.89235 11.993 6.25647
Si 7.37467 16.5318 6.63562
O 5.28304 14.293 9.54671
O 7.23268 8.65812 12.3088
O 10.1751 9.83323 5.86496
O 10.2576 1.76251 5.47494
O 5.33677 11.2673 5.73022
O 7.83454 15.471 5.42841
O 4.39559 13.475 5.79542
O 6.59319 17.7604 6.29369
O 6.61325 15.8101 7.80131
O 10.4912 13.1367 9.13315
O 6.58012 16.4758 10.3297
O 8.88342 13.2965 6.35066
Si 9.18731 14.4777 5.16372
Si 1.80784 8.66419 5.78337
Si 10.2382 16.7738 6.66856
Si 13.9912 10.8316 9.59237
Si 11.3435 10.9964 5.6263
Si 12.518 16.3188 8.47937
O 8.78758 17.1957 7.21027
O 12.5347 10.0724 9.89008
O 1.06685 9.51999 4.5528
O 14.5218 13.7451 10.5106
O 12.5654 10.4911 4.99303
O 1.44199 17.8226 4.69123
O 10.2845 15.6082 5.44709
O 14.1149 0.391011 5.24336
O 11.2435 15.8798 7.64721
O 14.7209 9.87137 8.68432
O 11.128 1.57015 15.5654
O 14.6284 11.1106 11.1321
Si 13.6046 4.59264 9.81948
Si 5.98727 0.285801 15.7204
Si 2.5924 6.20508 16.1808
Si 3.48569 2.17588 2.03408
Si 3.6341 1.85351 16.5691
Si 4.54361 4.64011 15.8265
O 0.853365 5.72559 16.235
O 5.59192 17.3584 14.4487
O 2.60694 1.80857 0.736038
O 5.03012 6.20497 16.2336
O 1.04537 3.41647 13.0953
O 3.75873 3.19241 12.9605
O 0.124055 17.4626 13.2132
O 3.96241 8.64048 8.50734
O 3.11662 5.19503 15.2
O 6.25809 15.6095 12.5066
O 2.38792 7.84705 15.8878
O 3.32292 3.68262 2.21607
Si 4.5757 3.85958 11.6856
Si 5.3833 16.752 11.3586
Si 6.14887 7.27746 16.1081
Si 12.7363 1.5325 14.8487
Si 6.89883 3.17315 14.9004
Si 7.1171 7.2571 13.3412
O 7.44901 6.29195 16.3695
O 9.34072 0.0316516 0.00847175
O 6.58164 1.63015 14.929
O 8.55379 7.18071 14.0278
O 8.08222 3.42393 13.7887
O 7.08339 5.68669 12.2578
O 4.60997 0.632565 16.4581
O 5.80267 8.33812 10.0501
O 6.10965 7.52645 14.505
O 12.739 2.22946 13.3515
O 5.40336 5.03238 3.62685
O 7.72988 3.45203 16.4352
Si 8.30301 4.63307 12.6231
Si 12.2658 17.5142 11.322
Si 9.7513 6.2351 14.4961
Si 14.1367 16.898 13.605
Si 13.2281 2.14859 11.8246
Si 11.3149 6.48065 9.95349
O 9.62565 5.2179 15.677
O 1.07868 0.798437 15.3058
O 0.184339 16.583 15.6495
O 4.62241 3.26159 16.7482
O 13.5655 15.3697 14.1496
O 12.8847 6.07988 9.82931
O 9.87982 5.143 13.275
O 11.4367 7.80819 10.8093
O 13.0872 3.42095 10.8383
O 13.4033 0.0096056 14.5344
O 10.9489 7.43834 14.5871
O 13.5065 16.4879 12.2953
Si 0.526244 12.4479 13.8253
Si 3.44404 10.1592 8.76971
Si 2.37946 14.7384 14.6794
Si 4.36222 11.1875 11.685
Si 2.64428 10.3003 13.4942
Si 2.29176 2.55569 13.6262
O 1.84701 14.4586 16.2601
O 2.44423 10.1919 15.1255
O 6.0029 10.7409 11.5491
O 2.13865 1.35081 12.5558
O 3.20619 9.1216 12.5228
O 5.61104 4.30047 14.528
O 1.13142 11.0406 13.0864
O 3.95074 15.9876 11.2039
O 1.78522 13.5726 13.7423
O 9.99965 14.3142 11.6657
O 2.88309 2.09148 15.061
O 4.20302 12.9013 11.1247
Si 1.41019 15.1687 8.97538
Si 6.70183 9.52962 10.9923
Si 7.59165 15.3422 13.569
Si 10.0734 11.4793 15.2234
Si 9.30136 13.5158 10.3555
Si 10.4958 16.1479 13.5269
O 3.33382 14.6575 1.5384
O 11.1201 14.5847 13.7596
O 7.89611 13.8741 12.9595
O 9.91242 12.5154 16.3746
O 9.01725 12.0602 11.2646
O 8.05557 14.3709 9.75582
O 3.81585 10.4788 10.2949
O 12.3527 1.15937 10.8424
O 8.84391 16.4005 13.5598
O 11.3999 10.5144 15.0937
O 8.28584 15.995 1.54099
O 8.65781 10.443 15.6438
Si 12.7206 13.9574 13.9619
Si 11.3964 9.34066 10.8409
Si 10.7229 17.9624 16.2218
Si 14.6843 10.1202 0.134832
Si 12.2105 9.69779 13.8738
Si 13.9673 11.5556 15.283
O 10.7856 16.9056 14.9568
O 14.4464 8.89686 1.3408
O 13.1958 8.34925 14.4074
O 2.29741 16.3468 13.9027
O 11.4263 9.84261 12.4877
O -0.0140979 12.0541 15.31
O 13.5016 10.7186 14.0108
O 12.7451 13.3654 12.4299
O 12.8972 12.6548 15.06
O 15.5181 9.20595 16.0545
O 11.7813 17.9222 0.43576
O 13.445 11.242 16.9305
324
 Atoms. Timestep: 29000
Si 0.211841 4.37501 16.9944
Si 5.43205 15.2114 15.4059
Si 4.59814 8.85687 4.09927
Si 3.49291 2.36456 6.43064
Si 2.05295 1.21771 4.40827
Si 4.06972 6.00937 3.70474
O 3.78499 5.83809 5.37505
O 4.17814 1.30969 10.0123
O 2.0218 2.28011 5.61907
O 6.73715 8.52157 16.699
O 3.31635 1.37792 3.4803
O 2.28999 5.84402 3.34923
O 0.645791 4.05896 1.5221
O 2.62436 5.29703 0.470871
O 4.54996 7.42984 3.34665
O 4.32792 0.871134 6.10389
O 3.36421 9.79757 3.41591
O 4.56748 3.56666 6.23008
Si 1.98992 4.89742 1.90576
Si 8.37791 18.0025 1.11293
Si 8.23719 5.46156 5.65304
Si 10.044 3.06556 4.35979
Si 6.3582 0.840899 3.1373
Si 9.0606 5.3033 2.75773
O 6.88755 4.60444 5.84546
O 6.81268 1.64197 4.57727
O 9.06097 3.81412 3.36761
O 12.1317 4.75537 1.12221
O 7.29597 0.210288 16.8059
O 8.84408 5.23392 1.16758
O 5.40924 1.91745 2.34153
O 8.93365 8.97165 0.667979
O 8.36328 6.1946 3.97601
O 11.6657 3.4191 3.77482
O 6.93361 11.9719 3.25066
O 10.8112 5.76998 2.86517
Si 8.5312 4.80813 16.6108
Si 0.919227 16.6849 14.7442
Si 14.1135 5.02893 5.14735
Si 15.0299 1.40218 2.31026
Si 0.290034 1.30685 16.2419
Si 13.1074 5.49507 0.293351
O 13.7142 4.92216 3.55518
O 13.7335 1.88422 3.23445
O 15.4851 1.24361 0.780731
O 13.6733 6.93444 1.0867
O 14.3151 1.60785 15.8411
O 0.817334 2.82141 16.043
O 14.2643 4.10238 0.230508
O 12.6289 6.22588 15.9386
O 0.148154 4.61246 5.63754
O 0.925284 1.66868 3.27147
O 1.6306 6.88434 5.69976
O 13.1386 4.43431 6.20145
Si 1.43071 15.4864 0.046847
Si 2.15391 9.25954 16.3321
Si 1.83237 16.2345 4.33614
Si 4.10753 13.1218 2.09835
Si 1.97618 11.0422 1.74596
Si 4.07718 15.8704 0.778244
O 13.5939 15.345 8.26148
O 2.58333 11.3264 5.49424
O 1.31484 11.2167 3.04105
O 2.82631 16.6301 3.03563
O 2.30453 9.75327 0.717962
O 4.14086 14.3786 14.5823
O 2.85286 12.171 1.21875
O 5.05934 14.9218 -0.263618
O 2.66163 16.5348 0.123025
O 5.53745 12.7267 1.52733
O 2.52456 2.37447 7.96269
O 4.1139 12.9755 3.75906
Si 9.02897 12.8303 12.2848
Si 7.87909 9.67726 16.8587
Si 4.588 16.4636 3.25234
Si 9.70047 10.1346 4.51521
Si 7.11272 11.8934 1.66583
Si 9.65765 15.0032 1.90063
O 4.65495 15.6755 4.72839
O 8.27885 10.6199 5.02516
O 8.35902 12.604 0.981241
O 9.14537 14.5038 3.30366
O 7.17223 10.5571 1.03506
O 10.3372 13.9055 0.733868
O 9.58198 11.6706 13.1838
O 7.84845 0.532633 2.5175
O 4.88238 16.8567 1.65137
O 9.43857 9.07552 3.20395
O 5.89277 17.4667 3.88608
O 10.5063 11.5343 4.32728
Si 9.81268 12.4565 0.362372
Si 12.2017 7.74946 15.2521
Si 12.1587 16.625 2.07142
Si 12.7703 8.21207 0.86746
Si 10.1496 9.3783 1.78703
Si 14.9508 15.9518 2.56641
O 10.9432 11.9719 6.91193
O 1.67125 9.09173 7.45267
O 11.8764 9.01379 1.95911
O 0.267541 15.5888 3.93701
O 11.8299 8.51256 16.5591
O 0.454535 15.0679 1.39541
O 10.1853 10.9602 1.17315
O 14.5848 17.6931 2.69382
O 10.8854 15.8575 2.56519
O 0.445814 11.3214 0.692918
O 12.0048 17.8772 3.42829
O 13.3189 15.5781 2.29818
Si 13.1394 3.29664 7.48597
Si 2.71529 1.76328 9.34079
Si 0.877598 6.57748 9.32689
Si 5.58885 1.4584 10.8432
Si 13.8692 0.282767 7.24374
Si 3.87719 5.77062 10.5262
O 15.545 5.32819 10.3138
O 5.82124 0.107714 11.5916
O 1.93465 2.94684 10.3476
O 6.38377 7.76131 8.02905
O 0.772923 16.0859 9.77565
O 4.61922 6.54966 9.21803
O 14.01 1.94482 7.5282
O 2.32581 6.40723 10.1088
O 4.39406 4.11895 10.3792
O 6.95651 1.71708 9.94823
O 15.5208 7.89927 9.42726
O 5.72836 2.84139 11.7847
Si 5.38222 4.78749 5.37555
Si 6.22148 1.1249 5.91883
Si 5.12134 8.20544 8.978
Si 8.89029 5.07606 9.76088
Si 7.70611 2.05407 8.42849
Si 7.95793 7.66381 7.8429
O 4.79891 5.81079 11.9183
O 10.9228 17.7998 12.9593
O 8.4106 3.76761 8.73818
O 8.74928 9.08888 8.05329
O 6.45647 2.13222 7.30549
O 8.44582 6.55311 9.29098
O 9.57073 4.49942 5.66726
O 8.31683 6.7519 6.51769
O 6.16139 9.43143 4.01
O 10.5838 5.14791 9.83414
O 7.24909 10.0719 9.94475
O 8.66023 4.21543 11.178
Si 11.998 4.77253 2.84099
Si 13.3615 0.546876 4.14307
Si 8.52256 10.4316 9.07092
Si 1.14461 2.20763 11.6519
Si 10.3547 1.66881 6.87903
Si 0.23246 6.13326 6.30543
O 9.94821 10.5054 9.85206
O 11.2892 16.8501 10.1508
O 11.6178 2.67957 7.13805
O 0.362676 6.01239 7.92188
O 10.8994 0.135363 6.96815
O 13.2239 4.43694 8.65544
O 9.0766 1.25716 7.90473
O 13.5708 12.507 8.32642
O 14.3353 6.6837 6.03276
O 12.9589 17.7861 8.31494
O 8.80216 11.5418 7.83441
O 15.1279 1.66889 11.5468
Si 14.4608 13.8384 8.68658
Si 2.14963 10.257 4.29704
Si 13.8987 13.1111 11.6912
Si 4.16747 14.3376 10.525
Si 0.637131 9.30631 8.81779
Si 1.00773 17.223 8.63384
O 6.94726 15.1513 14.9793
O 1.93285 9.94067 9.52923
O 3.63655 11.6587 7.91814
O 2.05551 16.1566 7.61423
O 3.60285 8.82038 5.60122
O 2.13137 14.8054 4.91121
O 0.462201 13.6631 8.57592
O 1.71347 0.355024 9.51757
O -0.0703028 13.1536 12.1302
O 2.72834 14.2858 9.67385
O 15.3675 17.5974 7.58339
O 3.255 10.6518 12.5616
Si 3.77019 14.1744 4.80697
Si 6.7386 11.0144 4.53263
Si 6.60031 14.8972 8.68152
Si 9.60506 12.7616 7.49925
Si 3.82669 11.8984 6.38046
Si 7.02108 16.2774 6.48762
O 5.48409 14.0182 9.54871
O 7.01368 8.77008 12.1869
O 10.8759 9.62347 5.55668
O 10.1303 1.90273 5.37916
O 5.52393 11.6868 5.53499
O 7.53042 15.5743 5.10127
O 4.01917 13.5151 6.23336
O 7.11759 17.8309 6.24771
O 6.0459 15.3506 7.16131
O 10.3057 13.2349 8.97649
O 6.64164 16.2261 9.86698
O 8.63966 13.6741 6.23125
Si 8.7638 14.6955 4.98718
Si 1.98464 8.40445 6.04419
Si 10.0891 16.572 6.93501
Si 13.7772 11.0641 9.1994
Si 11.8514 11.0144 5.68555
Si 12.2868 16.2719 8.82912
O 8.51491 16.2608 7.53
O 12.4099 9.99582 9.36542
O 1.11608 9.3084 4.97035
O 14.2193 14.0179 10.4252
O 13.3493 11.2151 5.44172
O 1.60557 17.7164 5.03166
O 9.7856 16.2042 5.40926
O 13.977 0.320819 5.49688
O 11.0563 15.4781 7.90969
O 15.096 10.4153 8.52998
O 11.7088 1.39362 15.7282
O 13.7812 11.5687 10.7795
Si 13.9734 4.73511 10.1262
Si 6.13752 0.356888 15.6852
Si 2.29281 6.13252 16.186
Si 3.7787 2.23083 2.27546
Si 3.64024 2.31966 16.5586
Si 4.71031 4.93222 15.7959
O 0.575635 5.78659 16.2549
O 5.37145 16.9264 15.4587
O 2.7089 1.99482 0.934028
O 5.30084 6.23108 16.4507
O 1.12785 3.28207 12.9904
O 3.94228 3.35941 13.3282
O 0.155323 16.7197 13.3156
O 4.22013 9.25016 8.03403
O 3.18122 5.22446 15.1253
O 6.51278 15.6298 12.3393
O 2.84218 7.55411 16.558
O 3.55817 3.94385 2.40523
Si 4.70877 3.96837 11.966
Si 5.81796 16.553 11.2575
Si 6.56498 7.20623 15.856
Si 13.0012 1.20058 14.7291
Si 7.20677 2.97451 14.6232
Si 6.81941 7.48211 13.1859
O 7.40525 6.06946 16.6676
O 9.93963 0.676295 0.812272
O 6.75503 1.34795 14.5526
O 8.24193 7.38844 14.2608
O 8.06214 3.69788 13.4315
O 7.03376 6.15354 12.3172
O 5.05775 1.417 16.6143
O 5.16613 8.73309 10.6273
O 5.71918 7.4273 14.3982
O 13.1958 2.15808 13.4467
O 5.33012 4.9231 3.63758
O 8.24073 3.16476 15.995
Si 8.2382 5.05538 12.4455
Si 11.8226 17.8285 11.4613
Si 9.57424 6.53325 14.529
Si 14.1542 16.6293 13.1086
Si 13.5422 2.19162 11.8578
Si 11.3216 6.26177 10.7871
O 9.74472 5.50558 15.6792
O 1.14434 0.183158 15.3069
O 0.310028 15.8971 16.0534
O 4.49337 3.71836 16.6872
O 13.7132 15.2248 13.8221
O 12.8725 5.96276 10.7464
O 9.69477 5.72522 13.0933
O 11.1076 7.90955 10.7477
O 13.46 3.72422 11.2494
O 13.6003 17.7142 14.0548
O 10.6935 7.68438 14.5651
O 13.157 16.9204 11.8872
Si 0.857485 12.4355 13.3198
Si 3.45135 10.4989 8.90152
Si 2.62139 14.3591 14.868
Si 4.42261 11.5512 11.7027
Si 2.34708 9.63641 13.303
Si 2.52033 2.53984 13.7177
O 2.05072 14.1485 16.4963
O 2.77841 9.46143 14.9388
O 5.92446 11.0393 12.2113
O 2.23735 1.16743 12.6128
O 2.31295 8.12537 12.8506
O 5.88481 4.15614 14.8045
O 0.95902 10.8367 13.4934
O 4.3879 15.831 11.049
O 2.20645 13.3902 13.5346
O 9.98656 13.9967 11.4841
O 2.6334 2.26972 15.2166
O 4.60329 13.283 11.7514
Si 1.58181 15.0486 8.713
Si 6.38945 9.63962 11.1408
Si 7.59443 15.3361 13.5971
Si 9.71203 11.226 14.6867
Si 9.33322 13.5687 10.1687
Si 10.4134 16.5306 14.1491
O 3.92954 14.6381 1.75767
O 11.1312 15.0203 14.5002
O 7.78327 13.6915 13.083
O 9.96745 12.6032 15.7192
O 8.59152 12.2779 10.8332
O 8.0222 14.1298 8.95133
O 4.34451 11.2709 10.0737
O 12.5151 1.27918 11.0508
O 8.84822 16.3986 13.9447
O 11.1043 10.4362 14.6225
O 8.68561 16.3161 1.26941
O 8.55777 10.1357 15.4492
Si 12.6195 14.199 13.984
Si 11.2479 9.56583 10.4107
Si 10.8417 0.139212 16.6171
Si 15.1021 10.2454 17.016
Si 12.2414 9.97834 13.4951
Si 13.9836 11.8936 14.7431
O 10.1915 17.7075 15.2988
O 13.7878 9.39874 0.651422
O 13.004 8.75695 14.1316
O 2.09085 15.8578 14.0932
O 11.4347 9.92868 12.1265
O 15.3373 12.7664 14.5483
O 13.4186 11.2066 13.3858
O 12.4297 13.5147 12.3625
O 12.7287 13.1632 15.1778
O 0.510318 9.20583 16.1371
O 11.9918 17.1099 0.495982
O 13.9722 11.0038 16.1023
324
 Atoms. Timestep: 29500
Si 0.371799 4.39932 16.9951
Si 5.56958 15.6846 15.2549
Si 4.72047 8.83659 4.31578
Si 3.44661 2.74923 6.82817
Si 2.00129 0.989273 4.72982
Si 3.8994 5.88351 3.65138
O 3.89948 6.08178 5.32687
O 3.85054 1.32621 10.6364
O 2.15912 2.38416 5.7062
O 6.22553 8.76359 16.362
O 3.36411 0.880814 3.55928
O 2.43596 5.40832 3.07536
O 0.655626 5.01825 1.34536
O 2.88852 5.11669 0.563182
O 4.50015 7.35457 3.31992
O 4.52168 1.37231 6.13989
O 4.11691 10.024 3.46015
O 4.64433 3.85987 6.7769
Si 2.09198 4.50107 1.7249
Si 8.31139 17.6287 0.934992
Si 7.92308 6.26948 5.16288
Si 9.6733 3.71704 4.47077
Si 6.35448 1.07685 2.91087
Si 8.75716 5.56107 2.60705
O 6.53623 5.64338 5.93283
O 6.8549 1.77287 4.24395
O 8.5999 4.148 3.26352
O 12.1022 4.36011 1.40594
O 7.78872 17.4388 16.4184
O 9.39896 5.57351 0.98767
O 5.17862 2.03525 2.21093
O 8.97896 8.84307 0.315195
O 7.95834 6.80405 3.43263
O 11.201 3.23848 3.89814
O 6.69234 11.3038 3.2937
O 10.3909 5.47219 3.21365
Si 8.72327 5.31446 16.7566
Si 1.0942 17.2673 15.3645
Si 13.7852 5.11103 5.48656
Si 15.3861 0.928143 2.57651
Si 0.322252 1.46236 16.7447
Si 13.078 5.49724 0.353342
O 13.2574 5.06721 3.93065
O 13.8164 1.62124 2.92946
O 0.469834 1.57828 1.24303
O 13.4491 7.08017 1.13289
O 14.3729 1.75571 16.2508
O 1.20139 3.03568 16.6852
O 14.3767 4.33184 17.1572
O 12.582 6.18425 16.1565
O 15.3503 4.48433 5.88683
O 0.55853 1.27342 3.85507
O 1.47155 6.80707 6.03815
O 12.7373 4.65308 6.62744
Si 1.44286 15.2369 17.2467
Si 1.76563 9.17036 16.2476
Si 1.77156 15.9357 4.76428
Si 4.20878 12.9454 1.97518
Si 1.84702 11.0629 1.2304
Si 4.10482 15.7471 0.856618
O 13.2408 15.0331 8.12039
O 2.96351 11.5599 5.26232
O 1.74871 11.2057 2.88698
O 2.62371 16.4124 3.38661
O 2.31474 9.55131 0.614861
O 4.31145 14.884 14.6977
O 3.13689 11.9689 1.20817
O 5.23274 15.885 16.8304
O 2.59099 16.2144 0.0703259
O 5.76329 12.6396 1.55118
O 2.70109 2.59316 8.31807
O 4.39193 13.1135 3.78049
Si 8.44865 12.5419 12.0281
Si 7.57043 9.65918 16.6163
Si 4.22586 16.9574 3.47554
Si 9.79864 10.2925 4.1595
Si 6.90925 11.4899 1.70155
Si 9.67527 14.9016 1.97259
O 4.86823 15.8245 4.58968
O 8.4305 10.4826 5.0983
O 8.19384 12.2632 1.1702
O 9.24209 14.2815 3.43436
O 6.58395 10.177 0.887971
O 10.086 13.9651 0.599635
O 8.86423 11.1945 12.8394
O 7.51766 0.416553 1.9715
O 4.46079 16.8699 1.89177
O 9.11433 9.78509 2.70807
O 5.85166 17.7026 3.74972
O 10.6764 11.5823 4.31745
Si 9.64858 12.5071 0.0633926
Si 12.7739 7.5438 14.9202
Si 12.3311 16.1582 2.0174
Si 12.7828 8.66235 0.811106
Si 9.91975 9.72032 1.29432
Si 15.3363 15.7022 2.4117
O 10.8162 11.2099 6.96025
O 1.38226 9.23076 7.31581
O 11.5196 9.24907 1.48984
O 0.389323 15.6269 3.94042
O 13.0335 8.6351 16.3312
O 0.495861 14.6387 1.41695
O 10.3527 11.1809 0.561373
O 15.2681 17.4 2.42029
O 10.8667 15.5088 2.41523
O 0.526816 11.7976 0.550081
O 12.6389 16.939 3.54829
O 13.7056 15.4603 2.05482
Si 12.8342 3.26437 7.55615
Si 2.56245 1.61704 9.71002
Si 0.468557 6.42909 9.59716
Si 5.42494 1.6323 10.8431
Si 14.0906 0.552445 7.16998
Si 3.46926 5.81661 9.90939
O 14.8016 6.01872 10.5128
O 5.88861 0.333886 11.6579
O 1.41073 2.27482 10.7181
O 6.42107 7.86796 8.13156
O 0.495129 16.2384 9.86808
O 4.13522 6.832 8.85447
O 14.2277 2.32488 7.4479
O 1.94678 5.70649 10.1045
O 3.90053 3.98717 9.67488
O 6.45735 2.13084 9.57307
O 0.9722 7.96013 9.48127
O 5.7893 3.10462 11.5048
Si 5.10859 5.10437 5.56752
Si 6.20906 1.02707 5.66258
Si 5.40158 7.89981 9.39087
Si 8.82967 5.15616 9.17839
Si 7.39811 2.58612 8.21153
Si 7.9876 7.84721 7.5695
O 4.30191 5.9237 11.4417
O 11.0711 17.4096 12.7513
O 7.90874 4.16207 8.41366
O 9.11033 8.93066 8.15962
O 6.56224 2.1301 6.93957
O 8.31637 6.46372 8.38052
O 9.23123 5.24239 5.64748
O 7.8508 7.73865 6.01628
O 6.19311 9.05209 4.64632
O 10.4531 5.2948 9.03994
O 7.39061 9.85422 10.0094
O 8.73754 4.70643 10.6885
Si 11.8982 4.73447 3.05405
Si 13.2588 0.416163 3.97015
Si 8.84993 10.2975 9.17083
Si 1.00463 1.84785 12.3027
Si 10.0455 1.65442 6.84654
Si 0.255004 5.83205 6.5468
O 10.1293 10.5603 10.2107
O 12.2647 16.7427 10.1038
O 11.5215 2.41921 7.21084
O 15.4865 6.08415 8.12171
O 10.587 0.393356 6.01786
O 13.109 4.09376 9.00496
O 9.02433 1.83839 8.13961
O 13.4901 12.3609 8.39875
O 14.1513 6.61292 6.03991
O 13.0836 17.8309 7.96935
O 8.33206 11.151 7.99009
O 15.062 1.43457 12.4279
Si 14.1689 13.7792 8.74851
Si 2.63776 10.4484 4.12408
Si 14.1649 13.1768 11.3968
Si 4.09128 14.3312 10.7576
Si 0.973215 9.47993 8.86285
Si 1.07578 17.2267 8.46265
O 7.00306 14.8488 15.1172
O 2.02792 10.5604 9.35177
O 4.1156 11.732 7.85639
O 1.60431 15.7995 7.67338
O 3.76285 9.07204 5.78854
O 2.42686 14.6919 5.26808
O 0.144399 13.7807 8.58779
O 2.16663 0.0547269 9.05378
O -0.00432784 13.0264 12.1387
O 2.46098 14.2487 9.87693
O -0.00304555 0.0252703 7.47014
O 3.21021 10.835 12.7298
Si 4.22302 14.4186 4.97577
Si 6.89212 10.4923 4.63282
Si 6.24212 15.1495 8.97589
Si 9.54796 12.2177 7.26491
Si 4.41737 11.8774 6.13527
Si 7.11466 16.3122 6.32219
O 5.25696 14.0014 9.6482
O 7.45473 8.92616 12.7609
O 10.938 9.28574 4.75131
O 9.40108 2.6773 5.8056
O 5.88902 11.3734 5.55733
O 7.51917 15.2795 5.3167
O 4.75639 13.4502 6.1253
O 6.52315 17.6409 6.25381
O 6.0712 15.5078 7.37249
O 9.836 13.2478 8.48535
O 6.14507 16.5927 9.72124
O 8.78137 13.1589 5.96606
Si 9.05281 14.5321 4.98188
Si 2.0172 8.35343 5.99274
Si 10.0835 16.7658 6.29951
Si 13.8103 10.9319 9.27037
Si 11.5696 10.7266 5.40709
Si 12.342 16.3625 8.42831
O 8.69647 16.5366 7.01072
O 12.5674 9.8841 9.02287
O 1.57577 9.19888 4.77484
O 14.2086 14.1795 10.2944
O 13.0355 11.0291 5.5788
O 1.89904 17.5183 5.37685
O 10.4343 15.5434 5.19952
O 13.9207 0.679496 5.46678
O 10.998 16.4162 7.68584
O 15.0859 9.9818 9.08561
O 11.51 1.20018 15.9783
O 13.6076 11.546 10.8587
Si 13.5905 4.66265 10.5184
Si 6.65573 0.22773 15.7765
Si 2.25246 6.14096 16.2644
Si 3.56206 1.87108 2.09353
Si 4.29483 1.71818 16.4452
Si 4.71329 4.72598 16.0681
O 0.637309 5.64201 15.8551
O 5.8039 17.3136 14.6649
O 3.39029 1.21288 0.582078
O 5.04112 6.1097 16.6403
O 1.17678 3.06288 13.3451
O 3.77495 3.34763 12.5797
O 0.0351773 17.5569 14.2812
O 4.36218 9.12688 9.26581
O 3.25049 5.2415 15.2692
O 6.92425 15.9843 12.1873
O 2.32308 7.65805 16.1938
O 2.29345 2.86162 2.17522
Si 4.48895 4.13517 11.3683
Si 5.69988 16.7573 11.2352
Si 6.40756 7.17218 15.9303
Si 13.0738 1.48232 15.3246
Si 7.06056 3.40288 15.106
Si 7.40663 7.41016 13.3179
O 7.62003 6.65655 16.9101
O 9.86909 0.113386 0.555079
O 6.91953 1.72089 15.1109
O 8.88421 7.2359 14.0766
O 7.86874 3.5655 13.7093
O 7.54013 5.94092 12.4519
O 5.51406 0.624947 16.7968
O 5.81266 8.0441 11.0559
O 6.17662 7.36626 14.2673
O 13.1247 2.69788 14.2341
O 5.09845 4.72361 3.86918
O 7.83737 4.0885 16.4809
Si 8.42173 4.57922 12.4178
Si 12.3591 17.4986 11.5636
Si 10.0942 6.21827 14.0779
Si 14.2111 16.9215 13.8569
Si 13.5621 2.22921 12.3996
Si 11.5428 6.24374 9.51803
O 9.54937 5.72859 15.5096
O 1.51054 0.572912 16.1309
O 0.422069 16.1287 16.1798
O 4.64999 3.30177 16.9301
O 14.1231 15.3817 14.3466
O 12.2329 5.7741 10.8064
O 9.8873 5.23043 12.9796
O 11.3996 7.9157 9.94104
O 13.6572 3.68546 11.7697
O 13.1423 17.9252 14.6684
O 11.3655 7.27055 14.1375
O 13.6637 16.8041 12.3082
Si 0.717523 12.9422 13.6985
Si 3.54045 10.6518 8.98954
Si 2.66954 14.9241 14.7459
Si 4.45739 11.594 11.9585
Si 2.1058 10.1752 13.6327
Si 2.76385 2.32345 13.6876
O 2.20832 14.0677 16.1011
O 2.84181 9.84448 15.0356
O 6.11642 10.853 12.2011
O 2.21183 0.915129 12.9509
O 1.44471 8.88521 13.118
O 5.8102 4.38393 15.0317
O 1.48823 11.6542 14.2926
O 4.36288 15.8318 11.8376
O 1.66366 14.2794 13.5588
O 9.7991 13.1526 11.1076
O 3.35553 1.9909 15.1711
O 4.2775 13.2443 11.9164
Si 1.09806 14.9147 8.98084
Si 6.63217 9.49101 11.4157
Si 7.66205 15.003 13.473
Si 9.62672 10.8886 14.4428
Si 8.73435 13.4076 9.76806
Si 10.6874 16.1964 13.8326
O 3.64846 14.4119 1.57057
O 11.4461 14.9037 13.2131
O 7.47884 13.5043 12.9328
O 9.67756 12.4564 15.5036
O 7.81276 12.1207 10.3938
O 7.68164 14.4806 9.02001
O 4.25923 11.3104 10.2532
O 12.8442 1.05232 11.6901
O 9.0344 15.6199 14.0998
O 10.7564 9.92685 14.0985
O 8.6856 16.0314 1.44443
O 8.16843 10.2272 15.1952
Si 13.0038 14.3069 13.83
Si 11.4562 9.49207 10.2169
Si 11.0977 17.5705 16.6354
Si 14.7621 10.5824 0.0434023
Si 12.3535 9.82299 13.2231
Si 13.606 12.0594 14.9396
O 10.7423 16.979 15.1809
O 13.7518 9.83877 1.146
O 13.3103 8.59577 13.8185
O 2.24608 16.4291 14.3792
O 11.7662 9.66457 11.8065
O 14.9583 12.9686 14.6591
O 13.1172 10.9872 13.8423
O 13.1507 13.4299 12.4818
O 12.806 13.3273 15.1535
O 0.0438354 9.36546 16.2935
O 12.3726 17.0493 0.55714
O 13.5774 11.4257 16.351
324
 Atoms. Timestep: 30000
Si 0.0730106 4.51253 0.0836667
Si 5.33436 16.0742 14.455
Si 4.35428 8.66631 4.33431
Si 3.72166 2.21893 6.67223
Si 2.1817 0.696946 4.44657
Si 3.62423 5.58231 4.14433
O 3.76343 5.72908 5.73698
O 4.57421 0.972323 9.85408
O 2.61493 2.01656 5.34226
O 6.57894 8.31822 16.245
O 3.24228 1.14981 3.10477
O 2.3678 6.13456 3.33276
O 0.535093 4.42421 1.99292
O 2.59033 5.53793 0.665638
O 4.31905 7.2221 3.74184
O 4.47851 0.871163 6.11459
O 3.78163 10.0074 3.3098
O 4.81933 3.27355 6.16002
Si 2.08013 4.80981 2.02124
Si 8.24375 17.6379 1.02008
Si 7.89396 5.81902 5.41974
Si 9.95569 3.76066 4.8967
Si 6.3933 1.25579 2.7932
Si 8.77911 5.72164 2.80247
O 6.47043 5.35266 5.8314
O 6.76877 1.87253 4.30006
O 8.57855 4.13433 3.65883
O 11.7695 4.89333 1.52029
O 7.54452 17.8709 16.7048
O 8.46698 5.13841 1.12742
O 5.3127 2.15897 1.95421
O 9.06232 9.17139 17.1599
O 7.86711 6.6501 3.844
O 11.4564 4.17404 4.34912
O 6.48604 11.3717 2.98507
O 10.2856 6.22708 3.10963
Si 8.88796 5.12138 16.6516
Si 0.942506 17.4326 15.2681
Si 13.4383 5.6389 5.83384
Si 15.3572 1.06405 2.64299
Si 0.147452 1.78703 16.7903
Si 13.1415 5.4291 0.577783
O 12.8169 6.22823 4.21612
O 13.5091 1.44623 3.1882
O 0.474948 1.50834 1.25716
O 13.361 6.67704 1.66418
O 14.2457 1.32934 16.4995
O 0.733937 3.25755 16.6167
O 14.2121 4.10713 0.589509
O 13.3772 6.0038 16.1988
O 15 4.93137 5.50397
O 0.61251 1.25955 3.96093
O 1.17365 7.03118 5.24392
O 12.8156 4.62296 7.07338
Si 1.62534 15.8429 0.206998
Si 2.28913 9.27849 16.4359
Si 1.75937 15.8536 4.51506
Si 4.10809 13.2123 1.71986
Si 1.91227 11.2274 1.59629
Si 4.12933 16.1155 0.719625
O 13.8439 15.5056 8.35333
O 2.86754 11.6036 5.60988
O 1.56994 11.558 3.17483
O 2.76445 16.6462 3.43257
O 2.28958 9.68301 0.888569
O 3.88461 15.0416 14.169
O 3.06922 12.1304 1.01779
O 5.1405 16.2299 16.4244
O 2.96172 17.1273 0.645712
O 5.69486 12.9743 1.24958
O 2.82117 2.19839 7.96022
O 3.61794 13.225 3.35322
Si 8.83786 12.8157 12.042
Si 7.48112 9.56379 16.2852
Si 4.55801 16.8241 3.37864
Si 9.81255 10.2048 3.98985
Si 6.72468 11.7794 1.28563
Si 9.72256 14.935 1.97109
O 4.87867 15.5953 4.23198
O 8.3089 9.81059 4.01537
O 8.24715 12.2353 0.995987
O 9.02996 14.4704 3.29219
O 6.64204 10.3327 0.323445
O 10.1748 13.9863 0.607938
O 9.36521 11.7199 13.0102
O 7.40551 0.261578 2.084
O 5.15086 16.5604 1.85084
O 9.58777 10.1887 2.3344
O 5.39511 0.074514 3.70386
O 10.9206 11.4597 4.18254
Si 9.54352 12.3716 0.0523019
Si 12.6634 7.28319 15.353
Si 12.4642 16.139 2.16619
Si 12.9295 8.24603 0.795724
Si 10.2198 9.6511 0.992841
Si 15.4214 15.8236 2.54052
O 11.1754 11.7429 6.87997
O 1.28819 8.45516 7.23401
O 11.6529 9.0205 1.40743
O 0.366667 15.4922 4.06168
O 12.7574 8.5176 16.4499
O 0.692739 15.2476 1.45672
O 10.5318 11.0656 0.433843
O 15.3124 17.5977 2.37375
O 11.1616 15.2058 2.10563
O 0.45854 11.3419 0.937637
O 12.3096 17.278 3.42189
O 13.8829 15.2823 2.21338
Si 12.9106 3.11905 7.68555
Si 3.04776 1.37972 9.69935
Si 0.250432 6.35334 9.48365
Si 6.00009 1.47228 10.5398
Si 14.392 0.535572 6.87596
Si 3.53215 5.64454 10.4312
O 14.5576 5.6316 10.0711
O 5.99492 0.450046 11.8159
O 1.60179 2.07587 10.5972
O 5.78612 7.45621 7.81572
O 0.347919 16.5602 9.8414
O 4.27237 6.38621 9.276
O 14.0557 2.14528 6.6552
O 1.92197 6.00558 10.2092
O 3.32647 3.97033 10.0767
O 7.18342 1.20714 9.61164
O 0.324413 8.15857 9.49634
O 5.90955 3.11495 11.0264
Si 5.16199 4.63173 5.49813
Si 6.12608 1.09497 5.51183
Si 4.72512 7.8905 8.98621
Si 8.46203 4.74952 9.13862
Si 7.76328 1.91589 8.2011
Si 7.38011 7.33038 8.07593
O 4.37284 5.37643 11.9775
O 11.2291 17.2089 12.4881
O 7.82759 3.49521 8.2393
O 8.48663 8.27853 8.71864
O 7.02744 1.76542 6.83179
O 7.20345 5.91038 8.96808
O 9.14565 4.69666 5.97833
O 8.00802 7.22137 6.38835
O 5.97093 8.88971 4.37865
O 9.75054 5.64891 8.66408
O 7.56323 9.8605 10.3568
O 9.14424 4.26105 10.4775
Si 11.6309 5.50707 3.14139
Si 13.2916 0.173774 4.14381
Si 8.826 9.85298 9.22323
Si 0.980268 1.73217 12.1945
Si 10.1517 1.46783 6.97949
Si 0.127145 6.18125 6.3347
O 10.1265 10.086 10.037
O 12.5961 17.1535 9.97166
O 11.5526 2.29929 7.58255
O 0.724052 6.13023 7.86074
O 10.8221 0.0620788 6.12504
O 13.6123 3.12133 9.29083
O 9.27411 1.3034 8.2575
O 13.8732 12.6908 8.52587
O 14.1971 6.68104 6.65409
O 13.2361 0.161742 7.87646
O 8.9144 11.0392 7.83832
O 14.9827 1.54731 12.1223
Si 14.5015 14.1552 9.20116
Si 2.4103 10.7506 4.3168
Si 14.4171 12.9885 11.6588
Si 4.0097 14.6603 10.9272
Si 0.881151 9.36551 8.51659
Si 1.33236 17.2273 8.52522
O 6.72705 15.4179 14.5568
O 1.71939 10.5314 8.86946
O 4.47877 11.1841 7.54965
O 2.38445 15.8716 8.27847
O 3.59782 8.74723 5.74948
O 2.54736 14.4699 5.09246
O 0.306779 14.1986 8.55237
O 2.44609 17.9387 9.29694
O 0.290369 13.0962 12.3332
O 2.46318 14.3951 10.4691
O 0.268139 0.154358 7.64073
O 3.56805 11.429 13.24
Si 4.13461 14.3415 4.79146
Si 6.7839 10.3625 4.14792
Si 6.28004 15.5496 9.17854
Si 9.74883 12.326 7.09468
Si 4.4719 11.8031 6.0427
Si 7.17015 16.3108 6.70192
O 5.10039 14.8769 9.82386
O 6.79106 8.58118 12.6765
O 10.5661 9.36037 5.31674
O 9.64027 2.16663 5.69011
O 5.90162 11.0426 5.51917
O 7.65823 15.1921 5.53187
O 4.866 13.3222 5.80062
O 6.66632 17.6163 5.94199
O 6.03939 15.6248 7.5822
O 9.62561 13.6335 8.22711
O 6.19866 17.0666 9.71606
O 9.09523 12.8591 5.717
Si 8.99329 14.41 5.11816
Si 1.90076 8.58312 5.7618
Si 10.2112 16.7307 6.87373
Si 14.0405 11.2448 9.12042
Si 11.5477 10.596 5.60864
Si 12.7344 16.8118 8.38965
O 8.48258 16.657 7.51729
O 12.8107 10.1664 9.60739
O 1.15395 9.75823 5.00098
O 13.8382 14.0509 10.6425
O 13.0304 10.2706 5.60807
O 1.70984 17.2739 5.44176
O 10.1969 15.4304 5.63421
O 14.0581 17.8485 5.54823
O 11.1843 16.3101 8.03604
O 14.9719 10.0105 8.23356
O 11.5526 0.960622 16.404
O 14.6091 11.6715 10.6927
Si 13.3864 4.39887 10.3695
Si 6.4039 0.277061 15.5849
Si 2.23306 6.11154 16.2784
Si 3.54548 2.28498 2.07389
Si 4.18215 1.90993 16.5123
Si 4.54333 4.4111 15.4278
O 0.353466 5.72616 16.2599
O 5.65228 17.6388 14.2601
O 3.24827 1.66936 0.627055
O 5.32712 5.49716 16.3938
O 1.45109 2.97896 13.3165
O 4.29397 2.9853 12.9545
O -0.0450703 17.2482 13.9914
O 3.6066 8.9533 8.91482
O 3.06887 4.99415 15.0495
O 6.40972 15.883 12.224
O 2.47143 7.70293 16.1049
O 2.89945 3.54187 2.65388
Si 4.54313 3.82403 11.627
Si 5.52903 16.9804 11.3528
Si 6.41139 6.72909 15.688
Si 13.0698 1.15281 15.4593
Si 7.2498 3.04224 14.4471
Si 7.49926 7.18103 13.0928
O 7.78396 6.39146 16.466
O 9.96955 17.9427 0.78702
O 7.11365 1.31089 14.6663
O 8.91847 7.16514 13.9663
O 8.26282 3.30672 13.0247
O 7.69682 6.0661 11.8547
O 5.52613 1.0225 16.594
O 5.62865 8.38771 10.2933
O 5.98574 6.75308 13.904
O 13.0869 2.39722 14.1618
O 4.91377 4.46505 3.9635
O 8.30933 3.81171 15.8726
Si 8.85108 4.68669 12.2837
Si 12.4173 17.875 11.5168
Si 10.339 6.06132 14.2621
Si 13.9832 16.7879 13.7416
Si 13.4922 2.29692 12.5625
Si 10.9661 6.40915 9.61558
O 10.1535 5.64346 15.8696
O 1.09859 0.912327 15.9056
O 0.464859 16.8696 16.7634
O 4.65497 3.43968 16.7816
O 13.5787 15.3194 14.3331
O 12.0297 5.45156 10.2433
O 10.3849 5.25993 12.7861
O 11.1678 7.97293 9.72457
O 13.4446 3.84354 11.8547
O 13.2825 17.8447 14.744
O 11.9318 6.21009 14.1923
O 13.7803 17.0234 12.1885
Si 0.752815 13.2744 13.7874
Si 3.408 10.6842 8.67349
Si 2.38212 15.3408 14.9698
Si 4.37006 11.6595 11.6532
Si 2.21022 10.9807 13.9945
Si 2.90422 2.15402 13.5967
O 1.95046 14.6637 16.3227
O 2.95762 10.1763 15.314
O 5.83116 10.9042 11.5462
O 2.5686 0.829218 12.7567
O 0.945837 10.4507 13.3877
O 5.78766 3.69177 14.606
O 1.94324 12.4497 14.527
O 4.0143 16.3701 11.2552
O 1.35764 15.0407 13.7311
O 9.76653 14.1884 11.47
O 3.12868 1.83291 15.19
O 4.50147 13.27 11.6781
Si 1.32007 15.1797 9.5567
Si 6.37206 9.41816 11.2691
Si 7.57664 15.1677 13.1575
Si 9.21663 11.1432 14.5503
Si 9.18699 13.7922 9.78696
Si 10.4378 16.3101 13.8942
O 3.64546 14.5937 1.00157
O 11.201 14.8429 13.9771
O 7.68039 13.705 12.6842
O 9.28227 12.325 15.6285
O 8.44175 12.3878 10.5454
O 7.78973 14.6732 9.40291
O 3.53135 11.3346 10.1224
O 12.4981 1.4309 11.6604
O 8.76739 16.0862 13.4724
O 10.5927 10.2415 14.2868
O 8.3608 15.8868 1.53039
O 7.98101 10.1632 14.9048
Si 12.6606 14.0911 14.076
Si 11.5648 9.33865 10.1865
Si 11.1482 17.4165 16.748
Si 15.107 10.2311 0.171025
Si 11.9748 9.75179 13.4601
Si 13.7751 11.858 15.066
O 10.371 17.1301 15.3497
O 14.2338 9.31957 1.29367
O 12.6891 8.15661 13.7506
O 2.35283 16.9126 15.0663
O 11.4285 9.56926 11.8495
O 14.9573 13.0405 14.8009
O 13.3031 10.8078 13.874
O 13.1066 13.1996 12.6692
O 12.4868 13.0853 15.4397
O 0.540655 9.27026 16.383
O 12.2339 16.9554 0.694299
O 13.9288 11.2512 16.5515
324
 Atoms. Timestep: 30500
Si 0.27078 4.69188 0.144497
Si 5.3847 15.8535 15.2028
Si 4.32879 8.42727 4.24988
Si 3.83262 1.88296 6.37868
Si 1.92269 1.15929 4.36945
Si 3.62754 5.48796 4.31402
O 3.99107 5.25905 5.91171
O 4.17305 1.80303 9.88245
O 2.61376 2.19699 5.37225
O 7.48023 8.40563 15.7856
O 2.66083 1.02318 2.93599
O 2.18938 4.88313 3.78416
O 0.916743 4.54763 1.65012
O 2.96052 5.80319 1.06442
O 3.81017 6.94839 3.54522
O 4.62467 0.470836 6.16404
O 3.42429 9.53 3.32322
O 4.99306 2.65002 5.93866
Si 2.4209 4.72735 2.16408
Si 8.28434 17.891 0.920716
Si 7.79616 5.33154 5.42505
Si 10.0763 3.12064 4.50951
Si 6.45391 0.851529 3.31267
Si 8.69295 4.67988 2.69198
O 6.76119 4.26938 6.03175
O 7.09851 1.55952 4.59202
O 9.05553 2.97855 3.3683
O 12.1402 5.25972 1.75932
O 7.03625 17.786 16.9836
O 8.58228 4.60201 1.14449
O 5.24455 1.61631 2.45479
O 8.89851 9.26038 0.358917
O 7.53542 5.458 3.71221
O 11.6179 3.80195 3.95825
O 6.53614 10.9402 2.60322
O 10.12 5.52145 3.17161
Si 8.37196 4.83494 16.7361
Si 0.810422 17.544 14.9964
Si 13.5955 5.63468 5.585
Si 15.1253 1.75818 2.37886
Si 15.3994 1.823 16.4539
Si 13.1999 5.70091 0.570602
O 12.7578 6.2599 4.30919
O 13.7298 2.0759 2.77393
O 15.367 1.57418 0.84189
O 13.5897 7.32099 0.876234
O 13.8421 1.94674 16.1902
O 0.31895 3.51902 16.3126
O 14.4168 4.66881 0.547698
O 12.216 6.14738 16.5472
O 15.2467 4.91051 5.57616
O 0.600659 2.29829 3.58977
O 1.09033 7.07862 5.50982
O 12.8062 4.15536 6.16586
Si 1.26513 15.9345 0.0115645
Si 2.13094 9.24703 16.7632
Si 2.18379 16.1916 4.2088
Si 4.22131 13.2814 1.81049
Si 1.73243 11.365 1.35012
Si 4.04586 16.0794 0.754474
O 13.8576 15.3704 8.4028
O 2.67772 11.6541 5.34063
O 1.49302 11.2401 2.96681
O 3.60535 16.5737 3.16079
O 2.36849 9.83897 0.931175
O 4.09339 15.3702 14.2462
O 3.05721 12.3631 1.23009
O 4.7338 15.7836 16.6595
O 2.58848 16.9539 0.536657
O 5.41192 12.5755 1.0149
O 3.20096 2.5883 7.9957
O 4.22717 13.102 3.49149
Si 9.26766 13.2477 12.2604
Si 7.92694 9.78119 16.1885
Si 5.22179 16.3338 3.35042
Si 9.52951 10.21 4.27258
Si 6.62833 11.6237 1.03047
Si 9.57905 15.1266 2.02097
O 5.64383 15.1272 4.1342
O 7.8327 10.6027 4.48274
O 7.99296 12.5351 0.739072
O 9.09864 13.9772 3.16844
O 6.6585 10.5716 16.6898
O 9.81033 14.2643 0.742136
O 10.0366 11.9963 12.9144
O 7.27538 0.491231 1.97697
O 5.40698 16.2559 1.62958
O 9.24581 9.36131 2.90439
O 5.97085 17.5224 4.06207
O 10.8823 11.2369 4.14859
Si 9.63001 12.5522 0.208149
Si 12.1972 7.37492 15.3756
Si 12.2585 16.6129 2.10964
Si 12.7154 8.65455 0.86663
Si 10.0229 9.80442 1.51884
Si 15.3422 16.0081 2.41063
O 11.0032 11.2893 6.94443
O 1.32539 9.10922 7.22348
O 11.4268 8.95259 1.65819
O 0.8227 15.4685 3.54053
O 11.8141 8.64391 16.5474
O 0.293657 15.333 1.18008
O 10.5766 11.3637 1.16752
O 14.8769 17.7323 3.09037
O 11.0999 15.5471 2.48302
O 0.428887 11.19 0.376368
O 12.1519 17.9938 3.19507
O 13.7898 15.6842 2.31072
Si 13.1983 2.82035 7.18546
Si 2.76312 1.68558 9.22007
Si 0.286388 6.36895 9.53356
Si 5.77781 1.80835 10.5787
Si 14.3471 0.054141 7.03688
Si 3.46012 5.8806 10.5791
O 14.9454 5.50542 10.4163
O 6.00395 0.36476 11.773
O 1.57372 2.47886 10.0209
O 5.952 7.75137 8.09225
O 0.634408 16.4406 9.60755
O 3.85389 7.15141 9.68304
O 14.55 1.70752 6.74556
O 1.71005 5.9717 10.3511
O 4.10192 4.65805 9.67485
O 7.11914 2.01883 9.77733
O 15.7264 7.98408 9.69642
O 5.65557 3.34833 10.9279
Si 5.24256 4.28117 5.41641
Si 6.4583 0.831202 6.08799
Si 4.65713 8.37532 9.22466
Si 8.68946 4.83097 9.47865
Si 8.13246 1.92049 8.47504
Si 7.46201 7.26177 7.97705
O 3.89417 5.37183 12.2096
O 11.1062 17.7255 12.9872
O 8.40513 3.51808 8.47626
O 8.6833 8.44287 8.33544
O 6.94168 1.13679 7.66127
O 7.88388 6.23839 9.16949
O 9.11335 4.26788 5.65434
O 7.38315 6.58691 6.51003
O 5.76264 8.96376 4.4297
O 9.97049 6.04609 9.55255
O 6.98742 10.0964 9.75066
O 8.73877 4.07227 10.8836
Si 11.7112 5.35068 3.27987
Si 13.541 0.372714 3.89383
Si 8.43456 9.80235 9.07577
Si 0.984101 2.27208 11.61
Si 10.6664 1.08784 6.82225
Si 0.219484 6.33342 6.46316
O 9.57171 9.97375 10.3985
O 12.1457 16.5739 10.565
O 12.0046 1.81895 7.57261
O 0.733838 6.20154 7.94129
O 11.1287 17.8072 6.36859
O 14.3511 3.86882 8.4338
O 9.42315 1.08115 7.88993
O 13.2976 12.7719 8.34208
O 14.2267 6.62966 6.90651
O 13.0155 17.6672 8.01001
O 8.55776 11.1377 7.94624
O 15.1371 1.62771 11.6815
Si 14.2272 13.9891 9.19028
Si 2.25797 10.5721 4.08079
Si 13.6835 12.9819 11.8823
Si 4.1815 14.4623 10.7732
Si 0.425234 9.46422 8.6834
Si 1.3601 17.1725 8.31229
O 6.56221 14.9237 14.9689
O 1.45928 10.4377 9.40633
O 3.71152 11.6046 7.64866
O 1.35906 15.8361 7.5204
O 3.60974 8.46437 5.87768
O 2.95805 14.8776 4.73242
O 0.0236538 13.7694 8.73123
O 2.47204 0.134807 8.45467
O 14.9024 13.1337 12.8167
O 2.7166 14.4395 9.65975
O 0.241958 -0.0152892 7.47486
O 3.98853 10.9052 13.3236
Si 4.33637 14.2291 4.7691
Si 6.29339 10.5377 4.44153
Si 6.28627 15.2807 8.9641
Si 9.61363 12.1378 7.24254
Si 4.05993 11.8835 6.16884
Si 7.55791 15.9584 6.55378
O 5.29892 14.3481 9.64904
O 7.9006 8.82485 11.8491
O 10.4356 9.23258 5.34669
O 10.0506 1.57596 5.30838
O 5.61325 11.2085 5.80118
O 7.71144 14.816 5.35295
O 4.64449 13.434 6.17649
O 7.42362 17.4586 5.9969
O 6.15872 15.5061 7.29428
O 9.68468 12.9185 8.67924
O 6.11282 16.799 9.68002
O 9.55863 12.9141 5.82019
Si 9.22695 14.2362 4.66354
Si 1.89434 8.49894 5.84739
Si 10.574 16.121 6.72738
Si 13.2767 11.309 9.27499
Si 11.7677 10.4701 5.66363
Si 12.5719 16.3491 8.95409
O 9.03927 16.1513 7.24806
O 12.1058 10.2393 9.52632
O 1.25208 9.71392 5.02864
O 13.9741 14.2745 10.8703
O 13.291 10.4614 5.73363
O 1.89089 17.6812 4.84929
O 10.5369 15.1167 5.34817
O 13.8108 17.7428 5.53599
O 11.4461 15.8332 7.99972
O 14.6476 10.4281 8.69812
O 11.4627 1.04468 15.586
O 13.8358 11.6972 10.8106
Si 13.9245 4.53277 9.78416
Si 6.44192 0.397153 15.702
Si 2.52143 6.37779 16.7511
Si 3.69817 1.79439 1.87422
Si 4.13403 2.10225 16.3688
Si 4.54669 4.96239 15.91
O 0.90767 6.10346 16.5974
O 5.73775 17.4176 14.8171
O 3.3683 1.26117 0.361581
O 5.09485 6.45871 16.179
O 1.62774 3.39229 13.0604
O 4.19879 2.87334 12.8794
O 0.00212221 17.0558 13.5135
O 3.67281 9.46814 8.922
O 2.9366 5.28273 15.4991
O 6.90359 16.3671 12.4052
O 2.98552 7.95864 16.4554
O 3.51599 3.56005 1.91124
Si 4.37416 3.95036 11.4762
Si 5.68848 16.797 11.4461
Si 6.64243 7.02223 15.6138
Si 13.0341 1.15559 15.025
Si 6.70577 3.12242 14.8245
Si 7.82058 7.37809 12.8081
O 7.69554 6.16795 16.3658
O 9.53761 0.461696 -0.0123602
O 7.14082 1.47748 14.6455
O 8.8774 6.96845 14.0038
O 7.17777 3.58148 13.334
O 7.73084 6.12417 11.9048
O 5.65605 1.72649 16.3192
O 5.50341 8.18036 10.7312
O 6.56787 7.40436 13.8389
O 13.3929 2.20923 13.6973
O 5.06556 4.49876 3.87924
O 7.3722 3.59021 16.3457
Si 8.16 4.29847 12.4611
Si 12.0422 17.6982 11.6744
Si 9.98623 5.72665 14.3034
Si 14.1461 16.5993 13.6573
Si 13.5716 2.20267 11.897
Si 11.5091 6.66981 9.97854
O 9.83847 4.79646 15.8853
O 0.8373 1.02559 15.4835
O -0.0097447 16.8158 16.3343
O 4.11045 3.66345 16.892
O 13.3357 15.3318 14.2466
O 12.7908 5.72057 9.6175
O 9.70193 4.41162 13.1463
O 11.469 7.95184 10.713
O 13.2868 3.5456 11.1337
O 13.5926 17.705 14.7701
O 11.6288 6.21589 14.2771
O 13.4611 16.9812 12.3669
Si 0.53862 13.1948 13.8261
Si 2.98418 11.0492 8.95219
Si 2.73542 14.9203 14.8598
Si 4.6155 11.5127 11.7726
Si 2.75284 11.4461 14.3829
Si 2.80046 2.19405 13.4561
O 2.07272 14.7874 16.3202
O 2.88886 10.198 15.5648
O 6.02826 10.8663 12.0737
O 2.28607 0.994863 12.1218
O 1.38522 11.5796 13.4195
O 5.67781 4.41733 14.6831
O 2.96994 13.0949 14.9283
O 4.32692 15.8537 11.6604
O 1.33135 14.3941 13.6606
O 10.107 14.2218 11.1291
O 3.31835 1.61266 14.9909
O 4.2524 13.2646 11.7205
Si 1.28929 14.9677 9.12931
Si 6.60746 9.42076 11.1691
Si 7.59235 15.4595 13.6547
Si 10.0657 11.3349 14.5397
Si 8.99613 13.8531 9.78608
Si 10.3106 16.6671 14.2038
O 3.61901 14.6056 1.15192
O 10.6775 14.8605 13.9181
O 8.3231 13.9798 13.4452
O 9.80873 12.4483 15.8497
O 8.30555 12.7581 10.8723
O 7.76695 14.7787 8.97893
O 3.67146 11.4684 10.3334
O 12.1784 1.33031 11.5481
O 8.68718 16.4112 14.2824
O 11.4301 10.6174 14.7536
O 8.44805 16.4544 1.71083
O 8.65108 10.5581 14.8315
Si 12.142 14.1454 14.0441
Si 11.1022 9.59448 10.7069
Si 10.9869 17.973 16.6968
Si 15.1259 9.96341 16.972
Si 12.5752 9.90745 13.5996
Si 13.9584 12.0688 14.9628
O 10.3411 16.7039 15.9181
O 14.1568 9.60734 1.02089
O 13.0666 8.29838 14.1404
O 2.18067 16.7791 14.7838
O 11.6441 9.5798 12.2574
O 15.3901 12.6813 15.1209
O 13.7039 10.9686 13.6342
O 12.2297 13.4161 12.5504
O 12.6557 12.949 14.8982
O 0.443392 8.79717 16.463
O 11.9857 17.3738 0.506426
O 13.94 11.0486 16.211
324
 Atoms. Timestep: 31000
Si 0.381431 4.47786 0.00529981
Si 5.2622 15.8448 15.1077
Si 4.09269 8.70408 4.90499
Si 3.79917 1.81361 6.56245
Si 2.19182 0.87628 3.89654
Si 3.98952 5.85085 4.3248
O 4.20308 5.76488 5.90316
O 4.26712 1.2555 9.58161
O 3.02651 1.21209 5.30921
O 6.75707 8.41495 16.8426
O 2.79426 0.722206 2.4297
O 2.63382 5.31471 3.42505
O 0.9996 4.30231 1.48201
O 3.13374 5.92494 0.764624
O 3.92507 7.36743 3.83388
O 4.99845 0.534371 6.93569
O 3.16663 9.77728 4.09196
O 4.86477 3.0722 5.86631
Si 2.65778 4.84207 1.86772
Si 8.41943 18.076 0.744374
Si 8.45817 5.34772 5.39525
Si 9.98528 2.9836 4.31171
Si 6.41011 0.725985 2.86051
Si 8.95012 4.75319 2.62841
O 7.03475 4.581 5.93436
O 6.56521 1.56659 4.36458
O 8.68053 3.31076 3.04884
O 12.2336 4.4182 1.14085
O 7.31126 0.0888121 16.9026
O 8.68174 4.85187 1.08552
O 5.33523 1.57105 1.86547
O 9.18421 9.50253 0.466539
O 8.28621 5.86166 3.76532
O 11.4864 3.0733 3.74445
O 6.19891 11.2877 3.15971
O 10.6126 5.0935 2.79013
Si 8.57544 5.05789 16.7913
Si 0.743178 17.6613 14.9015
Si 13.7541 5.05361 5.48611
Si 15.5046 1.54309 2.12731
Si 15.5898 2.08113 16.1584
Si 13.4856 5.82333 0.402955
O 13.069 4.81613 3.9941
O 14.0473 1.98571 3.04948
O 15.272 1.87266 0.529802
O 13.2883 7.24618 1.11151
O 14.0483 2.3422 15.6271
O 0.235291 3.61668 15.9845
O 14.6608 4.75254 0.674814
O 13.2282 6.25809 15.8562
O 15.2089 4.52276 5.98456
O 0.936694 1.96717 3.1972
O 1.27411 6.95735 6.27094
O 12.8373 4.29971 6.69125
Si 0.961062 16.0564 16.8551
Si 1.22453 9.52323 16.6148
Si 1.58922 16.3181 4.47244
Si 3.83665 12.8503 1.9897
Si 1.41821 11.469 1.4797
Si 3.74218 15.8061 0.537081
O 14.27 15.4125 8.44554
O 2.13799 11.4557 5.68032
O 1.64606 11.1236 3.1131
O 3.36209 16.9839 3.94113
O 1.48707 9.98751 0.851452
O 4.0793 15.4151 14.1509
O 2.60562 12.4053 1.14987
O 4.90188 15.5398 16.6041
O 2.4508 16.7678 0.21286
O 5.25449 12.2994 1.05634
O 2.86057 2.44987 7.83512
O 3.72379 12.8674 3.64321
Si 9.20684 13.0813 12.657
Si 7.76344 9.75253 16.9062
Si 4.68813 16.6547 3.24501
Si 8.88855 10.1396 4.42956
Si 6.80367 11.9261 1.41286
Si 9.73647 15.3107 2.08995
O 5.00479 14.986 3.82427
O 7.51657 10.443 5.37582
O 8.12947 12.892 1.24247
O 9.42019 14.2634 3.49732
O 6.91604 10.5345 0.664259
O 10.1374 14.2335 1.05523
O 9.63351 12.2036 13.7987
O 7.70829 0.702356 2.02807
O 4.76723 16.7005 1.64922
O 9.05171 9.53381 2.96008
O 6.02287 17.5279 3.56498
O 9.97414 11.2883 4.64147
Si 9.71663 12.7255 0.792686
Si 12.4862 7.7125 15.3783
Si 12.5875 17.1124 1.85325
Si 12.7549 8.79866 0.891896
Si 10.0897 9.99345 1.83191
Si 15.3333 16.2441 2.20969
O 11.2785 11.6327 6.72635
O 0.621579 9.23421 7.50296
O 11.6862 9.37676 1.97383
O 0.588253 15.651 3.27722
O 12.4205 8.87393 16.5823
O 0.159707 15.5116 0.877681
O 10.5238 11.6696 1.52258
O 15.4237 17.869 2.52587
O 11.1896 16.4339 1.92114
O 15.5958 12.02 0.964619
O 12.3751 -0.0849394 3.26032
O 13.6535 15.9278 2.31735
Si 13.1289 2.69251 7.63182
Si 2.8775 1.22746 9.02786
Si 0.244428 6.03715 9.80841
Si 5.64425 1.48286 10.4696
Si 14.621 -0.0293198 6.92607
Si 3.65123 5.65111 10.2139
O 14.944 5.19953 10.6142
O 6.21991 0.209416 11.2889
O 1.50292 1.35313 10.2515
O 6.45849 7.38727 8.23574
O 0.734349 16.3389 9.81157
O 4.06461 6.68342 9.05307
O 14.3904 1.58763 7.06071
O 1.84447 5.80456 9.96797
O 3.50219 3.85812 10.1085
O 6.99161 1.56487 9.62957
O 0.529536 7.7131 9.76842
O 5.55917 2.81294 11.5997
Si 5.3638 4.49363 5.49791
Si 6.50481 1.04387 6.06475
Si 5.15096 8.0447 9.14749
Si 8.72748 4.29405 9.41744
Si 7.9523 1.79605 8.29946
Si 7.90217 6.87697 7.92582
O 4.91239 5.28427 11.3824
O 11.002 17.1745 12.5298
O 8.81623 3.09193 8.35947
O 8.81393 8.25365 8.27906
O 6.9415 2.16502 7.09526
O 7.91215 5.63567 8.72663
O 9.75744 4.33352 5.46351
O 8.63273 6.48645 6.56254
O 5.72175 8.96711 4.57229
O 10.0281 5.33493 9.69455
O 7.52507 9.87613 10.0062
O 8.16092 3.89423 10.8509
Si 12.0554 4.52027 2.65677
Si 13.6232 0.5147 3.9396
Si 8.56934 9.81018 8.8465
Si 0.834657 1.73922 11.7456
Si 10.2399 1.24736 6.83318
Si 15.6721 6.09378 6.63658
O 9.98799 9.74357 10.1408
O 12.1211 16.5732 10.0673
O 11.3957 2.43642 7.41171
O 15.2911 5.93277 8.26475
O 10.9506 18.0524 6.2619
O 13.3591 3.11555 9.09951
O 9.03329 0.756852 8.03506
O 14.2777 12.3065 8.42171
O 14.3786 6.82518 5.93158
O 13.2197 17.5503 7.63926
O 8.77041 10.986 7.83791
O 14.9047 1.345 11.4971
Si 14.5104 13.9159 8.87662
Si 1.75864 10.3902 4.41732
Si 13.9525 13.0216 11.5492
Si 4.19842 14.4969 10.6947
Si 0.629922 9.27028 9.09098
Si 1.39886 16.9453 8.26072
O 6.71634 15.2991 14.9542
O 2.20476 9.88639 9.28995
O 4.09529 11.8803 8.03922
O 2.24228 15.6947 8.11118
O 3.21222 8.97535 6.24351
O 2.24397 14.9156 4.6898
O 0.539256 13.7749 8.59805
O 2.51131 -0.0825583 8.3264
O 15.5589 13.0111 12.0721
O 2.67244 14.1814 10.2215
O 0.167913 17.2273 7.38376
O 4.19453 11.4225 13.6228
Si 3.66571 14.1103 4.62445
Si 6.19789 10.6089 4.57449
Si 6.72414 14.9077 8.78723
Si 9.77703 12.1868 7.30619
Si 3.74169 11.8191 6.21012
Si 7.53309 16.3362 6.44818
O 5.39237 14.3161 9.54977
O 7.11481 8.65428 12.4753
O 9.53095 8.88503 5.43613
O 9.54186 1.8374 5.38919
O 4.86969 10.7575 5.8245
O 7.77866 15.4068 5.1199
O 4.27021 13.3672 6.01232
O 7.12973 17.6628 5.79145
O 6.52552 15.1937 7.25355
O 10.187 12.801 8.78894
O 6.57933 16.4015 9.6216
O 8.99785 13.282 6.39505
Si 9.01002 14.4423 5.11581
Si 1.62339 8.67238 6.49279
Si 10.5067 16.3776 6.73227
Si 13.967 10.9488 9.44013
Si 11.1872 10.3678 5.6445
Si 12.8257 16.4028 8.59562
O 8.86399 16.4786 7.36032
O 12.6805 9.96966 9.49611
O 1.05331 9.16718 5.00583
O 13.766 13.9635 10.3435
O 12.4124 9.5731 5.20151
O 1.29194 17.8264 4.42472
O 10.4269 15.4249 5.42553
O 14.4959 18.1227 5.25175
O 11.6066 15.5929 7.69971
O 15.5498 10.4684 9.91616
O 11.8259 1.64445 15.9289
O 13.6103 11.5339 10.8656
Si 13.7537 4.27459 10.2551
Si 6.36275 0.488643 15.5838
Si 2.22149 6.56585 16.716
Si 3.76945 1.84377 1.75158
Si 3.87026 2.26966 16.1199
Si 4.74171 5.06681 15.7365
O 0.547407 6.11844 16.8111
O 5.5571 17.398 15.0785
O 3.15481 1.48307 0.135741
O 5.25981 6.34198 16.6513
O 0.737663 3.07569 12.7067
O 3.53453 3.50541 12.6569
O -0.0987487 17.6161 13.3084
O 4.59704 9.50452 8.66995
O 2.95457 5.60408 15.3658
O 6.48414 16.0454 12.533
O 1.87652 8.15793 16.152
O 3.39232 3.43352 2.16028
Si 4.43563 3.80482 11.3513
Si 5.91104 16.7927 11.0953
Si 6.61488 7.03038 15.9919
Si 12.967 1.48412 14.7245
Si 7.16504 3.31397 14.8679
Si 7.12299 7.31451 13.2357
O 7.79507 6.48068 16.7618
O 10.1471 0.295147 0.315551
O 7.25291 1.3845 14.5799
O 8.43502 7.15432 14.0947
O 7.93262 3.67539 13.4723
O 7.40438 6.19623 11.8605
O 5.08016 1.48132 15.4357
O 5.50621 8.30224 10.7569
O 6.05139 6.97195 14.4803
O 12.7985 1.80814 13.2924
O 5.40777 4.92203 3.89418
O 7.47943 3.671 16.4238
Si 8.24854 4.68494 12.3528
Si 12.2907 17.6034 11.2728
Si 9.86246 6.27473 14.1465
Si 14.207 17.104 13.4283
Si 13.4537 1.98874 11.8633
Si 11.38 6.14701 9.66429
O 9.74468 4.94976 15.5104
O 0.755425 1.02673 15.3955
O 15.4242 16.8592 15.9467
O 4.51073 3.74988 16.9038
O 14.0249 15.5423 14.1098
O 12.5943 5.14008 9.57896
O 9.77323 5.42351 12.8242
O 11.2942 7.60121 10.4698
O 13.2308 3.60129 11.672
O 13.3269 -0.0200741 14.5063
O 11.1223 7.04879 14.8769
O 13.631 16.8771 11.9644
Si 0.590873 13.0508 13.533
Si 3.4621 10.661 9.10527
Si 2.578 14.705 14.7621
Si 4.63674 11.9521 11.876
Si 2.7695 11.6263 14.3782
Si 2.19529 2.67562 13.4235
O 1.54981 14.6857 16.1967
O 2.58986 10.5557 15.6827
O 6.26708 10.9289 11.7818
O 1.87563 1.10295 12.8796
O 1.46588 11.6838 13.3388
O 5.68496 4.08927 14.63
O 3.01837 13.1489 15.1906
O 4.33186 16.1877 10.9323
O 1.25782 14.6634 13.8122
O 10.4044 13.8451 11.3896
O 2.86882 2.80128 14.965
O 4.77129 13.5071 11.7383
Si 1.4718 14.7401 9.40999
Si 6.5645 9.6208 11.2303
Si 7.6364 15.5633 13.5982
Si 9.70662 11.3833 15.2239
Si 9.36185 13.0908 10.1805
Si 10.6026 16.6532 14.0589
O 3.38918 14.469 1.53494
O 11.2769 15.0811 14.3651
O 7.92379 14.0524 12.8091
O 9.85104 12.2731 16.5534
O 9.02095 12.1315 11.3707
O 7.77187 13.778 9.59294
O 4.04343 11.439 10.5845
O 12.2888 1.05025 10.9248
O 9.02813 16.3954 13.7846
O 10.9462 10.213 14.7157
O 8.52542 16.4059 1.52792
O 8.13081 10.9058 15.7406
Si 12.6668 14.3811 13.9625
Si 11.4605 9.24465 10.3817
Si 11.4379 0.36315 16.5448
Si 14.6992 10.7894 0.0878715
Si 12.1513 9.76528 13.4204
Si 13.7299 12.0706 14.8567
O 10.8637 17.5172 15.356
O 14.1322 9.67588 1.17873
O 12.9539 8.58349 14.1534
O 2.07196 16.7529 15.1756
O 11.5817 9.18464 11.9556
O 15.3335 12.5373 14.6758
O 13.4089 10.9789 13.6743
O 12.9235 13.6056 12.6006
O 12.7275 13.3265 15.0613
O 15.5832 10.0481 16.1695
O 12.7409 17.9395 0.391713
O 13.7258 11.6694 16.4706
324
 Atoms. Timestep: 31500
Si 0.523688 4.6517 -0.108729
Si 5.1977 15.916 15.0817
Si 3.84421 9.02365 4.41298
Si 3.65879 2.21424 6.23435
Si 2.03715 1.29326 3.95589
Si 3.82775 6.16561 3.91094
O 4.02749 6.08493 5.67071
O 4.11425 1.1806 9.91688
O 2.23717 2.01856 5.28231
O 6.33234 8.53995 -0.0172878
O 3.58871 1.25679 3.15434
O 2.36339 5.45884 3.53006
O 1.17833 4.58034 1.4053
O 3.3798 6.0354 0.708561
O 4.11389 7.71812 3.25112
O 4.7761 1.09602 5.60528
O 2.84972 10.1601 3.85064
O 4.59864 3.65134 6.06396
Si 2.61457 4.98823 1.8363
Si 8.12043 17.8494 0.372139
Si 8.33021 5.53044 5.17222
Si 10.1226 3.08596 4.61054
Si 6.64405 0.472413 2.89316
Si 9.35439 5.14795 2.84413
O 6.93905 4.87155 5.62872
O 7.01841 1.45042 4.26575
O 9.17589 3.4983 3.19714
O 12.6283 4.38126 1.12996
O 6.86409 0.210626 16.8598
O 9.23805 5.42287 1.14081
O 5.69731 1.46926 2.01329
O 8.6906 8.97239 0.517943
O 8.56426 6.17108 3.84561
O 11.6143 3.13739 3.93421
O 6.05047 11.8028 3.61093
O 11.0638 5.46143 2.93159
Si 8.65639 5.17415 16.9427
Si 1.06787 17.4853 15.186
Si 13.8279 4.41758 5.25981
Si 15.5142 1.71935 1.95154
Si 0.28946 1.77057 16.3264
Si 13.3936 5.74405 0.622098
O 13.6754 4.52797 3.58789
O 14.2531 1.75149 3.14797
O 15.1516 1.39116 0.348067
O 13.2037 7.13598 1.48056
O 14.4838 1.9879 15.374
O 0.508091 3.30547 16.2528
O 14.8077 5.07442 0.607524
O 12.6882 5.96427 16.4802
O 15.6344 4.22347 5.32106
O 1.19726 1.93879 2.50108
O 0.455436 7.05602 5.28321
O 12.8577 3.32846 5.85521
Si 1.15881 15.8554 -0.0165153
Si 1.76019 9.53554 16.7509
Si 1.38591 16.6939 3.93985
Si 3.40472 13.2158 2.00108
Si 1.18187 11.0166 1.74612
Si 3.7734 16.0506 0.759811
O 13.9901 14.6967 7.65388
O 2.09997 11.6914 5.66276
O 0.855059 11.1359 3.22595
O 3.05138 16.8611 3.35652
O 1.82827 9.56476 1.02171
O 4.08275 15.1325 14.0465
O 2.24463 12.2066 1.3253
O 4.6906 16.0649 16.5928
O 2.40581 16.9557 0.248945
O 4.80462 12.7048 1.42829
O 3.12273 1.91416 7.70139
O 3.25054 12.992 3.64406
Si 8.8593 12.9985 12.4473
Si 7.30672 9.837 17.2787
Si 4.66878 16.6106 3.39779
Si 9.30047 9.99796 4.73155
Si 6.20542 11.974 2.09059
Si 9.22122 14.9657 1.94504
O 4.71071 15.0968 3.94168
O 7.74978 10.588 5.20027
O 7.58827 12.8298 1.60357
O 8.84131 14.3889 3.40211
O 6.76038 10.779 1.19576
O 9.92515 13.9723 0.726214
O 9.31515 11.8984 13.6872
O 7.90863 0.151637 1.85917
O 4.90914 16.738 1.73473
O 8.88833 9.24657 3.39767
O 6.01417 17.6059 3.7118
O 10.5306 10.906 4.13906
Si 9.19049 12.4442 0.804381
Si 12.509 7.47581 15.6463
Si 11.716 16.8031 1.59422
Si 12.3985 8.45041 1.1121
Si 9.5479 9.48837 1.86894
Si 14.9913 16.2303 2.08398
O 11.2912 11.3759 6.92396
O 0.977171 8.28345 7.575
O 11.2827 9.01407 2.24065
O 0.0259738 16.0282 3.39709
O 12.1823 8.63869 16.8244
O -0.0490817 15.3858 0.916584
O 9.87538 11.1789 1.60491
O 14.9898 17.8954 2.32223
O 10.7845 15.8304 2.30754
O 15.5733 11.1633 0.977153
O 12.4121 -0.0564575 2.43061
O 13.355 16.2068 1.6982
Si 13.5011 2.65853 7.27556
Si 2.79733 1.47772 9.24283
Si 0.472612 5.87357 9.63765
Si 5.70221 1.22996 10.2753
Si 14.7406 -0.13702 6.42215
Si 3.65479 5.68237 9.70324
O 15.4003 4.91822 10.557
O 6.51201 0.00950297 11.0961
O 1.3745 2.4046 10.0373
O 6.61378 7.92774 7.61581
O 0.238552 16.1224 9.54081
O 4.51155 6.60619 8.62042
O 14.9326 1.80476 6.98787
O 2.11406 6.02005 9.50171
O 3.6717 3.84236 9.63461
O 6.68061 1.35012 8.84301
O -0.0106801 7.41879 9.96369
O 5.99718 2.68466 10.984
Si 5.18822 4.75721 5.2492
Si 6.36658 0.936512 5.65571
Si 5.32398 7.91853 8.88165
Si 8.97544 4.93809 9.34995
Si 7.89146 2.06102 7.99515
Si 7.94622 7.17918 7.64464
O 4.42269 5.73152 11.1519
O 10.8485 17.2522 11.8334
O 8.30902 3.61296 8.56223
O 9.14162 8.30893 8.0521
O 7.12215 2.09665 6.59943
O 7.85897 6.1788 8.78626
O 9.44045 4.35373 5.42675
O 8.70805 6.63844 6.30476
O 5.14814 9.72948 5.01569
O 10.4589 5.74597 9.1891
O 8.63946 9.46249 10.5376
O 8.83477 4.99741 10.9584
Si 12.163 4.39393 2.99953
Si 13.7714 0.182665 3.28177
Si 9.2466 9.89345 8.99949
Si 0.829419 2.11239 11.6434
Si 10.6134 1.11595 6.88562
Si -0.0736893 5.63761 6.16325
O 10.6411 10.1429 9.68523
O 12.8513 16.5955 9.82925
O 12.1101 1.61403 7.47702
O 0.336583 5.59341 7.75251
O 10.8462 17.8193 6.3389
O 13.4893 3.53156 8.64262
O 9.48187 1.35398 8.03713
O 14.2197 11.7649 8.84618
O 13.8709 5.58523 6.47241
O 14.1209 17.027 7.28799
O 8.81422 11.1895 7.9893
O 15.0659 1.82061 11.8262
Si 14.413 13.5195 8.63792
Si 1.39743 10.7511 4.63131
Si 14.0325 13.5012 11.5287
Si 4.33932 14.3055 10.8386
Si 0.755163 8.72191 9.22388
Si 1.08316 17.1111 8.4494
O 6.66446 15.0724 15.1866
O 2.37517 8.95534 9.78016
O 3.05225 11.4416 7.97064
O 1.79065 15.6449 7.7168
O 2.78938 8.61171 5.67775
O 1.84835 15.2149 4.68969
O 0.38024 13.7921 8.58257
O 2.16004 -0.197525 9.10905
O 15.388 13.9637 12.2207
O 2.75923 14.2883 9.71772
O 0.464736 18.0658 7.05312
O 3.75368 10.8839 13.3305
Si 3.18731 14.4456 4.57421
Si 6.15103 11.0063 5.12097
Si 6.64173 14.4899 9.17052
Si 10.0624 12.22 7.43492
Si 3.61127 12.1935 6.59574
Si 7.38616 16.2184 6.68362
O 5.29407 13.7071 9.71719
O 7.35283 8.72929 12.5664
O 10.2575 9.29378 5.90268
O 10.0705 1.96698 5.65711
O 5.32131 11.9641 6.40986
O 7.92217 15.2743 5.4442
O 3.53548 13.9374 6.23939
O 6.72283 17.6616 6.38215
O 6.45721 15.6729 8.05373
O 10.3318 13.2633 8.52942
O 7.34019 15.6036 10.3716
O 9.27026 12.8703 5.96363
Si 9.19278 14.2592 5.07701
Si 1.25179 8.27659 5.97368
Si 10.4168 16.1866 6.67836
Si 14.5812 10.9284 10.0219
Si 11.4447 10.3292 5.60472
Si 13.0176 16.0221 8.35421
O 8.95238 16.1572 7.36712
O 13.5192 9.68171 10.1191
O 0.529952 9.66626 5.36174
O 13.8949 14.0591 10.0495
O 12.9299 9.96386 5.45688
O 1.52771 -0.0580874 4.64442
O 10.5323 15.3571 5.172
O 14.1323 17.8636 4.81642
O 11.5173 15.3023 7.72163
O 0.275293 10.4292 9.59563
O 11.956 1.09705 16.0813
O 13.9584 11.8169 11.3549
Si 13.8203 4.31716 9.99726
Si 5.93422 0.539237 15.6417
Si 2.61121 6.72301 16.6926
Si 3.98522 2.03366 1.82809
Si 3.50803 2.29204 16.1999
Si 4.67212 5.08875 15.6843
O 1.17704 5.94577 16.6098
O 5.45481 17.4899 14.8014
O 2.91064 1.82508 0.471364
O 5.60036 6.03255 16.716
O 0.965062 3.56436 12.8692
O 3.78256 3.07959 12.3895
O -0.0297061 17.8262 13.7776
O 4.51362 9.33416 8.61841
O 3.73091 6.33087 15.4392
O 6.92638 16.5872 13.071
O 2.56399 8.17585 16.4938
O 3.54002 3.62355 2.03428
Si 4.37056 3.75426 11.0684
Si 6.30561 16.6426 11.5242
Si 6.5305 7.24865 16.3475
Si 13.1089 1.2889 15.098
Si 7.162 3.34727 15.0337
Si 7.53634 7.66507 13.7718
O 8.04439 6.7397 16.9301
O 9.38604 0.49387 7.55449e-05
O 6.64873 1.8639 14.6024
O 9.24667 7.83398 14.4554
O 8.32292 3.66416 13.9313
O 7.17358 6.23724 12.9211
O 4.48281 1.15954 16.0609
O 5.98983 8.10742 10.4418
O 6.50818 7.66891 14.8531
O 12.8218 1.84437 13.5558
O 5.02377 4.81933 3.64605
O 7.60498 3.80608 16.5906
Si 8.63095 4.84976 12.7733
Si 12.3438 17.5655 11.1769
Si 10.0073 6.47057 14.6573
Si 14.3099 17.1484 13.6661
Si 13.4089 2.04589 11.9552
Si 11.7383 6.47561 9.88338
O 9.7723 5.21 15.749
O 1.34603 0.821508 15.6428
O 0.224852 16.9309 16.4345
O 3.86554 3.91193 16.4874
O 14.2891 15.5637 14.128
O 13.2983 5.90537 9.83395
O 10.0727 5.64283 13.2409
O 11.6059 7.81461 10.7621
O 13.0933 3.5991 11.3322
O 13.3662 17.8621 14.7889
O 11.1981 7.11716 15.1384
O 13.354 16.9265 12.3699
Si 0.297957 13.0585 13.5266
Si 3.344 10.3331 9.23944
Si 2.54182 14.7353 14.7568
Si 4.59484 11.3814 11.8002
Si 2.74329 11.6541 14.4321
Si 2.35809 2.56627 13.2179
O 1.74995 14.5619 16.3772
O 2.4158 10.6546 15.757
O 6.15099 10.595 11.2039
O 1.94818 1.22197 12.322
O 1.49223 11.6903 13.3614
O 5.78868 4.11419 14.9807
O 3.21764 13.0939 14.8374
O 4.77828 15.9043 11.3104
O 1.17323 14.35 13.7568
O 9.72792 14.0886 11.3412
O 2.8304 2.39647 14.7249
O 4.67737 13.0661 11.9123
Si 1.37932 14.8473 9.0906
Si 6.98476 9.26863 11.0549
Si 7.46278 15.1807 13.7989
Si 9.3587 11.1153 15.0312
Si 9.40067 13.2915 9.887
Si 10.438 16.567 13.642
O 3.08573 14.6771 1.36296
O 11.7453 15.7534 13.9888
O 7.48695 13.6529 12.9364
O 9.52332 12.2962 16.5527
O 8.74183 11.9288 10.9757
O 7.83288 13.425 9.00737
O 3.43645 11.0224 10.6216
O 12.7821 0.877821 11.0508
O 9.14551 15.4708 13.7786
O 10.4239 9.84934 14.665
O 8.8039 16.2686 0.824936
O 7.41828 10.5539 15.8344
Si 12.9593 14.6386 13.9449
Si 11.8928 9.49123 10.7039
Si 10.6523 0.052805 16.4802
Si 14.7256 10.3258 0.0891339
Si 11.8725 9.99096 13.8243
Si 13.5332 12.1628 15.1263
O 10.4048 17.6832 14.8281
O 13.6675 9.53806 1.05586
O 12.7367 8.48938 14.2831
O 2.49214 16.7569 14.7355
O 11.5885 9.92108 12.2222
O 15.0434 12.5324 14.4523
O 12.3449 11.6665 14.06
O 12.7914 13.9959 12.4037
O 13.0488 13.8295 15.3439
O 0.0696812 9.48203 16.5795
O 11.1906 17.0195 -0.0882419
O 13.8578 11.2553 16.5034
324
 Atoms. Timestep: 32000
Si 0.545754 4.69192 17.0327
Si 5.29615 15.889 15.0494
Si 3.97037 9.14707 4.38834
Si 3.75694 2.45644 6.29138
Si 1.60871 1.59948 4.17395
Si 4.21021 6.19388 4.03386
O 4.45156 6.43163 5.63992
O 4.21564 1.32074 9.51583
O 2.34133 2.26068 5.32908
O 6.12737 8.36385 16.8798
O 2.71083 1.6516 2.7488
O 2.85918 5.35982 3.5172
O 1.27767 4.85248 1.22957
O 3.28328 6.27642 0.583094
O 4.06485 7.71954 3.36175
O 4.81655 1.11729 6.21608
O 3.19685 10.3468 3.4266
O 4.75568 3.84378 5.99245
Si 2.90362 5.17196 1.69826
Si 8.17229 17.1937 0.807729
Si 8.34671 5.54188 5.50357
Si 10.1555 3.35774 4.36989
Si 6.36495 1.07133 2.84073
Si 8.82417 4.85014 2.6413
O 6.95456 5.17522 6.35672
O 6.971 1.74111 4.25131
O 8.8904 3.41905 3.39778
O 12.4149 4.80898 1.14679
O 6.99543 17.4402 16.8507
O 8.91447 4.74633 0.984038
O 5.38152 2.1466 1.96791
O 8.6123 8.95828 0.817554
O 8.03218 5.74074 3.89051
O 11.4724 3.50121 3.47837
O 6.91842 11.5987 3.39997
O 10.3754 5.34429 2.32839
Si 8.73422 5.28465 16.7946
Si 1.13348 17.4271 15.0775
Si 14.0109 4.50413 5.27386
Si 15.0681 1.32491 2.08382
Si 0.0127822 1.80348 16.3123
Si 13.5541 5.8751 0.384855
O 13.5717 4.85969 3.71444
O 13.5781 1.59711 2.60683
O 15.4536 1.73978 0.582747
O 13.2409 7.28314 1.12358
O 14.178 2.05538 15.6351
O 0.622782 3.39872 16.2832
O 14.7998 4.76723 0.4686
O 13.4933 6.47823 16.1292
O -0.00435287 4.56015 4.87325
O 0.150766 1.92612 3.4446
O 0.870285 7.1163 5.53638
O 13.2578 3.06679 5.48317
Si 1.4065 15.8392 0.00846281
Si 1.64127 9.57991 16.576
Si 1.31986 16.5884 4.40268
Si 3.49243 13.5018 2.33236
Si 1.19111 11.7027 1.57485
Si 3.90992 16.1122 0.500387
O 13.8272 14.5361 8.0939
O 2.40289 11.538 5.69617
O 0.739946 11.3733 3.14856
O 2.90907 16.4235 3.37154
O 1.94576 10.5252 0.557753
O 4.06768 15.0748 14.3197
O 2.19986 12.9692 1.32185
O 5.02518 15.58 16.6813
O 2.56158 16.9002 0.395905
O 4.72848 12.44 2.37256
O 3.05715 2.53327 7.63804
O 3.354 13.4701 4.0078
Si 8.37316 12.7495 12.4965
Si 7.25913 9.41316 0.0910169
Si 4.69576 16.8315 3.25059
Si 9.17188 10.2701 4.79683
Si 6.26261 11.8135 1.95896
Si 9.45937 15.1151 2.2704
O 4.98268 15.5467 4.34258
O 7.76141 10.1056 5.60909
O 7.22992 12.9147 1.1357
O 8.93076 14.3146 3.68884
O 6.41558 10.4166 1.08133
O 9.58291 13.9415 1.06291
O 8.538 11.617 13.5939
O 7.37364 0.501777 1.76612
O 4.75468 17.0333 1.53646
O 8.88215 9.26922 3.39067
O 5.06051 0.239558 3.51925
O 9.98587 11.7222 4.56385
Si 8.90655 12.6474 0.607924
Si 12.3742 7.6228 15.5181
Si 12.1849 16.8328 1.57589
Si 12.115 8.63965 1.0745
Si 9.58594 9.81225 1.88948
Si 15.2477 16.2628 2.14169
O 11.2365 11.8345 7.10077
O 0.242088 9.05436 7.16264
O 11.3004 9.69184 1.9535
O 0.188484 15.6356 3.46137
O 11.2944 8.20788 16.9864
O 0.182955 15.4611 0.931575
O 9.44965 11.3171 1.25366
O 15.6659 17.8617 2.14526
O 10.7471 16.0906 1.847
O 15.3874 11.8114 1.08735
O 12.0744 17.7216 2.87335
O 13.3865 15.7858 1.73068
Si 13.261 2.45207 6.98653
Si 2.60101 1.69451 8.93526
Si 1.04339 5.61569 9.15367
Si 5.55483 1.12242 10.1212
Si 14.5926 17.9148 6.66842
Si 4.02658 5.57065 9.72876
O 15.7652 4.53621 10.0213
O 5.74518 0.0636724 11.5005
O 1.66248 2.52568 9.95357
O 6.86208 8.02056 7.82317
O 0.321254 16.3083 9.0632
O 4.3771 6.85441 8.56496
O 14.7553 1.24961 7.30614
O 2.31361 5.40795 9.9363
O 4.35409 3.93257 9.56356
O 6.79605 0.956758 8.93234
O 0.754194 7.22977 9.15686
O 6.07536 2.55616 10.7822
Si 5.44426 5.13619 5.7313
Si 6.4468 1.07783 5.72879
Si 5.50794 8.20269 9.00071
Si 8.70407 5.02118 9.5066
Si 8.0041 2.2196 8.24696
Si 8.22177 7.3068 7.77405
O 4.97217 5.30893 11.4014
O 11.4753 16.5294 12.3766
O 8.04536 3.76607 8.54742
O 9.32133 8.46945 8.3675
O 7.26499 2.26557 6.76367
O 7.95902 6.38734 8.9798
O 9.62944 4.56513 5.62962
O 8.59396 6.81351 6.35084
O 5.52771 9.30138 4.7096
O 10.3073 5.16381 9.5023
O 7.34838 9.7304 9.85451
O 8.52347 4.41928 11.0394
Si 11.9716 4.88271 2.82085
Si 13.2489 0.448675 3.74192
Si 8.96774 9.96086 9.23351
Si 1.30145 2.4097 11.4966
Si 10.4498 1.485 6.75944
Si 0.306162 5.69484 5.979
O 9.94486 10.1897 10.4421
O 12.7282 16.529 9.85343
O 11.9353 1.66038 6.99399
O 1.21094 5.54185 7.41129
O 10.4116 18.0679 6.53227
O 13.6076 3.35764 8.23759
O 9.5047 1.5219 8.14477
O 14.1981 11.909 8.88814
O 14.3771 5.49661 6.66019
O 13.5285 16.7308 7.31452
O 9.05542 11.0903 8.1224
O 15.4468 1.77635 11.4645
Si 14.7079 13.3846 8.96264
Si 1.87983 10.8109 4.25858
Si 14.414 12.9746 11.7711
Si 4.04027 14.3723 10.8093
Si 0.638403 8.77424 8.64719
Si 1.42551 16.9543 7.79008
O 6.86523 15.2148 14.8523
O 2.38137 9.09939 8.89207
O 3.36485 11.5611 7.94157
O 2.67876 15.7245 8.37044
O 2.99691 8.67462 5.83976
O 1.88289 15.4881 5.61181
O 0.642486 13.6692 8.94977
O 1.83278 0.173706 8.30911
O 0.122979 13.6649 12.2975
O 2.46572 14.4291 10.4691
O 0.27111 17.2437 6.52619
O 3.96333 10.9898 13.4353
Si 3.56973 14.8766 5.15532
Si 6.40971 10.7688 4.87086
Si 6.24451 14.7736 9.00187
Si 9.87482 12.508 7.62099
Si 3.79338 12.2353 6.39729
Si 7.19768 16.4466 6.66783
O 4.80355 13.9574 9.30325
O 7.43914 8.64815 12.5433
O 10.0362 9.63216 5.90549
O 10.3475 2.12937 5.32536
O 5.39157 11.9502 5.71552
O 7.44721 15.3376 5.46694
O 3.86995 13.9415 6.61607
O 6.88008 17.8888 6.26781
O 6.00169 15.6788 7.56182
O 10.0233 13.3396 8.99135
O 6.41508 16.2042 9.75904
O 9.23896 13.5252 6.47198
Si 9.01627 14.7403 5.14989
Si 1.2938 8.66029 5.86109
Si 9.98677 16.5223 6.83415
Si 14.2181 10.647 10.1854
Si 11.3373 11.1731 5.43765
Si 12.6444 15.8469 8.40494
O 8.57643 16.0647 7.51462
O 12.7316 9.73362 10.5861
O 0.858599 9.6972 4.63669
O 14.0375 14.0178 10.5885
O 12.7314 10.7479 4.94701
O 1.53442 0.0922711 4.72984
O 10.2126 15.7934 5.38956
O 13.9204 0.213048 5.0315
O 10.9891 15.6204 7.85299
O 15.1837 9.57335 9.55372
O 11.659 1.18564 15.8547
O 14.3997 11.4056 11.5328
Si 14.1936 3.9599 9.60463
Si 6.09632 0.332803 15.8088
Si 2.59596 6.51038 16.4207
Si 3.84853 2.20142 1.68027
Si 3.69394 2.11856 16.3076
Si 4.88116 4.70774 15.9532
O 0.942931 6.02739 16.2624
O 5.60494 17.4326 14.6652
O 3.04953 1.78923 0.341586
O 5.65596 5.66338 -0.338719
O 1.83614 3.74742 12.4325
O 4.57688 2.63366 12.5603
O 0.045775 17.2291 13.8827
O 4.75579 9.65841 8.72203
O 3.44555 5.83047 15.3079
O 7.22963 16.6137 12.4078
O 2.40677 8.10818 16.5415
O 3.7847 3.82323 1.81711
Si 5.0243 3.61067 11.1775
Si 6.04744 16.7016 11.2476
Si 6.41813 6.79455 16.1937
Si 13.1085 1.35878 14.8215
Si 7.00353 3.23863 14.8304
Si 7.42941 7.31073 13.4422
O 7.90762 6.54722 16.706
O 9.54056 17.5479 0.00354825
O 7.1431 1.64669 15.309
O 8.82553 7.40542 14.2311
O 7.68069 3.23769 13.2727
O 7.2884 6.04692 12.4951
O 4.56163 0.595623 16.3466
O 5.62283 8.31761 10.6395
O 6.38661 6.96089 14.7196
O 13.3959 2.15954 13.4105
O 5.71386 5.41167 3.93731
O 8.03277 4.1415 15.6689
Si 8.14607 4.62803 12.5713
Si 12.6494 17.2677 11.2794
Si 9.88391 6.14827 14.5537
Si 14.3468 16.7097 13.5343
Si 13.8208 1.83673 11.7779
Si 11.6027 5.98882 9.97836
O 10.1453 5.64057 16.1192
O 0.797992 0.788312 15.7143
O 0.492701 16.4034 16.2045
O 4.68861 3.40479 16.7067
O 14.0596 15.2264 14.2134
O 13.1666 5.87212 9.51088
O 9.49592 4.96185 13.5702
O 11.3609 7.34256 10.9365
O 13.5179 3.31785 10.8405
O 13.4452 -0.141234 14.233
O 11.4327 6.72824 14.5568
O 14.1346 16.7217 11.9562
Si 0.716157 12.9678 13.6261
Si 3.42484 10.3054 9.22296
Si 2.95612 14.2467 15.1023
Si 4.34192 11.393 11.7491
Si 2.90848 11.5192 14.5175
Si 2.96975 2.65117 13.1255
O 2.52446 14.908 16.4924
O 2.2083 10.3435 15.3034
O 5.92243 10.9152 11.8264
O 2.23721 1.39646 12.4768
O 1.47378 11.6553 13.2983
O 5.28861 4.17179 14.4783
O 3.41544 12.7597 15.6103
O 4.74573 15.716 11.5178
O 1.69607 13.9769 14.2218
O 9.5572 13.6568 11.7145
O 3.12156 2.17997 14.8148
O 4.54184 13.0569 11.8634
Si 1.48145 15.0384 9.29427
Si 6.6749 9.30341 11.2264
Si 7.61204 15.4306 13.4396
Si 9.03497 11.1003 15.2275
Si 8.96513 13.3149 10.122
Si 10.6187 16.202 13.7914
O 3.4435 14.8985 1.4005
O 11.438 14.9931 14.5993
O 7.33686 13.8595 12.9226
O 8.82587 12.4725 16.1655
O 7.99185 12.073 10.9263
O 7.71678 13.8431 9.22297
O 3.21469 10.4461 10.796
O 13.1207 0.604333 10.9917
O 9.21127 15.5173 13.2177
O 10.6015 10.5752 15.1631
O 8.01183 15.8689 1.72475
O 7.83592 10.1133 15.9122
Si 12.7812 14.2551 14.3055
Si 11.2515 9.12548 11.0057
Si 11.0292 18.0005 16.3816
Si 14.6831 10.4495 0.21872
Si 11.712 10.1059 13.9492
Si 13.9259 12.0391 15.1134
O 10.3307 17.3895 14.7587
O 13.5646 9.57941 1.13385
O 12.7806 8.91923 14.5905
O 2.69547 17.3709 14.8266
O 11.1012 9.49077 12.5854
O 15.4459 12.5057 14.8591
O 12.9075 11.2405 13.9931
O 13.178 13.5537 12.8811
O 12.7906 13.158 15.3935
O 0.0452996 9.41484 16.7221
O 12.0603 17.5308 0.178278
O 13.8419 10.8917 16.2244
324
 Atoms. Timestep: 32500
Si 0.0825512 4.72609 0.391011
Si 5.76712 15.8368 15.3222
Si 4.09729 8.9256 4.57383
Si 3.74998 2.60805 6.37784
Si 1.91209 2.00669 4.1924
Si 3.90754 6.20919 3.98665
O 4.6075 6.37026 5.59938
O 4.64326 1.11324 8.93742
O 2.84302 3.14455 5.03972
O 6.00296 8.3501 16.9224
O 2.58962 1.46152 2.90537
O 2.52609 5.35047 3.71451
O 0.83446 4.25174 1.71788
O 2.95053 6.01319 1.33636
O 3.84349 7.60359 3.41445
O 4.453 0.969992 6.03407
O 3.53384 10.3009 3.91938
O 4.95158 3.72643 6.26439
Si 2.45439 4.72975 2.23885
Si 8.5566 0.00974639 0.712938
Si 8.31662 5.5484 5.25837
Si 9.99467 3.23087 4.5767
Si 6.17944 1.41979 2.81974
Si 9.12962 5.23094 2.60147
O 6.90074 4.61523 5.63041
O 6.35549 2.13105 4.31096
O 8.63648 3.74451 3.51243
O 12.1778 4.27665 1.54142
O 7.49219 0.143372 16.7565
O 8.81184 5.19126 1.00331
O 5.023 1.69027 1.75889
O 8.24689 8.77733 0.977683
O 8.45129 6.31764 3.79217
O 11.444 3.35643 3.92668
O 5.98717 11.5488 3.46627
O 10.5663 5.54329 3.21794
Si 8.36214 4.91004 16.789
Si 1.41131 18.0494 15.2138
Si 14.3756 4.94966 5.1352
Si 15.2528 1.45266 2.33575
Si 15.2734 2.08754 16.3424
Si 13.0274 5.30208 0.70345
O 13.2622 4.98944 3.96194
O 13.7165 1.12748 2.90054
O 15.3143 1.97708 0.731259
O 12.6458 6.92355 1.47676
O 13.7323 2.05683 15.8289
O 0.138586 3.75322 16.2892
O 14.4535 5.00178 1.25054
O 12.8637 5.80992 16.4142
O 0.145358 4.85758 4.40053
O 0.54471 2.33497 3.5626
O 1.68216 7.14134 5.19589
O 14.151 3.4649 5.80577
Si 1.72803 15.8521 0.0784762
Si 1.77703 9.50955 16.7168
Si 1.76435 17.1656 4.3952
Si 3.69142 13.4557 1.89581
Si 1.397 11.6548 1.21005
Si 4.83504 16.0725 0.719684
O 13.4112 14.6636 8.05381
O 2.39233 11.4648 5.63821
O 1.31735 11.5992 2.8743
O 2.95425 17.249 3.11362
O 2.28024 10.2276 0.908775
O 4.32975 14.971 15.0871
O 2.37885 13.0892 1.08812
O 6.04379 15.9572 16.9289
O 3.11947 16.3899 0.620512
O 4.39613 12.0757 1.71896
O 2.56902 2.18006 7.46752
O 3.35341 13.9266 3.42054
Si 8.0717 12.6605 12.3498
Si 7.06482 9.46491 17.1728
Si 4.79285 16.9939 3.40429
Si 9.1875 10.751 4.76725
Si 6.0988 11.7954 1.85513
Si 9.97055 15.1337 1.98987
O 4.90801 15.6231 4.17359
O 7.80106 10.3484 5.50574
O 7.27787 12.7846 1.23216
O 9.15703 14.6157 3.32089
O 6.09348 10.6325 0.659167
O 9.58201 14.1559 0.844559
O 8.62714 11.4971 13.2693
O 7.43875 0.86392 1.97956
O 5.43228 17.0276 1.87057
O 8.71898 10.0276 3.30181
O 5.5195 0.24335 3.79366
O 9.54607 12.5788 4.75814
Si 8.99688 12.5508 0.445776
Si 12.4568 7.23068 15.5908
Si 12.3333 16.5803 2.19971
Si 12.1688 8.41021 0.94535
Si 9.4877 9.61842 1.80735
Si 15.5711 16.6252 2.19868
O 10.8047 12.0626 7.10252
O 0.406805 9.24145 7.03345
O 11.0003 8.87086 1.74939
O 0.595655 16.3507 3.67991
O 11.5843 8.17487 16.6544
O 0.450143 15.7255 1.00988
O 9.73404 11.1685 1.29521
O 0.261241 0.0711128 2.3528
O 11.6346 15.0073 2.4543
O 15.578 12.0472 0.695073
O 11.7801 17.699 3.46639
O 13.9833 16.3817 2.64979
Si 13.4539 2.79675 7.11861
Si 2.86206 1.41252 8.96984
Si 0.803439 5.9285 8.69878
Si 5.79752 1.19731 10.1672
Si 14.1535 17.6679 6.75969
Si 3.65117 5.40863 9.89928
O 15.2179 5.36187 9.48539
O 5.51669 0.0961018 11.4441
O 1.79707 1.77553 10.0855
O 6.45805 7.57512 7.92309
O 0.9161 16.3796 9.94101
O 4.1335 6.43961 8.73187
O 14.2286 1.3466 6.64201
O 1.97806 5.26222 9.72611
O 4.00537 3.58308 9.76101
O 7.25515 1.07231 9.30328
O 1.45184 7.53256 8.64796
O 6.18445 2.64117 11.0681
Si 5.35084 4.81358 5.18898
Si 6.05093 0.962714 5.55503
Si 4.97948 7.94272 8.83005
Si 8.84358 4.62307 9.33949
Si 7.78964 1.96006 7.96637
Si 7.95757 7.23329 7.91599
O 4.58524 5.40083 11.3445
O 11.41 17.2317 12.5096
O 7.88802 3.76099 8.33808
O 9.14962 8.58805 8.18876
O 6.96848 1.92305 6.50876
O 8.1502 6.17517 9.22283
O 9.79817 4.45964 5.59841
O 8.49956 6.75689 6.35121
O 5.7298 9.04424 4.78769
O 10.5077 4.94363 8.99764
O 7.40786 9.734 9.84192
O 8.90279 3.88903 10.8936
Si 11.9754 4.5786 2.99085
Si 13.0431 0.357915 4.17514
Si 8.8859 9.89515 9.22601
Si 1.31745 1.38801 11.5459
Si 10.5236 1.55896 6.69227
Si 0.647478 6.01299 5.45694
O 10.1542 10.1206 10.0505
O 12.7192 16.2827 10.2483
O 11.8524 2.35836 6.6054
O 0.829402 5.39794 7.1766
O 10.8854 18.1021 6.74456
O 13.3652 3.87162 8.23082
O 9.34942 1.69903 7.76344
O 14.3605 11.9739 8.66961
O 14.6737 6.41515 5.73891
O 13.0647 17.1784 7.77802
O 8.80586 11.1733 8.10774
O 15.3034 0.995341 11.8024
Si 14.22 13.5915 9.01663
Si 1.86672 10.8556 4.22741
Si 14.3065 12.9803 11.6773
Si 3.7413 14.4601 10.984
Si 0.733149 9.02324 8.59895
Si 1.10509 16.9661 8.38337
O 7.39033 15.1875 14.9643
O 1.8146 10.2783 8.93347
O 3.59344 11.6735 7.74009
O 1.52926 15.2076 8.08342
O 3.27774 8.77073 6.04839
O 2.47109 15.8836 5.48516
O 0.029803 13.7002 9.25005
O 2.15917 0.0531851 8.49112
O 0.148757 13.2658 12.1274
O 2.33043 14.0692 10.5075
O 0.036394 17.2946 6.99035
O 3.58329 10.722 12.8931
Si 3.48427 14.7632 4.84239
Si 6.24989 10.5674 4.74592
Si 6.03237 15.2992 9.1511
Si 9.22217 12.4635 7.37814
Si 3.88652 11.9953 6.23111
Si 7.2811 16.1508 6.67792
O 4.81531 14.279 9.60567
O 7.48358 8.58156 12.2172
O 10.8491 10.4801 5.2721
O 10.17 1.70538 5.20328
O 5.1205 11.0813 5.80605
O 7.52576 15.5108 5.17559
O 3.96213 13.6332 5.85637
O 6.6634 17.6174 5.89843
O 6.04877 15.2741 7.51364
O 9.54086 13.5619 8.81852
O 5.75462 16.6775 9.83707
O 8.45987 13.5499 6.41724
Si 8.86323 14.428 5.00778
Si 1.54758 8.77962 5.84244
Si 10.3166 16.4913 6.95065
Si 14.0833 10.7177 9.75917
Si 11.2431 11.9788 5.58435
Si 12.5261 15.9117 8.69699
O 8.57821 16.6913 7.40925
O 12.6595 9.84423 9.93962
O 0.889661 9.56779 4.60036
O 13.4786 13.5972 10.5567
O 12.4128 12.4771 4.8223
O 1.79273 0.573665 4.83877
O 10.1961 15.126 5.92294
O 13.5789 17.6409 5.28232
O 10.9401 15.9968 8.38553
O 15.0418 9.54893 9.15294
O 11.967 0.707118 15.6224
O 14.5849 11.4616 11.1786
Si 14.0018 4.22745 9.83373
Si 6.47942 0.40816 15.6832
Si 2.53149 6.58096 17.0108
Si 3.49289 1.98557 1.64753
Si 3.70294 1.4612 15.8852
Si 4.71163 4.54662 15.9237
O 0.84929 6.11093 16.8944
O 6.14724 17.3111 14.6987
O 2.72151 1.52181 0.144476
O 5.45348 5.8762 16.9373
O 1.51255 2.90878 12.3024
O 4.46665 3.15709 12.7324
O 0.798398 16.9591 13.9107
O 3.96914 9.08289 8.43852
O 3.20505 5.51059 15.897
O 6.76363 16.0277 12.1472
O 2.79676 8.19942 16.6023
O 3.50542 3.45574 2.35971
Si 4.9589 3.78602 11.3122
Si 5.47609 16.66 11.4393
Si 6.34296 7.02315 16.1385
Si 13.0098 1.40954 14.7361
Si 6.89207 3.01479 14.8468
Si 7.81219 7.10041 13.1749
O 7.78155 6.14592 16.1577
O 9.81317 0.93013 0.142047
O 6.54958 1.56167 14.6615
O 9.09123 6.83906 14.0044
O 8.05417 3.3923 13.5372
O 7.75287 5.67365 12.5296
O 5.05872 0.873495 16.3716
O 5.52305 8.3667 10.5189
O 6.52705 7.32706 14.3575
O 13.0152 2.16226 13.2839
O 4.97378 5.22975 3.48625
O 7.4557 3.51583 16.4121
Si 8.81712 4.27981 12.5018
Si 12.7973 17.1628 11.5123
Si 10.2625 5.58763 14.279
Si 14.8854 16.938 13.9182
Si 13.8135 1.72557 11.7577
Si 11.3618 5.99676 9.93951
O 9.88038 4.49618 15.6866
O 0.55484 1.26047 15.5336
O 0.912206 16.9045 16.3142
O 4.61607 3.12948 16.4401
O 14.2125 15.5519 14.9043
O 12.6739 5.45382 10.484
O 10.4575 4.50542 13.0505
O 11.1637 7.58567 10.16
O 13.8507 3.12473 10.8735
O 14.053 0.170478 14.2045
O 11.7544 6.39449 14.4
O 14.1652 16.4744 12.4851
Si 0.742991 12.8267 13.5218
Si 3.4041 10.4614 8.94414
Si 2.87328 13.9163 15.2092
Si 4.52697 11.6569 11.8218
Si 2.84902 11.1047 14.2517
Si 3.06209 2.42058 12.9543
O 2.13569 14.4454 16.4955
O 2.2096 10.1946 15.2687
O 5.89194 10.7203 11.8021
O 2.40403 0.55843 12.5445
O 1.64222 11.5954 13.0432
O 5.90986 4.44384 14.5466
O 3.37497 12.4033 15.374
O 4.07427 15.9418 11.7352
O 1.79966 13.8798 14.0642
O 9.36898 13.925 11.5897
O 3.1143 2.46971 14.6335
O 4.11642 13.3455 11.999
Si 1.34588 14.7885 9.60434
Si 6.69895 9.45511 11.1808
Si 7.69174 15.3405 13.351
Si 9.11233 10.9842 14.99
Si 8.65809 13.6687 10.1099
Si 10.6302 16.2735 13.7704
O 4.81034 14.4586 1.22605
O 11.5878 15.0486 13.889
O 7.19629 13.6897 13.196
O 9.37807 12.2167 16.2329
O 7.79438 12.4324 10.7124
O 7.48427 14.7284 9.75919
O 3.96437 11.1722 10.3443
O 13.0552 0.489011 10.9255
O 9.09869 16.1037 13.2438
O 10.4691 10.3017 14.8469
O 9.53505 16.7751 1.57273
O 7.99086 9.99125 15.7785
Si 13.1638 14.3821 14.3736
Si 11.4007 9.2575 10.6605
Si 10.928 17.96 16.6069
Si 14.749 10.4186 0.330457
Si 11.8757 9.83378 13.9223
Si 13.7614 11.9673 15.1059
O 10.5474 16.8197 15.4678
O 13.5473 9.29516 1.16139
O 12.8939 8.47349 14.5088
O 2.9414 0.018653 15.2645
O 11.3564 9.26807 12.3754
O 15.3494 12.1849 14.7201
O 12.7206 11.1009 14.024
O 13.6936 13.474 13.166
O 12.7194 13.2617 15.4814
O 0.237916 9.93018 16.5544
O 12.0506 17.3263 0.922192
O 13.6675 11.1459 16.562
324
 Atoms. Timestep: 33000
Si 0.540459 4.91605 0.781077
Si 5.37678 15.8066 15.2481
Si 4.31983 8.94258 3.98504
Si 3.31057 2.38148 6.20867
Si 1.75076 1.45665 4.1586
Si 4.07711 6.22784 4.052
O 4.34345 6.14733 5.68203
O 4.30683 1.01135 9.80467
O 1.7832 2.46602 5.64034
O 6.42845 8.42913 16.2612
O 3.20302 1.59444 3.67651
O 2.78511 5.4332 3.40888
O 1.35893 4.10548 1.71624
O 3.39013 6.01556 1.14308
O 4.54 7.55509 3.17516
O 4.6688 1.76687 5.40504
O 3.43885 10.2651 3.16751
O 4.06862 3.76925 6.31942
Si 2.97576 4.66365 1.95378
Si 8.42777 18.1924 0.913574
Si 8.21374 5.49266 5.40598
Si 9.78564 3.18946 4.29846
Si 6.59837 0.854251 3.12181
Si 9.15994 4.9574 2.71323
O 6.84697 4.57556 6.19309
O 6.73394 1.72271 4.42141
O 8.82565 3.33571 2.98299
O 12.0252 4.53297 1.37532
O 7.58774 0.189998 16.793
O 9.13331 5.08433 1.12268
O 5.33463 1.14792 2.16903
O 9.14795 9.56004 0.157103
O 8.09493 5.62119 3.7131
O 11.4008 3.06306 3.70003
O 6.90752 11.1827 3.11173
O 10.8374 5.47621 3.23408
Si 8.79686 4.90651 16.7507
Si 1.0263 0.208629 15.6023
Si 13.8284 4.72793 5.4303
Si 15.1071 1.3178 2.38247
Si 15.0999 2.67811 16.7287
Si 13.133 5.65559 0.910122
O 13.518 4.36393 3.82474
O 13.5823 1.39185 3.35021
O 14.6147 2.2709 1.12758
O 12.7149 6.93316 1.65917
O 13.6443 2.66065 15.8774
O 0.113982 4.08156 16.7048
O 14.6335 5.08507 1.3839
O 13.3139 6.4013 16.6392
O 15.4604 4.34049 5.54349
O 0.565072 2.06562 3.36
O 1.03836 7.22572 5.44778
O 12.6609 4.10251 6.4134
Si 2.02869 16.1872 -0.0112916
Si 1.94908 9.28316 16.522
Si 2.10395 16.4384 4.46413
Si 3.59778 13.1092 2.12223
Si 1.23288 11.5577 1.33783
Si 4.4997 15.5336 0.867954
O 12.9624 14.9821 8.56252
O 2.71685 11.8877 5.32117
O 1.271 11.6143 3.14849
O 3.75209 16.9532 3.93185
O 2.02782 10.2846 0.586506
O 4.17458 15.2315 14.2457
O 2.40939 12.8311 0.905061
O 5.743 15.7609 16.8303
O 3.55124 16.7949 0.502451
O 4.8156 11.976 1.97684
O 3.20408 1.53099 7.53626
O 3.67493 13.6276 3.63594
Si 8.57058 12.6967 12.1712
Si 7.64002 9.61037 16.5477
Si 5.29072 16.5691 3.59889
Si 9.4312 11.0927 4.32471
Si 6.34413 11.3891 1.61362
Si 9.54532 15.316 1.53904
O 5.45864 15.273 4.76258
O 8.11766 10.8255 5.32263
O 7.24266 12.5615 0.803088
O 9.09948 15.131 3.10515
O 6.45412 10.4096 0.43223
O 9.09485 14.1689 0.644694
O 9.36082 11.5949 13.2075
O 7.98341 0.875599 2.18405
O 5.55814 15.6829 2.05992
O 9.2955 10.0384 3.08527
O 6.78609 17.4281 3.49168
O 9.54959 12.9053 4.13681
Si 8.86619 12.5511 0.290593
Si 12.4035 7.28457 15.3055
Si 12.5522 16.6237 1.60268
Si 12.2607 8.20729 0.870607
Si 9.81759 10.1408 1.521
Si 0.0743368 16.2435 2.28636
O 11.1291 12.6356 6.85171
O 1.49069 8.68108 7.47841
O 11.1143 9.2091 1.74116
O 0.683007 15.8934 3.90128
O 11.4409 8.02197 16.6444
O 1.27158 15.6158 1.46866
O 9.85744 11.6574 1.26639
O 15.3599 17.8752 1.74617
O 10.9753 16.2105 1.56036
O 15.2493 10.8788 1.321
O 12.3239 17.6157 2.96562
O 14.0636 15.712 2.11278
Si 12.778 2.66196 7.22132
Si 2.9864 0.818949 8.92597
Si 0.370872 6.20378 9.24111
Si 5.88771 1.32583 10.5013
Si 14.619 0.169684 7.59085
Si 3.26009 5.4446 9.97924
O 14.9223 4.98999 9.07297
O 5.841 0.312759 11.8312
O 1.62159 1.48635 9.73528
O 6.2157 7.53502 7.90956
O 0.81672 16.2249 9.81504
O 3.94646 6.56271 9.11298
O 14.2153 1.84501 7.2883
O 1.64499 5.61017 10.202
O 3.94689 4.08829 9.42264
O 7.39205 1.1326 9.58408
O 0.298932 7.84768 9.7199
O 5.97774 2.87551 10.8737
Si 5.27814 4.78802 5.58878
Si 6.14425 1.34139 5.83387
Si 5.03645 7.9891 9.01962
Si 8.76371 4.71721 9.38137
Si 7.77746 2.04845 8.27258
Si 7.72453 7.29923 7.77708
O 3.88136 5.1023 11.5063
O 10.9856 17.5505 12.8162
O 8.50363 3.47587 8.35281
O 8.67334 8.67783 7.83154
O 6.56029 2.02464 7.1384
O 7.85768 6.18649 9.03534
O 9.4545 4.36145 5.61043
O 8.43549 6.66891 6.53714
O 5.73276 9.32612 4.55618
O 10.2785 5.49742 9.05699
O 7.3661 9.44084 9.71937
O 8.4953 4.07219 10.7647
Si 11.9715 4.32198 2.92029
Si 13.3092 0.0870931 4.0975
Si 8.80054 9.77359 8.96649
Si 1.32847 1.54271 11.6371
Si 10.1127 1.14227 6.67302
Si 0.0588372 5.96018 5.9723
O 9.8892 10.0071 10.2055
O 11.7939 16.9795 10.4366
O 11.4553 1.87176 6.57451
O 0.593396 6.03019 7.60678
O 10.488 17.809 6.11328
O 12.4409 3.37852 8.69753
O 9.16467 1.33044 7.92045
O 13.4155 12.0673 8.27986
O 13.9539 6.31474 5.95291
O 13.5348 17.5273 8.69234
O 8.81795 11.3123 7.94621
O 15.5514 0.810366 11.7079
Si 13.7291 13.6042 8.97881
Si 2.30694 10.9582 4.12965
Si 13.6773 12.6953 11.7457
Si 4.09287 14.2585 10.8658
Si 0.722344 9.22432 8.74198
Si 1.34007 16.627 8.38746
O 6.78091 15.1517 14.794
O 1.98072 9.9361 9.52146
O 3.43441 11.9469 7.95646
O 1.43028 15.0261 8.03788
O 3.3839 8.67275 5.29082
O 2.81001 15.5099 5.44583
O 15.3996 13.7889 9.1482
O 2.78108 17.1851 8.68595
O 15.3078 13.2099 12.0532
O 2.50096 13.8041 10.4044
O 0.498168 17.5857 7.40593
O 4.04484 10.541 13.3513
Si 4.01645 14.3579 5.10513
Si 6.57323 10.8912 4.56428
Si 6.5332 15.3593 9.13802
Si 9.55843 12.7653 7.40483
Si 4.04857 12.0721 6.45074
Si 7.13465 16.396 6.48872
O 5.1032 14.2185 9.57162
O 7.92552 8.37174 12.1268
O 10.9652 11.0494 5.10457
O 9.52285 1.78104 5.06168
O 5.57796 11.8861 5.60045
O 7.59913 15.6379 5.16679
O 4.43005 13.7614 6.46849
O 6.34976 17.7641 6.10744
O 6.32679 15.5416 7.56187
O 9.85388 13.7319 8.76412
O 5.70683 16.7005 9.89314
O 8.42082 13.6671 6.48319
Si 8.85511 14.708 4.77333
Si 1.77967 8.65581 5.73144
Si 10.1683 16.4052 6.67362
Si 13.7854 10.7923 9.50033
Si 11.3858 12.6293 5.14719
Si 12.2417 16.5122 8.96377
O 8.57657 16.6701 7.37105
O 12.419 9.84676 9.41546
O 1.104 9.83353 4.86563
O 12.9591 13.2556 10.4452
O 12.4316 13.4417 4.22891
O 1.81031 17.9431 4.71958
O 10.2009 15.2 5.56541
O 13.6766 17.6341 5.58654
O 11.1524 16.3768 7.90214
O 15.0599 10.1918 8.8257
O 11.632 1.38749 15.4564
O 14.2374 11.203 10.9964
Si 13.594 4.20169 9.58947
Si 6.43513 0.653742 15.9126
Si 2.65681 6.61456 16.9304
Si 3.99217 1.91188 2.11196
Si 3.6935 1.90396 16.3057
Si 4.26846 4.48259 15.6181
O 1.02282 6.55771 0.155249
O 5.68032 17.4075 14.9179
O 3.13036 1.48652 0.82439
O 5.385 5.80455 16.4007
O 1.53582 3.06298 12.2421
O 4.18473 3.04377 12.3656
O 0.306849 17.5057 14.1851
O 4.39099 9.4813 8.67619
O 2.79965 5.35559 15.6702
O 7.0759 16.3671 12.4128
O 2.94375 8.15328 16.6989
O 4.28619 3.49033 2.00195
Si 4.4089 3.66138 10.9492
Si 5.71672 16.6079 11.5821
Si 6.49779 6.75752 15.9198
Si 13.1313 1.45264 14.859
Si 7.06337 3.10402 14.8023
Si 7.53188 7.05221 13.0894
O 7.98301 6.48983 16.8138
O 9.99343 0.447133 0.435334
O 7.243 1.57709 14.8445
O 8.82384 7.00243 14.1783
O 7.51864 3.56672 13.1933
O 7.49963 5.86589 11.9742
O 5.11272 1.38357 16.7106
O 5.45745 7.90501 10.7783
O 6.4576 6.62794 14.1094
O 13.6098 1.84962 13.4464
O 4.98363 4.97654 3.88883
O 7.96186 3.74118 16.0624
Si 8.38648 4.47796 12.3204
Si 12.252 17.7206 11.7793
Si 10.1314 5.92594 14.2807
Si 14.3664 16.8069 14.2372
Si 14.2061 1.82486 11.7816
Si 11.4376 6.16284 9.95353
O 10.1622 4.97973 15.529
O 0.265849 1.60272 16.0507
O 0.687391 16.9393 16.7219
O 3.68228 3.58908 16.7127
O 14.4093 15.0662 14.1571
O 12.5235 5.2862 10.5845
O 9.91667 5.17394 12.6083
O 11.2557 7.63865 10.3301
O 13.8638 3.30691 11.0816
O 13.6878 17.9554 15.1182
O 11.6505 6.50127 14.02
O 13.4759 17.1655 12.7872
Si 0.626231 12.9561 13.3674
Si 3.29645 10.7294 9.20841
Si 2.88278 14.3267 14.7294
Si 4.72619 11.2905 12.0491
Si 2.9853 11.196 14.2695
Si 2.8887 2.39665 13.1291
O 2.1562 14.9121 16.0708
O 2.56613 9.72158 15.0775
O 6.26483 10.249 12.1659
O 2.47575 0.910735 12.5941
O 1.90581 11.8939 13.3379
O 5.39331 3.70909 14.6713
O 3.43703 12.3931 15.5112
O 4.63038 15.4695 11.7303
O 1.5088 14.317 13.6646
O 9.84964 13.5378 11.4497
O 3.17559 2.65577 14.6844
O 4.46788 12.8996 11.8566
Si 1.17816 14.425 9.52032
Si 6.73955 8.99635 11.2592
Si 7.63922 15.2119 13.475
Si 9.31726 11.1758 14.8299
Si 8.97329 13.4939 9.99804
Si 10.6551 16.3697 13.9429
O 4.08612 14.0536 0.762169
O 11.4878 15.0395 14.2468
O 7.25449 13.6764 12.7735
O 9.47277 12.175 16.0324
O 8.04336 12.0569 10.5123
O 7.70507 14.5713 10.0357
O 4.15229 10.9454 10.5219
O 13.0615 0.872414 11.108
O 9.10407 15.7563 13.5456
O 10.6614 10.1184 14.7816
O 8.50344 16.5653 1.03262
O 8.02907 10.1925 15.1911
Si 12.9575 14.1824 14.0271
Si 11.4051 9.33197 10.5785
Si 11.0747 0.144793 16.4805
Si 14.9464 9.64316 0.0792237
Si 11.9042 9.82711 13.9319
Si 13.8161 11.758 14.8747
O 10.4481 17.0663 15.2414
O 13.6234 9.07879 0.796758
O 12.9981 8.50939 14.4749
O 2.58087 0.665288 15.6039
O 11.4157 9.62038 12.3282
O 15.2528 12.7428 14.585
O 12.79 11.2218 13.889
O 12.5747 13.2355 12.6435
O 12.7487 13.1077 15.2113
O 0.44672 8.95994 16.3279
O 12.5093 17.6896 0.070197
O 14.3304 10.5665 15.9014
324
 Atoms. Timestep: 33500
Si 0.629022 5.20362 0.289626
Si 5.17076 15.7524 14.9066
Si 4.28792 8.58969 4.31293
Si 3.70027 2.3252 6.70045
Si 2.21111 1.12404 4.37142
Si 4.51196 5.76396 4.28124
O 4.81005 6.07305 5.95947
O 4.6103 1.20727 9.35279
O 2.37052 2.31484 5.5153
O 6.16917 8.49503 16.4555
O 3.38339 0.999664 3.15976
O 3.37523 5.59941 3.23889
O 1.44829 4.65236 1.63374
O 3.33996 6.20081 0.772503
O 4.91768 7.37392 3.80638
O 4.53886 0.843613 6.53806
O 3.19105 9.63652 3.40584
O 4.81717 3.51149 6.79
Si 3.07862 5.00828 1.82564
Si 8.30553 17.9472 0.853016
Si 8.16617 5.71001 5.32006
Si 9.4936 3.21787 4.24069
Si 6.2866 0.892568 2.99989
Si 8.67763 4.76557 2.44372
O 7.17152 4.75926 6.30821
O 6.76773 1.4106 4.45127
O 8.58532 3.23754 2.79267
O 12.88 4.81127 1.60481
O 7.16597 0.140778 16.7404
O 7.74219 5.00642 0.997838
O 5.4382 1.57474 1.81287
O 9.03069 9.09994 0.45198
O 7.83644 5.70702 3.69263
O 10.9238 3.21768 3.24924
O 6.51564 11.9547 3.23372
O 10.158 5.29267 2.09412
Si 8.53509 5.06481 16.6877
Si 0.81006 0.175836 15.5684
Si 13.4481 4.94893 5.58096
Si 14.9065 1.26799 2.85801
Si 15.0047 2.37883 17.0147
Si 13.4271 6.21439 0.856171
O 12.5947 5.23617 4.19957
O 13.5711 1.33009 3.74467
O 14.9222 1.83528 1.26603
O 12.4416 7.31306 1.82008
O 13.5673 2.2813 16.3523
O 0.130441 3.70949 0.104217
O 15.0376 6.34643 0.880125
O 13.2366 6.05817 16.2524
O 15.0477 4.55648 5.06971
O 0.724166 1.81834 3.70193
O 0.974537 6.58131 5.33414
O 12.5975 4.11722 6.64356
Si 1.42132 15.7534 16.9314
Si 2.08606 9.46126 16.7629
Si 1.93193 16.1918 3.9858
Si 3.55729 13.0185 1.98197
Si 1.45931 11.0722 1.81184
Si 4.3066 15.669 0.687664
O 14.0403 15.1813 8.45913
O 2.76594 10.8883 5.9148
O 0.889821 10.8119 3.47445
O 3.02843 16.4892 2.8706
O 2.60909 9.97791 0.954205
O 3.58858 15.5544 14.6329
O 2.03994 12.5722 1.84641
O 5.13084 16.0889 16.4574
O 2.76162 16.3942 0.274531
O 5.00036 12.3293 1.30099
O 2.76939 2.36809 8.15846
O 3.6801 13.159 3.50961
Si 9.07997 12.8787 12.0619
Si 7.621 9.59904 16.9373
Si 4.8403 16.2769 3.40988
Si 9.45525 10.7002 3.96859
Si 6.61551 11.8318 1.62664
Si 9.7343 15.341 1.81101
O 4.63066 15.3814 4.69699
O 8.06274 10.5367 4.6872
O 7.63329 12.8345 0.779434
O 9.08489 14.8368 3.34819
O 6.60026 10.5022 0.834421
O 9.22071 14.3021 0.65752
O 9.36944 11.6003 12.9305
O 7.67919 0.338341 2.25281
O 5.4533 15.6196 1.84368
O 9.11923 10.1815 2.48236
O 5.75248 17.592 3.79579
O 9.832 12.4073 4.02816
Si 9.04642 12.8844 16.8806
Si 12.3201 7.10534 15.2325
Si 12.258 16.5185 1.8968
Si 12.3787 8.4937 0.534854
Si 9.99929 10.2703 1.03506
Si 15.2426 16.1827 2.04273
O 11.3255 12.1675 6.39989
O 1.22017 7.95189 7.65034
O 11.4057 9.75981 0.901267
O 0.502661 15.8958 3.48455
O 11.6183 7.94062 16.3036
O 0.80893 15.3332 1.20715
O 9.99746 11.6677 0.384302
O 15.1995 17.8422 2.25842
O 11.312 15.279 2.30782
O 0.0158965 11.0212 1.07427
O 12.7556 17.0583 3.34419
O 13.7591 15.6555 1.3503
Si 12.8976 2.73359 7.7869
Si 3.09298 1.05766 9.21185
Si 0.490926 6.08566 9.31416
Si 6.00247 1.4509 10.1082
Si 14.3859 0.11438 7.39554
Si 3.31123 5.64622 10.193
O 14.7318 5.53684 9.82361
O 6.28281 0.380623 11.4582
O 1.87851 0.756037 10.2471
O 6.21041 7.32355 7.90557
O 0.824302 16.22 9.95152
O 4.3766 6.30155 9.18051
O 14.253 1.85574 7.41267
O 1.84273 6.15651 10.3526
O 3.10983 3.97308 10.3126
O 7.4968 1.34847 9.65823
O 0.118897 7.84238 9.84076
O 5.85308 2.98293 10.9196
Si 5.59473 4.72369 5.88597
Si 6.1918 0.805547 5.9617
Si 5.04971 7.82599 9.07384
Si 8.91112 4.53916 9.38612
Si 8.24691 1.8642 8.15609
Si 7.83049 7.29898 7.90442
O 4.37435 5.55319 11.5137
O 11.026 16.982 12.9441
O 8.97642 3.22243 8.4491
O 8.7381 8.59279 8.00553
O 7.02453 1.68175 7.03007
O 8.25287 6.0572 8.98479
O 9.34858 4.4885 5.24715
O 8.34224 6.93825 6.35644
O 5.53826 9.69112 4.77252
O 10.531 5.23224 9.34457
O 7.67684 10.3693 9.66879
O 8.56356 3.94278 10.9948
Si 11.7898 4.66169 2.92541
Si 13.5905 17.7494 4.47824
Si 8.99905 10.0935 8.84697
Si 1.0354 1.35224 11.5773
Si 10.3105 1.01908 6.5307
Si 15.418 5.78795 6.16346
O 10.0204 9.95344 10.1572
O 12.1847 16.7714 10.301
O 11.5001 1.99008 7.59072
O 0.45572 5.36182 7.70567
O 11.0079 17.6062 6.04539
O 13.3487 3.47572 9.18598
O 9.17102 0.642203 7.77278
O 13.3026 12.3161 8.56715
O 13.9381 6.35919 6.47913
O 13.3884 17.7423 8.6229
O 9.15185 11.1314 7.57333
O 15.0757 1.22989 11.6891
Si 14.159 13.6896 9.06686
Si 2.01642 10.1914 4.43771
Si 13.9748 13.184 11.803
Si 4.17341 14.6519 10.8447
Si 0.390475 9.18573 8.83353
Si 1.34574 16.849 8.47483
O 6.25929 14.5466 14.7197
O 1.68642 10.2122 9.18931
O 4.08092 11.6815 8.16331
O 1.63691 15.2754 8.11655
O 3.24775 8.12777 5.64855
O 2.1403 14.981 5.12588
O 0.324659 13.5249 9.20875
O 2.68102 17.835 8.3275
O 0.00182556 13.1187 11.7421
O 2.59642 14.263 10.2824
O 0.314097 17.7591 7.89056
O 4.13167 10.6582 13.294
Si 3.70463 14.1701 4.86725
Si 6.46912 11.1397 4.64162
Si 6.50314 14.9477 8.84444
Si 9.89767 12.5014 7.12574
Si 4.16847 11.6626 6.50417
Si 7.41624 15.9263 6.33346
O 5.43836 13.9681 9.5626
O 7.5576 8.90131 11.9732
O 10.9089 10.33 4.63646
O 10.0112 1.89323 5.14053
O 5.77361 12.1505 5.84946
O 7.66977 15.0425 4.89711
O 3.51633 13.3059 6.08985
O 6.64744 17.2886 6.53129
O 6.27924 14.9299 7.09557
O 10.3875 13.4197 8.60261
O 6.10608 16.6672 9.37056
O 8.86515 13.1894 6.25195
Si 8.93365 14.1391 4.83359
Si 1.604 8.1129 6.081
Si 10.5889 16.0457 6.78783
Si 13.4361 11.0954 9.64139
Si 11.4199 12.096 4.77799
Si 12.7565 16.2246 8.84809
O 8.99729 16.0492 7.34978
O 12.3307 9.94561 9.53572
O 0.924277 9.5185 5.42397
O 13.6238 14.2569 10.6973
O 12.3456 12.9509 3.87382
O 1.93521 17.6944 4.85556
O 10.269 15.0943 5.46961
O 14.0861 17.4741 6.01587
O 11.681 15.5214 7.77796
O 14.7805 10.1304 9.10617
O 11.326 1.52095 15.9523
O 13.5976 11.624 11.2981
Si 13.4947 4.44652 10.3975
Si 6.16931 0.511476 15.5145
Si 2.86055 6.67711 16.4469
Si 3.84563 1.8257 1.77961
Si 3.1844 2.01305 16.071
Si 4.6658 4.74189 15.7133
O 1.31685 6.06838 16.2478
O 5.70961 17.0706 14.3744
O 2.69757 1.60999 0.6218
O 5.83079 5.86869 16.3575
O 1.20177 2.97492 12.3342
O 3.89155 2.91874 12.7571
O 0.13639 17.731 13.9696
O 3.96877 9.01224 8.56177
O 3.46555 5.92597 15.253
O 7.06355 15.8263 11.6522
O 3.1155 8.26645 16.4161
O 3.91268 3.47996 1.91989
Si 4.5442 3.73847 11.4808
Si 5.99701 16.9436 11.0005
Si 6.63315 6.9958 15.7123
Si 12.7551 1.61654 15.1447
Si 6.90124 3.35783 14.5723
Si 7.6777 7.54356 12.9276
O 8.1268 6.78276 16.0128
O 9.27187 0.949503 0.208752
O 6.807 1.78196 14.4548
O 9.25562 7.37536 13.833
O 7.54819 3.87355 13.2767
O 7.76412 6.44033 11.6788
O 4.64936 1.13369 15.8554
O 5.84762 8.51682 10.2038
O 6.6253 7.09976 13.9894
O 13.1918 2.50383 13.7494
O 5.42293 4.52289 4.24785
O 7.88497 3.63166 15.8699
Si 8.4385 4.88349 12.4356
Si 12.2269 17.2092 11.8855
Si 9.98218 6.01014 14.3339
Si 14.1722 17.2068 14.0574
Si 13.691 2.04792 12.1037
Si 11.056 6.00738 10.5869
O 9.95134 5.04099 15.7083
O 0.305398 1.65855 15.8916
O 0.616737 17.1597 16.7756
O 3.97767 3.50102 16.5511
O 14.2874 15.815 14.6536
O 12.1798 5.21659 11.2254
O 9.8615 5.06998 13.1202
O 10.7757 7.67839 10.5588
O 13.7026 3.58682 11.5968
O 13.1664 18.21 15.0193
O 11.6137 5.93562 14.3429
O 13.607 16.6519 12.5786
Si 0.652752 12.9199 13.3002
Si 3.34524 10.4725 9.16633
Si 2.56456 14.5197 14.3754
Si 4.4212 11.5704 11.7596
Si 3.01355 11.3641 14.2554
Si 2.36819 2.35758 13.3435
O 1.5148 14.8052 15.732
O 2.71709 10.512 15.6101
O 6.23867 11.2466 11.5917
O 2.0889 0.725558 12.8487
O 1.7061 11.6625 12.9965
O 5.63538 4.20494 14.5913
O 2.9685 13.0432 14.7596
O 4.5905 16.0793 11.3416
O 1.25031 14.4815 13.4208
O 9.89683 14.2686 11.3734
O 2.38246 2.96312 14.8548
O 4.39499 13.2672 11.9542
Si 1.15308 14.6458 9.75065
Si 6.68287 9.86142 10.9101
Si 7.44133 15.142 13.4201
Si 9.71099 11.1131 14.7535
Si 9.29331 13.6779 9.86541
Si 10.5206 16.2503 14.3592
O 3.62622 14.2612 0.764019
O 11.6868 15.1734 14.7344
O 7.73478 13.6162 13.0226
O 9.33038 12.7464 15.2095
O 8.92469 12.2892 10.5882
O 7.98593 14.3008 9.11145
O 3.70388 10.8026 10.7202
O 12.6177 0.771172 11.3465
O 8.83886 15.883 14.1571
O 11.246 10.4936 14.8147
O 9.23195 16.7924 1.21072
O 8.61308 10.3381 15.5281
Si 13.2366 14.6601 14.6792
Si 11.3394 9.2245 10.6696
Si 10.6319 0.362869 16.8228
Si 14.9463 9.99351 17.0357
Si 12.5315 9.81026 13.6345
Si 13.9878 12.0264 14.9927
O 10.4251 17.0954 15.9115
O 13.7689 9.28839 0.597697
O 12.9302 8.32609 14.1836
O 2.47628 0.507722 15.5263
O 12.1759 9.52264 12.0782
O 15.3836 12.7359 14.5979
O 13.3994 11.0035 13.8683
O 13.693 14.1074 13.0904
O 13.298 13.3187 15.6823
O 0.529922 9.30963 16.4347
O 11.6381 17.6515 0.93524
O 14.141 11.1791 16.29
324
 Atoms. Timestep: 34000
Si -0.00644052 5.46308 0.599499
Si 5.23396 15.9462 14.6549
Si 4.5427 8.24786 4.90035
Si 3.9649 1.76045 6.49707
Si 1.99882 1.18181 4.28783
Si 4.22815 5.51725 4.27117
O 4.41627 4.91433 5.76059
O 4.23574 1.58926 10.0425
O 3.36107 1.6756 5.00826
O 6.87228 8.59554 16.1039
O 2.5158 1.34549 2.7539
O 2.89818 6.11148 3.46488
O 1.20829 4.91249 1.86579
O 3.23847 6.81474 0.839177
O 5.29255 6.88255 4.61979
O 5.0098 0.372817 6.76017
O 3.69491 9.18934 3.94866
O 5.29813 2.73707 6.47606
Si 2.71393 5.57421 1.94484
Si 7.87328 17.555 1.04687
Si 8.41115 5.4426 5.39987
Si 10.1357 3.43708 4.6112
Si 5.5009 0.785731 3.04765
Si 9.15854 4.92426 2.7041
O 7.27188 4.23744 5.69522
O 6.2204 1.30479 4.38881
O 9.03691 3.42859 3.45476
O 12.2048 4.51543 1.2416
O 7.26783 0.218691 16.6866
O 8.9001 4.5194 0.855846
O 4.84986 2.1442 2.33414
O 9.23995 9.3195 -0.0305508
O 8.1549 5.65193 3.78987
O 11.6039 3.56018 3.68839
O 6.32218 11.3543 3.05105
O 10.4937 5.84788 3.16415
Si 8.5487 5.10136 16.446
Si 0.704966 0.433639 15.6476
Si 13.5344 5.31566 5.58638
Si 15.1807 1.51945 2.87693
Si 14.8363 2.69741 17.1743
Si 12.8068 5.98203 0.77253
O 13.1147 5.71284 4.06231
O 13.6378 1.24194 3.5056
O 15.0571 2.53453 1.44803
O 12.203 7.24604 1.55878
O 13.3591 2.39866 16.6078
O 15.0531 4.32518 16.9496
O 14.4045 6.20955 1.44414
O 12.9361 6.38865 16.3111
O 15.0397 4.64671 5.93114
O 0.530573 1.95841 3.99954
O 1.26118 6.3044 6.15256
O 12.5502 4.06115 6.18055
Si 1.27154 15.8955 17.0686
Si 2.15602 9.5589 16.5902
Si 1.33668 16.2072 4.23202
Si 3.75531 12.74 1.72527
Si 1.31216 10.806 1.7161
Si 4.06314 15.4926 0.361635
O 13.1256 14.7446 8.43197
O 2.97828 10.9707 5.63548
O 1.5418 10.7171 3.32211
O 2.11921 16.473 2.68525
O 1.69077 9.52863 0.913501
O 3.60741 15.7113 14.07
O 2.40822 12.0063 1.36637
O 5.08039 15.4548 16.2013
O 2.67175 16.4283 0.493676
O 5.00747 12.1775 0.892601
O 3.15088 2.29204 7.78698
O 3.50669 12.9311 3.42412
Si 9.25776 12.7187 12.1228
Si 7.71559 9.85546 16.6754
Si 3.76798 16.5769 2.95695
Si 9.23435 10.6468 4.08272
Si 6.6472 11.9023 1.68314
Si 9.17069 14.8958 1.7346
O 4.04282 15.5827 4.25105
O 7.92797 11.019 5.18109
O 7.73148 12.9446 1.13311
O 9.82955 14.4053 3.22748
O 6.80511 10.6055 0.580932
O 9.65921 14.2795 0.353819
O 9.98831 11.8964 13.2372
O 6.82611 0.235566 2.15063
O 4.8897 16.6859 1.60634
O 9.08856 9.7175 2.71892
O 4.32666 18.0375 3.52804
O 10.0658 12.0865 3.85113
Si 9.25812 12.7681 17.1156
Si 12.5141 7.70805 15.3682
Si 11.8547 16.792 1.92982
Si 12.6092 8.87491 1.02842
Si 9.96517 10.0678 1.33928
Si 14.9866 16.5032 1.93899
O 11.5812 12.0536 6.38728
O 0.693711 8.51488 7.38942
O 11.4204 9.6493 1.79802
O 15.2763 16.0797 3.59691
O 12.2035 8.83371 16.483
O 0.331033 15.5518 1.08788
O 10.0734 11.7353 0.986933
O 15.3572 -0.0292126 2.32121
O 10.3539 16.2915 1.83014
O 15.4707 11.2625 1.18862
O 12.0387 17.5276 3.54011
O 13.4123 16.0865 1.88951
Si 12.8665 2.99039 7.54737
Si 2.64972 1.77089 9.36653
Si 0.544624 6.05358 9.87627
Si 5.78074 1.717 10.6628
Si 14.187 0.233209 7.03193
Si 3.66972 5.39848 10.1566
O 15.5742 4.80356 10.7753
O 5.84661 0.126001 11.615
O 1.22471 2.18065 10.1422
O 6.35515 7.58267 7.80933
O 0.723972 16.3365 9.74398
O 4.74892 6.3153 9.31084
O 14.151 1.82385 6.88628
O 2.24768 5.92487 10.1186
O 4.32524 4.0113 9.77321
O 6.71602 1.64903 9.11714
O 0.680141 7.60787 9.75824
O 6.02589 3.01376 11.5856
Si 5.66979 3.93723 5.41449
Si 6.33811 0.351077 5.64823
Si 5.37753 7.78523 9.22925
Si 8.98156 4.76134 8.9759
Si 8.03722 1.97633 7.80998
Si 7.98576 7.16845 7.7333
O 3.9208 5.15164 11.7102
O 10.8647 17.1551 12.9936
O 8.71888 3.33955 8.4116
O 9.17737 8.01398 8.22834
O 7.58622 1.23421 6.54202
O 7.76715 5.6066 8.41373
O 9.6189 4.47516 5.93932
O 8.14253 7.05085 6.03357
O 5.58997 9.36463 4.90212
O 10.2897 5.56155 9.47545
O 7.74721 9.89629 9.71122
O 8.59079 4.14107 10.5681
Si 11.9389 5.01607 3.03094
Si 13.0128 0.15791 4.54126
Si 9.18692 9.58583 8.94703
Si 0.771735 2.06909 11.8156
Si 10.5446 1.22231 6.79132
Si 15.3659 6.02923 6.85734
O 9.90471 9.79082 10.4294
O 12.7466 16.5067 10.3819
O 11.7045 2.11439 7.72014
O 15.1179 5.72729 8.51451
O 11.0228 17.9313 6.19681
O 13.5248 3.93822 8.81034
O 9.48649 1.03089 7.92823
O 14.0365 12.3007 8.86413
O 13.926 6.78785 6.35342
O 13.1024 17.6544 7.97259
O 9.57755 10.715 7.77097
O 15.0557 1.34063 12.1138
Si 14.4154 13.8496 9.04556
Si 2.37855 10.0673 4.51387
Si 13.9096 13.0418 11.7051
Si 4.48322 14.2948 10.425
Si 0.608416 9.10457 8.90161
Si 1.41057 17.2845 8.29724
O 6.19511 14.8228 14.1228
O 1.87481 10.1245 9.37289
O 4.16748 11.4254 7.81823
O 2.09405 16.1166 7.61285
O 3.45322 8.17178 6.10757
O 1.83336 14.7654 4.9759
O 0.0690086 14.0065 8.25064
O 2.36683 0.158881 9.19828
O 15.4112 12.6638 12.343
O 3.07 14.2508 9.40668
O 0.122704 0.194242 7.82445
O 4.56084 11.1195 13.5859
Si 3.41375 14.1774 4.55131
Si 6.54391 10.688 4.51194
Si 6.77781 15.1189 8.73755
Si 10.1369 12.1036 7.21926
Si 4.20627 11.7534 6.28317
Si 7.66633 15.9101 5.97568
O 5.58838 14.0343 9.23416
O 7.88117 8.88764 12.1235
O 10.4564 9.7595 4.78377
O 10.5137 2.077 5.50254
O 5.69966 11.4307 5.76259
O 7.96069 14.6729 5.0627
O 4.13959 13.3677 5.71323
O 6.55429 16.88 5.18485
O 6.75861 15.5987 7.25625
O 10.4699 12.6946 8.76259
O 6.38006 16.4628 9.54459
O 9.25017 13.2084 6.22108
Si 9.50489 14.1941 4.81639
Si 1.66927 7.89362 6.11602
Si 10.3293 16.4137 6.57777
Si 13.544 10.9736 9.6202
Si 11.6638 11.1862 4.89668
Si 12.5452 16.2492 8.77319
O 8.8858 16.5595 6.86675
O 12.3625 9.88326 9.6909
O 1.27512 8.94315 4.97559
O 14.1384 14.2308 10.6674
O 13.0145 10.9119 4.20282
O 1.54052 17.7435 4.7657
O 10.5481 15.3399 5.41604
O 13.9201 17.3921 5.48453
O 11.0925 16.1729 7.94146
O 14.9493 9.95283 9.43869
O 11.0928 1.20849 15.8364
O 12.9534 11.8386 11.0627
Si 13.865 4.19871 10.2456
Si 6.21711 0.624373 15.4395
Si 2.58676 6.61234 16.4779
Si 3.4458 2.5332 1.73472
Si 3.39391 2.19367 15.9915
Si 4.69447 4.70932 15.1896
O 1.06685 6.35579 16.9692
O 6.0696 17.229 14.5767
O 3.08116 1.82705 0.392523
O 5.50224 6.1545 15.6762
O 1.209 3.51306 12.6344
O 3.5863 2.57222 12.4751
O -0.036345 17.6973 14.3565
O 4.43034 9.07464 8.83668
O 3.15418 5.61258 15.3157
O 7.22854 16.2802 12.0689
O 2.83906 8.13317 15.921
O 3.5113 4.17291 1.87734
Si 4.37281 3.64942 11.4831
Si 5.99347 16.7155 11.203
Si 6.58201 7.15903 15.648
Si 12.7678 1.41158 15.4908
Si 7.2288 3.38938 14.2265
Si 7.83216 7.50532 12.9544
O 8.03187 6.52974 16.5121
O 9.4621 0.186111 0.758614
O 7.32865 1.69244 14.5225
O 9.44299 7.48424 13.4498
O 8.28768 3.53633 13.0345
O 7.78072 6.00526 12.1191
O 4.72678 1.04883 15.545
O 5.89171 8.29167 10.7924
O 6.56772 7.58694 13.9906
O 13.1989 2.07545 13.9996
O 5.22899 4.17543 3.73393
O 7.59558 4.00461 15.5951
Si 8.88257 4.67872 12.0011
Si 12.2142 17.0829 11.8798
Si 10.3486 6.17214 13.844
Si 14.0895 16.9508 14.3534
Si 13.422 1.69404 12.3348
Si 11.2919 6.05479 10.6519
O 9.69752 4.97809 14.7618
O 0.1336 1.78521 16.1472
O 0.702529 17.3159 16.6726
O 4.79264 3.38596 16.299
O 13.6249 15.4367 14.7973
O 12.7997 5.31815 10.7317
O 10.3143 5.48895 12.1566
O 11.5786 7.59161 10.9788
O 13.3483 2.83556 11.2353
O 13.659 0.0405687 15.3951
O 11.6927 6.73607 14.3922
O 13.4876 16.9698 12.7146
Si 0.936581 12.6213 13.5897
Si 3.6249 10.5146 9.11175
Si 2.73693 14.466 14.4733
Si 4.59986 11.6149 11.8719
Si 3.34873 11.6014 14.7518
Si 2.32227 2.25276 13.3685
O 1.57734 14.9427 15.798
O 3.10035 10.7295 15.9564
O 6.14686 11.0152 11.6654
O 1.75099 0.904546 12.4242
O 1.99411 11.4077 13.6893
O 5.7587 4.04922 13.8876
O 3.33962 13.1807 15.2677
O 4.70533 15.667 11.3029
O 1.62432 14.1382 13.411
O 10.4535 13.598 11.1893
O 3.00041 2.9342 14.6819
O 4.54839 13.3412 11.7287
Si 1.53448 15.0565 8.95748
Si 6.91181 9.76699 11.0571
Si 7.60083 15.0328 13.2168
Si 9.49448 11.296 14.744
Si 9.37752 13.2552 9.78362
Si 10.2413 16.146 14.2337
O 3.93255 14.2054 1.23808
O 11.0145 14.8278 14.2532
O 8.15598 13.5777 12.7709
O 9.12842 12.6061 15.5719
O 8.67238 12.084 10.7116
O 8.28973 14.2607 9.14418
O 4.07564 10.7219 10.6753
O 12.427 0.709567 11.6003
O 8.80047 15.578 14.4081
O 10.8526 10.2114 15.2733
O 7.9844 15.9727 1.35992
O 7.92919 10.5709 15.1364
Si 12.4936 14.2321 14.4383
Si 11.4664 9.28606 10.9112
Si 10.6727 -0.0165104 16.8394
Si 14.9819 10.3375 0.038444
Si 11.8808 10.1032 14.0379
Si 13.6149 12.0615 15.0902
O 10.5512 16.7577 15.8309
O 14.2807 9.00552 0.762385
O 13.0105 8.7047 14.2494
O 2.17403 0.864812 15.5911
O 11.5155 9.67468 12.4519
O 15.3818 12.2997 14.7619
O 13.0766 11.1927 13.7416
O 13.0023 13.5748 13.0261
O 12.6693 13.189 15.6446
O 0.626447 10.2558 16.0619
O 12.0571 0.0226686 0.639263
O 13.8236 11.2474 16.6059
324
 Atoms. Timestep: 34500
Si 15.6388 5.45172 0.432925
Si 4.90755 15.7834 14.8557
Si 4.43858 8.48799 4.93279
Si 3.36218 1.85532 6.51071
Si 1.46631 1.34353 4.25131
Si 3.92589 5.54096 4.41459
O 4.32572 5.41367 6.15026
O 4.34677 1.00227 10.1737
O 2.16599 1.95555 5.55625
O 7.00805 8.19604 16.5006
O 2.36914 1.48244 2.90653
O 2.52438 5.66352 3.49169
O 0.853377 4.83319 1.59648
O 2.94491 6.24358 0.910237
O 4.92437 6.94378 4.34529
O 4.4032 0.539264 5.97862
O 3.71936 9.3095 3.61297
O 4.45125 3.00606 5.96669
Si 2.27104 5.14278 1.88012
Si 7.72352 17.9164 0.739666
Si 8.06139 5.4624 4.9658
Si 9.97612 3.34133 4.46266
Si 5.83228 1.1606 2.81503
Si 9.41672 5.00156 2.49755
O 6.91033 4.4706 5.54271
O 6.24516 1.58463 4.28745
O 9.46959 3.33735 3.01407
O 13.1239 4.74953 1.5892
O 6.88629 17.3934 16.6622
O 9.42266 4.85066 0.881322
O 4.61012 1.54164 1.86645
O 9.06466 9.58874 0.274246
O 8.30838 5.87309 3.19706
O 11.5631 3.29679 4.00327
O 6.64484 10.7616 3.43416
O 11.0129 5.45079 2.9254
Si 8.7224 4.87239 16.5808
Si 0.753044 0.657994 15.0198
Si 14.0959 5.19282 5.74975
Si 14.6413 1.46736 2.65075
Si 14.6534 2.74366 16.8821
Si 13.1678 6.20888 0.91038
O 13.7008 4.84935 4.10952
O 13.0986 1.68523 3.21058
O 14.8738 2.2665 1.14421
O 12.0671 7.04439 1.67941
O 13.0622 2.73868 16.2534
O 14.9861 4.30499 16.6623
O 14.7331 6.61843 1.16007
O 13.0607 6.22894 16.5343
O 15.6049 4.41565 6.28424
O -0.0450997 2.13578 3.86231
O 1.57237 6.58716 6.01298
O 13.2203 4.3615 6.74196
Si 1.68972 16.5115 0.0176754
Si 2.03557 9.27574 16.2715
Si 1.68436 16.3561 4.05054
Si 3.67889 13.1422 1.68308
Si 1.8161 11.2314 1.49189
Si 4.32355 15.8051 0.43981
O 13.6128 14.8607 8.81164
O 2.69654 11.0595 5.75988
O 2.0275 11.0324 2.94766
O 2.91337 16.3712 2.59695
O 2.43484 9.85919 0.652437
O 3.3564 15.647 14.4842
O 2.53894 12.5034 0.878112
O 4.9377 15.1408 16.2153
O 3.20868 17.036 0.220572
O 5.1171 12.524 1.70497
O 2.90833 1.65411 7.94575
O 3.37959 13.4318 3.28098
Si 8.98396 12.8795 12.0927
Si 7.71882 9.6651 16.6631
Si 4.6906 16.3273 3.16688
Si 9.90135 10.1508 4.51289
Si 6.49762 11.4363 1.84246
Si 9.37258 15.2756 1.8664
O 4.52753 15.3981 4.43655
O 8.12269 10.7148 5.54812
O 7.76142 12.3516 1.34316
O 9.60398 14.2084 3.27869
O 6.50451 10.3149 0.520332
O 9.16353 14.3143 0.51791
O 9.55453 11.7098 13.0436
O 7.00968 0.918912 1.65124
O 5.34571 16.2747 1.74045
O 8.96643 9.84915 3.17173
O 5.36105 17.8366 3.24954
O 11.1363 11.1279 4.27208
Si 9.01834 12.732 0.310107
Si 12.7247 7.47758 15.6129
Si 11.865 17.218 2.09057
Si 12.2698 8.60539 0.901197
Si 9.94378 10.2534 1.817
Si 15.0626 16.4945 2.23242
O 11.4674 10.8588 6.71565
O 1.49201 8.71649 7.8072
O 11.4682 9.83617 1.50431
O 0.248942 15.8828 3.38244
O 11.8577 8.33633 16.5177
O 0.679346 16.4952 1.15535
O 10.0533 11.6727 1.20969
O 15.1458 0.0862056 2.32995
O 10.7732 16.0808 1.98856
O 0.143913 11.0833 1.34632
O 11.7213 17.7018 3.64107
O 13.4615 16.4714 1.81712
Si 13.1876 3.00533 7.75611
Si 2.69403 1.38359 9.68942
Si 0.70436 6.40365 9.79575
Si 5.87457 1.33561 10.6552
Si 13.915 0.0107194 7.15981
Si 3.64077 5.60339 10.2053
O 14.999 5.74451 10.894
O 6.31698 -0.0895476 11.5934
O 1.56591 2.52677 10.1308
O 6.18613 6.98952 8.10401
O 0.561253 15.9437 9.6505
O 3.98567 6.96904 9.37413
O 13.9622 1.90149 7.0363
O 1.94751 5.50185 10.288
O 4.1411 4.10649 9.7152
O 7.20503 1.35365 9.63173
O 1.14358 7.85113 9.83369
O 5.91837 2.77011 11.2124
Si 5.30629 4.20982 5.55072
Si 5.928 0.592477 5.57226
Si 5.22462 8.07375 8.9608
Si 8.98183 4.36265 9.25503
Si 7.93033 1.59715 8.13956
Si 7.75646 7.10711 7.45863
O 4.55023 5.3412 11.6763
O 10.7267 17.4839 12.8066
O 8.44891 3.34426 8.21198
O 8.81767 8.2284 7.75455
O 7.30264 1.25693 6.69624
O 8.14407 5.73672 8.57547
O 9.37716 4.57796 5.38436
O 7.87513 6.85528 5.90292
O 5.74296 9.28293 5.65161
O 10.3212 4.79714 9.68388
O 7.68325 9.78715 9.63928
O 8.54309 3.81262 10.8735
Si 12.342 4.52358 3.17683
Si 12.6253 0.535007 4.50331
Si 9.02489 9.82426 8.58528
Si 0.941538 2.31488 11.5478
Si 10.5094 1.67235 6.98717
Si 0.264004 6.00187 6.78707
O 10.2253 9.94929 9.77488
O 12.4207 16.4319 10.579
O 11.7804 2.26554 7.71488
O 15.5633 6.31775 8.35392
O 10.9117 0.0197799 6.19588
O 13.687 3.41959 9.22714
O 9.53545 1.07322 8.27276
O 13.9949 12.0153 8.71208
O 14.6532 6.76495 6.06865
O 12.9679 17.8126 8.46402
O 9.20249 11.2201 7.73692
O 14.8139 1.99589 11.5196
Si 14.5574 13.5944 9.07505
Si 2.44755 10.2695 4.33913
Si 14.2272 12.9201 11.6933
Si 4.65525 14.5038 10.4667
Si 1.14014 9.33851 9.23044
Si 1.23666 17.0891 8.29407
O 6.00656 15.0163 14.0178
O 2.21504 10.2195 10.0026
O 3.44771 11.557 7.94562
O 2.14786 15.9144 7.54733
O 3.51152 8.03929 6.25055
O 2.04933 15.1553 5.02898
O 0.442357 13.86 8.2785
O 1.53461 0.271155 9.21422
O 15.4105 12.4771 12.7805
O 3.09086 14.2406 9.71895
O 15.6067 17.6458 7.29287
O 3.79861 11.3999 13.0294
Si 3.33556 14.2541 4.5904
Si 6.55205 10.6105 5.11226
Si 6.99809 14.9326 8.53015
Si 10.4368 12.06 7.26315
Si 3.86232 12.0535 6.50611
Si 7.3972 15.9732 6.11155
O 5.79067 13.9663 9.22678
O 7.83739 8.60541 12.1604
O 10.5922 8.74371 5.00998
O 9.72225 2.19708 5.75267
O 5.46097 11.9873 5.769
O 7.85987 14.3231 5.48642
O 3.69212 13.5795 5.98808
O 6.42766 17.0082 5.03593
O 6.37282 15.2074 7.10229
O 10.6226 13.2166 8.47015
O 6.89163 16.5811 9.13833
O 9.91776 12.7258 5.74633
Si 9.40923 14.1645 5.01256
Si 1.92916 8.18335 6.24517
Si 10.4645 16.5255 6.61282
Si 13.8572 10.7277 9.63917
Si 12.008 9.92824 5.41891
Si 12.7582 16.3148 8.9299
O 8.75392 16.6445 6.82677
O 12.7707 9.48507 9.52925
O 1.47167 9.2353 5.20958
O 15.204 13.6384 10.5896
O 13.4868 9.49275 5.37219
O 1.72856 17.756 4.77728
O 10.5533 15.3972 5.33357
O 13.4313 17.7026 5.69817
O 11.2795 15.9649 7.9658
O 15.4009 10.0112 9.75476
O 10.9119 1.4845 15.4148
O 13.3036 11.7146 11.0142
Si 13.7219 4.7891 10.4682
Si 6.1667 0.248517 15.2573
Si 2.33025 6.37997 16.3363
Si 3.12808 2.12175 1.68025
Si 3.86839 2.25293 16.2387
Si 4.53327 4.61271 15.5828
O 0.704893 6.3422 16.3857
O 5.38294 17.3463 14.2161
O 2.59147 1.94446 0.175492
O 5.04601 6.43657 16.1971
O 1.24073 3.15979 12.7923
O 3.84842 2.7397 12.3984
O 15.3225 17.9392 14.1234
O 4.5649 9.38152 8.27597
O 2.93754 5.22002 15.3245
O 6.95912 15.5858 11.7203
O 2.69856 7.78261 15.7693
O 3.01639 3.73857 1.81984
Si 4.51222 3.68471 11.2278
Si 6.39326 16.6457 10.5875
Si 6.42447 6.87521 15.7749
Si 12.6722 1.81766 14.9699
Si 7.175 3.26947 14.757
Si 8.03208 7.43267 13.0408
O 7.47061 5.9144 16.536
O 8.99842 0.857736 0.00938043
O 7.00725 1.51008 14.865
O 9.43643 7.08782 13.7669
O 7.73852 4.01179 13.4523
O 7.97595 6.0415 11.8201
O 4.43744 0.730712 15.5725
O 5.68931 8.49767 10.6099
O 6.84668 7.10621 14.0775
O 13.3187 2.51394 13.5582
O 4.71056 4.27919 3.92965
O 8.10453 3.56467 16.0509
Si 8.56302 4.63523 12.2005
Si 12.0245 17.611 11.7244
Si 10.5219 5.82625 14.1062
Si 13.9147 17.2133 14.0913
Si 13.3082 2.06561 11.9621
Si 11.1208 5.96475 10.6313
O 10.0437 4.9856 15.4489
O 15.6036 1.90673 15.8109
O 1.21468 17.7237 16.2754
O 4.69305 3.52284 16.8427
O 13.8868 15.6372 14.7388
O 12.5372 5.81517 10.0136
O 10.5591 5.11304 12.3073
O 10.7237 7.54692 10.8309
O 13.1814 4.06117 11.7631
O 13.0203 0.134984 15.1967
O 11.8886 6.47189 14.4642
O 13.4571 17.2621 12.41
Si 0.538224 12.7839 14.1852
Si 3.60756 10.4133 9.02471
Si 2.36951 14.4236 15.0653
Si 4.78229 11.7173 11.6507
Si 2.90311 11.5962 14.369
Si 2.66178 2.17337 13.2377
O 1.36863 15.001 16.2135
O 3.24474 10.2712 15.4199
O 6.38417 10.8765 11.6755
O 2.02046 1.04587 11.97
O 1.46467 11.4658 13.8518
O 6.01926 4.28703 14.9193
O 3.17304 13.0106 15.4102
O 4.76252 16.0354 10.4604
O 1.45598 14.0925 13.5619
O 9.90671 14.2192 11.2027
O 3.61128 3.03982 14.671
O 4.64138 13.4458 11.6602
Si 1.57882 14.8422 9.14477
Si 6.98508 9.44927 11.0406
Si 7.40716 15.1672 13.2349
Si 9.34032 11.1787 14.7257
Si 9.79276 13.6065 9.70843
Si 10.3085 16.2821 14.1964
O 3.63232 14.4552 0.822424
O 11.3862 15.1742 14.1163
O 8.02094 13.7251 13.089
O 8.90627 12.2851 15.9796
O 8.44842 12.3906 10.6606
O 8.62166 14.34 8.59081
O 4.3056 10.8675 10.3718
O 12.0871 1.16167 11.3557
O 8.67748 16.0198 14.0958
O 10.8379 10.5708 14.5175
O 8.42722 16.7634 1.62252
O 7.92718 10.0308 15.0421
Si 12.8708 14.3765 14.1551
Si 11.4018 9.03368 10.6217
Si 10.4605 0.318513 16.4888
Si 14.9599 10.1316 0.249258
Si 12.1267 9.94615 13.8213
Si 13.7784 11.9093 15.3544
O 10.3473 16.9882 15.5752
O 13.9402 8.90403 0.812618
O 13.0109 8.5598 14.4542
O 2.13555 1.15451 14.418
O 11.8083 9.43909 12.1813
O 15.3292 12.5809 15.4726
O 13.3038 11.0549 13.963
O 13.3517 13.8673 12.6939
O 12.5939 12.9528 15.0268
O 0.114458 9.07823 16.3258
O 11.627 17.9333 0.603783
O 13.6674 10.8693 16.6835
324
 Atoms. Timestep: 35000
Si 0.146592 5.10274 0.117125
Si 5.13705 15.704 14.9923
Si 4.54758 8.80284 4.47356
Si 3.7106 2.09625 6.12556
Si 1.69391 1.26989 4.02068
Si 4.20826 6.08704 3.7896
O 4.58202 6.17904 5.46168
O 3.99911 1.56108 10.1104
O 2.69023 2.24125 4.94488
O 6.82292 8.20412 16.571
O 2.48287 1.02116 2.59275
O 2.58767 5.55298 3.2657
O 1.13741 4.62266 1.44263
O 3.46967 5.9878 0.896628
O 4.33358 7.56159 3.42177
O 4.64892 0.737792 5.91845
O 3.82823 10.204 3.45798
O 4.15897 3.5904 5.8425
Si 2.58968 4.98666 1.78359
Si 8.16714 17.8722 1.04122
Si 7.95689 5.49089 5.28101
Si 9.86273 3.05391 4.77725
Si 6.33076 1.26521 2.93905
Si 9.09652 4.71655 2.64592
O 6.60318 4.7755 6.10419
O 6.84371 1.89884 4.26687
O 9.01016 3.345 3.30472
O 12.499 4.41856 1.78937
O 7.1971 17.716 16.6826
O 8.7964 4.37243 1.08975
O 4.9672 2.03371 2.41194
O 8.90224 9.13431 0.226936
O 7.9035 5.49509 3.63796
O 11.4928 3.23335 4.14593
O 6.67728 11.5216 3.0237
O 10.5327 5.58576 3.14662
Si 8.72713 4.49954 16.656
Si 0.734313 0.616544 14.9972
Si 14.0367 4.92306 5.85761
Si 14.8839 1.73191 2.57873
Si 14.6294 2.49381 16.7915
Si 13.2387 5.69589 0.913985
O 13.5309 4.88948 4.24782
O 13.3858 1.76309 3.52593
O 14.8325 2.80634 1.20122
O 12.5835 7.1084 1.67793
O 13.1779 2.2771 16.4117
O 15.1396 3.89439 16.3116
O 14.8257 5.88475 1.19087
O 12.8899 5.53651 16.4675
O 0.146537 4.31052 5.99214
O 0.258773 2.06093 3.85974
O 1.88407 6.66031 6.26497
O 13.2238 3.65277 6.32638
Si 1.8249 16.3852 16.7299
Si 2.28834 9.61028 16.4505
Si 1.87583 16.6979 4.37342
Si 3.4019 13.0615 1.88757
Si 1.41248 10.7204 1.83516
Si 4.11828 15.5842 0.593714
O 13.6145 14.8732 8.12768
O 3.07032 11.6104 5.65897
O 1.14783 10.3474 3.42536
O 3.3055 16.9711 3.46464
O 2.4361 9.91675 0.975516
O 3.97309 15.515 14.0278
O 1.99164 12.2009 2.11864
O 5.12476 15.2165 16.4521
O 3.22032 16.821 0.469679
O 4.90065 12.2478 1.33727
O 2.75405 1.87002 7.5812
O 3.33912 13.6057 3.52741
Si 8.96634 12.43 12.1248
Si 7.53211 9.67841 16.7309
Si 4.80723 16.4683 3.1961
Si 9.68414 10.2094 4.63906
Si 6.29498 11.5066 1.51204
Si 9.83549 15.177 1.69231
O 4.99484 15.6491 4.52439
O 8.20562 10.9382 5.20087
O 7.42135 12.3845 0.693461
O 9.91074 14.3674 3.15286
O 6.15387 10.2678 0.453307
O 9.15179 14.2549 0.505366
O 9.4623 11.3068 13.0945
O 7.50696 1.09163 1.73099
O 5.09811 15.6288 1.9427
O 9.49324 9.61203 2.93421
O 5.97293 17.6116 3.12293
O 11.286 10.6613 4.76563
Si 9.06565 12.6824 0.203822
Si 12.254 7.10552 15.3871
Si 12.3053 16.9722 1.37329
Si 12.3195 8.3818 0.602756
Si 9.90933 9.93433 1.43043
Si 15.4789 16.4889 2.01665
O 11.058 11.1097 7.31371
O 1.47648 9.19023 7.33469
O 11.4271 9.62471 1.07169
O 0.797552 16.3335 3.24739
O 11.3739 7.57067 16.7702
O 0.823337 15.8108 0.893721
O 9.84677 11.5883 1.21076
O 15.2449 0.286369 1.93027
O 11.3274 15.6071 1.21544
O 15.4837 11.0363 0.961094
O 12.2872 17.6436 3.19983
O 13.9603 16.2092 1.45059
Si 12.9358 2.85437 7.76193
Si 2.48693 1.74808 9.31459
Si 0.837271 6.19803 9.91469
Si 5.58853 1.27154 10.4301
Si 14.3535 0.0725404 7.29334
Si 3.73433 5.64791 10.3653
O 15.0219 5.6627 10.3765
O 5.4165 0.136134 11.5059
O 1.3363 2.69036 9.97276
O 6.34758 8.02242 8.40582
O 0.768906 15.8678 9.85246
O 4.06248 6.86753 9.41128
O 13.7281 1.45463 7.77512
O 2.16282 6.13839 10.815
O 3.40326 3.95191 10.0722
O 6.73972 1.31139 9.21765
O 0.979329 7.84399 9.33276
O 6.00376 2.71561 11.1223
Si 5.15282 4.73456 5.28567
Si 6.37627 0.987155 5.69199
Si 5.24516 8.13448 9.4689
Si 8.7527 4.77712 9.25165
Si 7.5108 2.15748 8.05043
Si 7.74372 7.40956 7.93919
O 5.02414 5.23741 11.4657
O 10.8823 17.6774 12.5763
O 8.29543 3.70052 8.29746
O 8.69753 8.58859 8.42921
O 6.62864 2.31679 6.73133
O 8.22069 6.21435 8.98533
O 8.98522 4.30325 5.63916
O 7.93386 7.04065 6.40671
O 6.27634 9.02678 4.47236
O 10.3092 5.01138 9.41577
O 7.11723 9.61102 9.83521
O 8.18765 4.13646 10.7547
Si 11.9641 4.60969 3.29396
Si 13.3621 0.315889 4.15058
Si 8.67821 10.1535 8.98451
Si 0.882608 2.30227 11.4785
Si 10.1595 1.23533 6.97573
Si 0.565154 5.73743 6.83364
O 10.2519 10.4761 9.98803
O 11.7219 16.8346 10.0727
O 11.3109 2.30003 7.66739
O 1.16744 5.38612 8.5142
O 11.0659 17.9735 6.97939
O 13.0609 3.75735 9.03174
O 8.87629 1.21946 8.03207
O 13.5152 12.112 8.59016
O 14.6207 6.22784 6.92225
O 13.4911 17.2183 8.20588
O 8.63493 11.3538 7.76411
O 14.801 2.11859 11.2382
Si 14.0526 13.5824 8.87192
Si 2.67667 10.456 4.45408
Si 13.8512 12.9351 11.6288
Si 4.47753 14.2528 10.5977
Si 0.952792 9.49138 9.04603
Si 1.48762 16.8607 8.70308
O 6.84784 15.2951 14.4716
O 2.01788 10.6532 9.31114
O 3.86391 11.5316 7.85643
O 2.25987 15.4601 7.90066
O 4.21185 8.65315 6.17828
O 2.53101 15.4391 5.33932
O 0.4327 13.4559 8.61263
O 2.07708 0.158862 9.53819
O 15.4108 12.5274 12.1462
O 3.04062 13.8299 9.74689
O 0.489486 -0.00805141 7.57618
O 4.2801 11.1873 13.1874
Si 3.7887 14.4838 4.91731
Si 6.58067 10.5801 4.27274
Si 6.62299 14.9529 8.74465
Si 9.95682 12.3609 7.19439
Si 4.45414 11.9652 6.28535
Si 7.79702 16.4105 6.30488
O 5.37104 14.1412 9.31594
O 7.9351 8.5302 12.4955
O 9.70312 8.84685 5.93366
O 9.58249 1.61888 5.51475
O 5.68313 11.3269 5.55126
O 8.02934 15.5446 4.88523
O 4.53461 13.6224 6.1802
O 7.0897 17.6954 5.84791
O 6.44747 15.5597 7.22684
O 10.3501 13.16 8.49938
O 6.23929 16.5439 9.3957
O 9.3468 13.1623 5.98413
Si 9.4259 14.7054 4.80066
Si 2.41188 8.22416 6.39463
Si 10.5742 16.2598 6.91724
Si 13.554 10.743 9.53328
Si 11.1081 9.67225 6.3097
Si 12.6596 16.0797 8.71879
O 9.05694 16.6134 7.16419
O 12.6216 9.43931 9.71893
O 2.05745 8.96647 5.06731
O 14.1041 14.2116 10.6441
O 12.2642 8.47241 6.28808
O 1.3195 0.0863466 4.86976
O 10.627 15.565 5.4347
O 13.8138 17.8149 5.6493
O 11.4791 15.381 7.76732
O 15.1782 10.4924 9.43445
O 11.0864 1.45973 15.51
O 13.0607 11.5562 11.1342
Si 13.6711 4.83133 10.3334
Si 6.01428 0.416381 15.479
Si 2.68566 6.42219 16.4527
Si 3.43051 2.09577 2.30016
Si 4.10354 2.37111 16.5151
Si 4.75528 4.71061 15.6602
O 1.14902 6.22022 16.6153
O 5.08818 17.2736 14.9951
O 2.99826 1.98833 0.556432
O 6.02102 5.6357 16.6369
O 1.52585 3.1911 12.638
O 4.09414 2.65408 12.6625
O 15.3906 17.6259 14.152
O 4.2044 9.27533 8.91058
O 3.47074 5.79082 15.3126
O 7.06602 16.0633 11.7861
O 2.95098 8.04521 16.4144
O 2.81732 3.51962 2.61253
Si 4.65108 3.59818 11.4008
Si 5.74935 16.6331 10.8343
Si 6.75053 6.72289 15.9256
Si 12.5868 1.46491 14.9655
Si 6.87281 3.09039 14.4673
Si 7.6133 7.14862 13.2494
O 8.20366 6.19815 16.1916
O 9.76289 0.518607 0.634969
O 6.67589 1.35738 14.3661
O 9.22186 6.94831 13.9227
O 7.72185 3.34915 13.0983
O 7.16778 5.71332 12.6074
O 5.0689 1.15193 16.4799
O 5.45577 8.12058 11.2225
O 6.342 7.15056 14.3275
O 12.8483 2.01106 13.458
O 5.34459 4.803 3.46177
O 7.93282 3.21369 15.9491
Si 8.31427 4.55231 12.2785
Si 12.0605 17.8686 11.3297
Si 10.0792 5.57556 14.3555
Si 14.023 17.097 13.5803
Si 13.1949 2.23305 11.8676
Si 11.1172 6.2798 9.83442
O 10.0144 4.64108 15.7552
O 15.4259 1.51126 15.7825
O 1.34064 17.9285 16.4647
O 4.68761 3.76017 17.2315
O 13.9218 15.6403 14.1238
O 12.4996 5.98955 10.3703
O 9.81356 5.03912 12.6373
O 10.7181 7.61614 10.5436
O 13.2177 3.91239 11.9026
O 13.0421 -0.0439053 14.6424
O 11.5181 6.27642 14.2713
O 13.2519 17.1458 12.0725
Si 0.544891 12.7139 13.5707
Si 3.62094 10.7655 9.22399
Si 2.81172 14.4907 14.3489
Si 4.97365 11.7554 11.9221
Si 3.21474 11.7398 14.2884
Si 2.734 2.14607 13.3013
O 1.86767 15.1838 15.539
O 3.14301 10.7449 15.7415
O 6.57436 10.9348 11.8938
O 2.0094 1.25011 11.9385
O 1.73877 11.5725 13.7335
O 5.90802 4.39447 14.4983
O 3.39191 13.1882 15.0452
O 4.47012 15.8394 11.173
O 1.62535 13.9964 13.3833
O 10.2232 13.4219 11.2248
O 3.63859 3.30725 15.0582
O 4.95813 13.4748 11.9728
Si 1.59292 14.4347 9.07836
Si 6.84598 9.26598 11.3921
Si 7.63975 15.2601 13.0327
Si 9.34217 10.972 15.1187
Si 9.2946 13.2344 9.87813
Si 10.3614 16.8047 13.8129
O 3.05944 14.2849 0.867414
O 11.457 15.4295 13.6052
O 8.1379 13.7307 12.7759
O 9.78665 12.2999 15.9102
O 8.49452 12.051 10.6103
O 8.11426 14.2259 9.10031
O 4.04868 11.6234 10.5203
O 12.084 1.36702 10.9774
O 9.01704 15.9279 13.5794
O 10.6216 9.7598 15.1755
O 8.76022 16.4967 1.7189
O 7.85552 10.5076 15.4038
Si 12.632 14.4709 13.9391
Si 11.242 9.27981 10.5744
Si 10.4047 0.0651709 16.4649
Si 14.8822 10.2059 16.8892
Si 11.9766 9.73411 13.819
Si 13.3089 12.1308 15.0277
O 10.0154 17.1608 15.3504
O 13.915 8.80428 -0.117843
O 12.8636 8.5368 14.5027
O 2.19953 1.04079 14.4832
O 11.3698 9.33364 12.1736
O 15.0013 12.2859 14.6666
O 12.5374 11.2727 13.7884
O 12.8836 13.5035 12.7283
O 12.2905 13.4403 15.1335
O 0.61086 9.54651 16.2019
O 12.0202 17.6066 16.9462
O 13.5961 11.1388 16.5617
