324
Lattice="15.5674215665 0.0000000000 0.0000000000 0.0000000000 17.9757156059 0.0000000000 0.0000000000 0.0000000000 17.0882158012" Properties=species:S:1:pos:R:3 pbc="T T T"
Si  15.38597168  4.83365214  17.06391587
Si  5.37435045  15.89977258  15.34685871
Si  4.74241332  8.16985592  3.74364934
Si  3.72509524  1.94538018  6.65408130
Si  2.00599159  0.56059582  4.56942315
Si  3.79869368  5.01632353  3.42723848
O  4.38139699  5.63329020  4.91171603
O  4.83876863  0.86753210  10.31494186
O  2.26377914  1.54952406  5.96005011
O  6.17818578  8.45312309  16.04038908
O  3.06557551  1.05684735  3.30208088
O  2.32726735  5.47172895  2.59028980
O  1.42456624  5.09020474  0.19683360
O  2.86635678  6.92261585  16.91015008
O  4.81509303  6.92265532  2.95471443
O  4.76331117  0.66350143  6.28653210
O  3.38142080  9.16952771  3.61793288
O  4.45497334  3.35481859  6.24765811
Si  2.99004984  5.51049988  0.94709203
Si  8.44789323  0.16334939  1.37489691
Si  7.68758823  5.09493826  5.03404363
Si  8.87325818  2.90549337  3.16855886
Si  6.41540224  0.65909697  3.59457688
Si  8.24562396  5.50471449  2.37306953
O  6.56141301  4.71735383  6.23726190
O  6.85337005  1.51952998  4.93161465
O  7.90797106  3.61730156  1.85735322
O  11.28861160  5.32058226  1.08884282
O  7.16733027  17.84299592  0.58277320
O  8.53844795  6.29017479  0.84517290
O  5.52394248  1.39195407  2.38053287
O  8.11282194  9.96477221  0.43637384
O  7.14487929  5.76115724  3.49667459
O  10.44375088  3.15932945  2.80697672
O  5.91918109  8.90419038  4.28013462
O  9.78840102  5.66898244  3.06245062
Si  8.47682401  5.23694906  16.17263292
Si  0.64474213  17.72557460  16.10031211
Si  13.34772526  4.56267437  5.25599379
Si  15.01532734  1.57270842  3.15122624
Si  15.37865641  2.05980470  0.40772394
Si  12.58449273  6.08995898  0.56578173
O  12.30697536  4.66078189  3.88021839
O  13.59384367  1.66517714  3.81870860
O  15.25533816  2.60815547  1.92277955
O  12.46398150  7.55047687  1.46121747
O  13.82667158  1.47268870  16.90815605
O  15.16256382  3.49565288  16.28117707
O  13.92830932  5.01796086  0.82633720
O  12.82890625  6.54019822  16.13893341
O  14.93822298  4.80834703  4.99148586
O  0.53560399  1.27646723  4.26374887
O  0.01383602  7.11638399  4.95740884
O  13.42620396  3.13153705  6.12812508
Si  1.37212182  14.17422136  0.13810216
Si  1.46975687  9.96720623  15.94644646
Si  1.80287524  15.34249567  4.09651177
Si  4.00737000  11.71167477  2.50508961
Si  1.17991258  11.32740985  1.35224204
Si  4.22234582  14.72280858  1.09936246
O  14.22127156  13.11927855  5.66810315
O  3.36759279  10.57812131  6.16505605
O  2.25945613  11.67530460  2.53416554
O  4.39327302  15.77725757  2.35209155
O  1.96931258  10.23798943  0.50138230
O  3.89468810  15.58984997  14.78974077
O  0.71166388  12.70547794  0.30445333
O  4.66519256  15.34887677  16.73723574
O  2.70580108  14.99640737  1.28395840
O  5.44729675  11.15853515  2.03849845
O  3.30465648  1.83709786  8.31553461
O  4.03595820  12.50909417  3.86904288
Si  9.25057092  13.78260753  12.57276879
Si  7.05597896  9.88028346  16.38351358
Si  5.73368522  15.54156268  3.35280407
Si  9.10203951  11.03066982  4.46929769
Si  6.11243531  12.16582063  0.92823023
Si  9.55112053  15.54479228  2.50082565
O  4.71490076  15.04253328  5.02673610
O  8.01532070  10.28253267  5.55181639
O  7.21913613  13.17730133  0.28749284
O  9.56683362  15.12244059  4.01517260
O  6.04209597  11.02600606  16.71140960
O  8.96600636  14.74465245  1.16666434
O  9.31153125  12.30471072  13.17632948
O  8.49468712  1.36580220  2.69940418
O  6.96228484  14.53959963  2.79609790
O  8.76663779  10.69226173  2.98492221
O  6.01341710  17.13016679  3.99702936
O  9.34177929  12.70400262  4.31480189
Si  8.94250162  13.40485213  0.34586312
Si  12.06629255  8.02552089  15.25537807
Si  12.30038145  16.47876553  2.21751544
Si  11.85402160  9.11067163  0.74183935
Si  9.37374444  10.61732657  1.51991313
Si  15.22340177  16.12096111  2.19336586
O  10.95609162  11.06376969  6.60339928
O  0.35426250  8.66961339  7.57888063
O  10.80625370  10.03919881  1.66147735
O  0.45400728  14.89950386  3.15430661
O  11.03940457  8.78373227  16.39573730
O  0.24790113  15.74612912  0.68768892
O  9.46548829  12.34148884  1.39522337
O  15.26946597  17.57066244  2.71119013
O  11.21962660  15.30939882  2.16352228
O  15.17801179  10.92478109  1.51559551
O  12.23692710  17.25833448  3.55788749
O  13.62908435  15.65952586  1.93779107
Si  13.50205539  2.76546131  7.69522512
Si  3.22559703  0.54246437  9.42455970
Si  0.80839559  5.95090916  8.95954394
Si  6.17126345  1.96233094  10.57326463
Si  14.53780445  0.06712673  7.51423207
Si  3.56781409  5.48403997  9.05792333
O  0.24017530  4.85214755  10.05420699
O  6.40500146  1.09094233  11.89489291
O  2.01729596  0.34264752  10.49617230
O  6.84480901  7.50605864  8.54678953
O  0.84214932  15.33633726  9.17878915
O  4.56936550  5.67179554  7.58810774
O  14.69378424  1.70235895  7.43594459
O  2.22179810  5.86554163  8.19947359
O  3.10509469  4.30727654  9.98318638
O  7.83872941  1.86219922  9.92261291
O  0.79272204  7.33282815  9.85806752
O  5.03311005  3.23381760  10.76056955
Si  5.07416912  4.77723226  6.34701807
Si  6.39766061  0.72172196  6.48872325
Si  6.43200477  8.11034563  10.02452437
Si  9.35542324  4.51163751  9.58418400
Si  8.37014351  1.84804588  8.53516444
Si  7.87363391  6.74925057  7.36850802
O  4.53539954  5.85914727  10.38878486
O  10.85274332  0.42105868  12.76779464
O  9.45593651  3.25559270  8.42047919
O  9.34616598  7.59872476  7.98752388
O  6.86634570  1.84096686  7.51992277
O  7.83248644  5.03664878  9.09420647
O  8.27495605  3.63768101  4.41759231
O  8.73554733  5.83172812  5.88976500
O  7.25077943  7.65484858  6.13196170
O  10.86299704  5.43083831  9.48935981
O  7.39887854  9.63368638  9.72124997
O  9.19419226  3.68546737  11.12221168
Si  11.07176443  4.69901956  2.65779243
Si  12.65979381  0.45501410  4.69091003
Si  9.08346089  9.06729243  8.79961011
Si  1.04373037  1.51086703  11.59844462
Si  11.15949959  1.13506369  7.01690672
Si  14.93643874  5.89668839  6.14090367
O  10.12480426  9.58001177  9.95166257
O  11.78172102  17.46298398  10.68667307
O  12.26608924  1.87626750  7.89086030
O  15.38038123  5.61796337  7.56822582
O  11.52390681  17.55877339  7.10353601
O  13.57589701  3.77797554  9.08446885
O  9.55572892  1.20271116  7.62200112
O  13.66883433  11.99839894  8.31548460
O  13.37370056  5.95836340  6.26549504
O  13.48892591  17.36080142  8.48487941
O  8.99247675  10.40268235  7.90607904
O  15.50674698  2.74125752  11.27112506
Si  14.57614784  12.63374820  7.10869480
Si  2.67449820  9.63098111  4.96761804
Si  13.99346508  13.87266006  11.23280847
Si  4.27603146  14.23314041  10.18969522
Si  0.77794945  8.94155171  9.19927807
Si  1.69912227  16.28474983  8.11864653
O  6.41591683  14.88714426  14.64302119
O  2.43457625  9.34806945  9.16135033
O  4.43270904  11.22872269  8.56643951
O  2.21370012  14.77149662  7.27758054
O  2.57300388  8.16705350  5.79019823
O  2.16193619  13.89275966  5.00891407
O  0.68041245  12.68334398  7.95368529
O  3.14353468  17.06293548  8.46178924
O  15.07286292  14.57276499  12.18902368
O  3.03852382  13.69684580  9.25704509
O  0.35941303  17.20230321  7.33519455
O  3.76584350  11.62587342  13.21231343
Si  4.02124878  13.61108644  5.26134201
Si  6.84929129  9.35319711  5.76778876
Si  6.35763444  15.50507255  9.46811044
Si  9.80826424  11.79167554  7.66068430
Si  4.73236183  11.13467863  6.99952392
Si  7.71047020  16.05943634  6.88000449
O  5.43860479  14.08271930  9.00779223
O  7.79266137  9.99703307  12.42334287
O  10.89661563  10.06867381  4.52524166
O  11.34771711  1.15088453  5.38339560
O  5.95114462  10.08495525  6.82685793
O  7.99395380  14.93373216  5.92271835
O  4.94788125  12.50874470  6.22169421
O  7.52423465  17.65140447  6.29555810
O  6.39506503  15.86140397  7.75368144
O  9.88096579  12.47208059  9.03952701
O  7.07695762  16.98715168  10.32449732
O  9.45835352  13.02353166  6.58880983
Si  9.54362890  14.10706615  5.40890584
Si  0.90635557  8.28241609  5.92929638
Si  10.58334685  16.20251853  7.32778323
Si  13.91062487  11.09490967  9.65636602
Si  11.94463425  9.85836677  5.78660143
Si  12.47534845  16.57537208  9.50597365
O  8.88646678  16.41724420  7.80557916
O  12.48754558  10.36557255  9.85246791
O  0.99798554  9.62323664  4.78762914
O  13.46728194  15.41105008  10.36017974
O  13.21621055  9.11474643  6.10827251
O  1.54821178  17.05209512  4.31202009
O  10.81728451  14.84741895  6.49610259
O  13.72757988  0.11411676  5.92206286
O  11.28025520  15.81060712  8.76415592
O  15.06328154  9.95628743  9.63759935
O  11.82540163  1.65282181  15.77420988
O  13.93320195  12.23885529  10.81837416
Si  14.54640472  3.96978815  10.44414553
Si  6.66187159  0.65553039  16.16263066
Si  1.30694329  6.91171773  16.06233659
Si  3.81501599  1.97045835  2.46104273
Si  4.37252539  2.79155234  16.39001857
Si  3.67525177  5.34914643  14.73616398
O  15.27144920  6.44219657  16.02281232
O  5.90514155  17.43506820  15.59462252
O  3.42783514  2.11932024  0.85706823
O  4.85834976  6.31726494  15.18876774
O  2.27088751  2.28911386  12.56994589
O  3.77944499  4.64300900  12.93436052
O  1.25334866  1.15602301  14.94136259
O  4.95347020  8.88936392  9.72494306
O  2.06744663  5.56817630  14.93144586
O  6.44538114  16.72936766  12.72176920
O  1.29797538  8.42162149  15.42186445
O  4.37873122  4.77823354  1.60511349
Si  4.11740206  4.55970922  11.27840980
Si  5.75290955  17.57849992  11.51744353
Si  6.27657269  7.18857555  15.19681066
Si  13.19609917  2.27197028  15.53554183
Si  7.52736864  2.89315291  14.68374539
Si  7.29893556  7.15723081  12.65712921
O  7.56250769  6.49078550  15.55887609
O  9.83050745  0.29351687  0.13305683
O  7.84098703  1.17527138  15.24980499
O  8.67582520  7.59877456  13.24329353
O  8.90858490  3.00810970  13.82843042
O  7.54199714  5.49836024  12.51335176
O  5.59631278  1.74821265  16.60450609
O  6.63503442  8.09070883  11.52636146
O  6.06369811  7.72128044  13.72039021
O  12.62411315  3.14181090  14.16898000
O  4.09408835  3.28717123  3.53770113
O  8.27137029  3.63741034  16.09986359
Si  8.78137912  4.24419524  12.66558017
Si  12.26282484  17.92953390  12.05021855
Si  9.87056499  6.49193499  13.93546429
Si  15.51377519  0.79193005  13.99826004
Si  13.29763263  2.68327155  12.72597909
Si  11.61737025  6.11302161  10.74129457
O  9.81245158  5.80676306  15.49840587
O  0.71245918  0.49714155  0.34342472
O  14.85570525  17.44144362  15.07376895
O  3.90567871  4.22704755  16.04806211
O  13.23223129  16.90501843  12.89409523
O  13.15676608  6.12087718  10.88300683
O  10.18283496  5.34894470  12.70783210
O  11.07364422  7.79582968  11.04706800
O  13.72394836  4.19869721  11.87362675
O  14.07600551  1.51144543  14.05879628
O  11.21541244  7.40651010  13.94234368
O  0.53654363  0.09968800  12.45422123
Si  0.46089616  13.60210106  13.65599746
Si  3.83975915  9.93671464  9.43196679
Si  2.26964969  15.63762608  14.68958214
Si  4.28869804  11.85502444  11.62657363
Si  2.27968252  11.04281092  13.35120735
Si  3.48999162  1.69017283  13.48148082
O  1.67194756  14.37261617  15.62041881
O  2.38658311  10.92720985  14.93602988
O  5.92182421  11.64812083  11.43702243
O  4.05681148  0.20702967  12.92609897
O  1.85271787  9.75323917  12.41669276
O  6.01741668  3.31134423  14.04187721
O  0.74520699  12.07833693  13.04067255
O  4.81466257  16.11882225  10.40080864
O  1.71293409  14.79994448  13.54244285
O  10.01641828  13.67473743  11.09715429
O  3.47381976  2.44682489  14.90324914
O  4.47717897  13.55795949  11.63518672
Si  1.64619377  13.89770184  8.41933694
Si  7.26100236  10.60516086  11.05680185
Si  7.43964828  15.90887691  13.56634089
Si  9.04701631  11.59779045  14.53192427
Si  8.79095929  13.42350704  9.92912558
Si  10.11024575  17.26373375  13.80929016
O  4.61402411  13.03271005  1.38937292
O  10.74443987  15.80197701  13.04867927
O  7.82187385  14.43414784  12.64411492
O  9.19861872  13.20781013  15.56889493
O  8.11868251  11.97779048  10.64776668
O  7.91996346  14.72990452  9.62974723
O  3.22748939  11.16806496  10.48971435
O  12.82195022  1.52315868  11.72422440
O  8.66333864  16.90247943  13.88704324
O  10.76095491  10.66037167  14.60641960
O  9.00099635  16.97473131  2.07965062
O  7.64589140  10.69856603  15.09975784
Si  12.35390874  15.37088022  13.23145545
Si  11.48716151  9.33820081  10.84365795
Si  11.23013347  0.16030322  16.62449005
Si  14.31329280  11.05465729  16.89795197
Si  12.09420218  10.69072188  13.70987187
Si  13.47574873  13.07156373  15.34646989
O  10.97061373  17.31380002  15.28638493
O  13.21170131  9.65371492  0.02683194
O  13.01218683  9.09181498  14.59854692
O  1.91764321  16.78408254  15.73011444
O  11.92115300  10.08834688  12.21924593
O  14.84031580  13.75098510  15.00220113
O  12.95527265  12.01106005  14.25108814
O  12.70438867  13.81706541  12.18274637
O  12.83140306  14.69723086  14.79275107
O  15.48059869  10.38648292  15.86739033
O  11.77862849  17.36806704  0.90174218
O  13.45225790  12.50030232  16.79427205
