   324
 Lattice="15.083300 0.0000000000 0.0000000000 0.0000000000 17.416700 0.0000000000 0.0000000000 0.0000000000 16.556800" Properties=species:S:1:pos:R:3 pbc="T T T"
Si      0.11418058      4.35417500      0.00000000
Si      2.62811419      0.00000000      0.00000000
Si      1.19987652      6.63018936      3.67925210
Si      3.71381013      2.27601436      3.67925210
Si      1.19987651      2.07816064      1.83962605
Si      3.71381013      6.43233564      1.83962605
O       1.06638931      5.46135462      4.80511450
O       3.58032292      1.10717962      4.80511450
O       2.27863413      2.54701821      2.96548845
O       4.79256774      6.90119321      2.96548845
O       1.68269295      0.69997717      1.12586240
O       4.19647573      5.05415217      1.12586240
O       1.06638931      3.24699538      0.71376365
O       3.58032292      7.60117038      0.71376365
O       2.27863413      6.16133179      2.55338970
O       4.79256774      1.80715679      2.55338970
O       1.68269295      8.00854699      4.39301574
O       4.19647573      3.65437199      4.39301574
Si      5.14189697      4.35417500      0.00000000
Si      7.65583058      0.00000000      0.00000000
Si      6.22759290      6.63018936      3.67925210
Si      8.74152652      2.27601436      3.67925210
Si      6.22759290      2.07816064      1.83962605
Si      8.74152652      6.43233564      1.83962605
O       6.09425653      5.46135462      4.80511450
O       8.60803931      1.10717962      4.80511450
O       7.30650135      2.54701821      2.96548845
O       9.82028413      6.90119321      2.96548845
O       6.71040934      0.69997717      1.12586240
O       9.22434295      5.05415217      1.12586240
O       6.09425653      3.24699538      0.71376365
O       8.60803931      7.60117038      0.71376365
O       7.30650135      6.16133179      2.55338970
O       9.82028413      1.80715679      2.55338970
O       6.71040934      8.00854699      4.39301574
O       9.22434295      3.65437199      4.39301574
Si     10.16976419      4.35417500      0.00000000
Si     12.68354697      0.00000000      0.00000000
Si     11.25546013      6.63018936      3.67925210
Si     13.76924290      2.27601436      3.67925210
Si     11.25546013      2.07816064      1.83962605
Si     13.76924290      6.43233564      1.83962605
O      11.12197292      5.46135462      4.80511450
O      13.63590653      1.10717962      4.80511450
O      12.33421774      2.54701821      2.96548845
O      14.84815135      6.90119321      2.96548845
O      11.73812573      0.69997717      1.12586240
O      14.25205934      5.05415217      1.12586240
O      11.12197292      3.24699538      0.71376365
O      13.63590653      7.60117038      0.71376365
O      12.33421774      6.16133179      2.55338970
O      14.84815135      1.80715679      2.55338970
O      11.73812573      8.00854699      4.39301574
O      14.25205934      3.65437199      4.39301574
Si      0.11418058     13.06252500      0.00000000
Si      2.62811419      8.70835000      0.00000000
Si      1.19987652     15.33853936      3.67925210
Si      3.71381013     10.98436436      3.67925210
Si      1.19987652     10.78651064      1.83962605
Si      3.71381013     15.14068564      1.83962605
O       1.06638931     14.16970462      4.80511450
O       3.58032292      9.81552962      4.80511450
O       2.27863413     11.25536821      2.96548845
O       4.79256774     15.60954321      2.96548845
O       1.68269295      9.40832717      1.12586240
O       4.19647573     13.76250217      1.12586240
O       1.06638931     11.95534538      0.71376365
O       3.58032292     16.30952038      0.71376365
O       2.27863413     14.86968179      2.55338970
O       4.79256774     10.51550679      2.55338970
O       1.68269295     16.71689699      4.39301574
O       4.19647573     12.36272199      4.39301574
Si      5.14189697     13.06252500      0.00000000
Si      7.65583058      8.70835000      0.00000000
Si      6.22759290     15.33853936      3.67925210
Si      8.74152652     10.98436436      3.67925210
Si      6.22759290     10.78651064      1.83962605
Si      8.74152651     15.14068564      1.83962605
O       6.09425653     14.16970462      4.80511450
O       8.60803931      9.81552962      4.80511450
O       7.30650135     11.25536821      2.96548845
O       9.82028413     15.60954321      2.96548845
O       6.71040934      9.40832717      1.12586240
O       9.22434295     13.76250217      1.12586240
O       6.09425653     11.95534538      0.71376365
O       8.60803931     16.30952038      0.71376365
O       7.30650135     14.86968179      2.55338970
O       9.82028413     10.51550679      2.55338970
O       6.71040934     16.71689699      4.39301574
O       9.22434295     12.36272199      4.39301574
Si     10.16976419     13.06252500      0.00000000
Si     12.68354697      8.70835000      0.00000000
Si     11.25546013     15.33853936      3.67925210
Si     13.76924290     10.98436436      3.67925210
Si     11.25546013     10.78651064      1.83962605
Si     13.76924290     15.14068564      1.83962605
O      11.12197292     14.16970462      4.80511450
O      13.63590653      9.81552962      4.80511450
O      12.33421774     11.25536821      2.96548845
O      14.84815135     15.60954321      2.96548845
O      11.73812573      9.40832717      1.12586240
O      14.25205934     13.76250217      1.12586240
O      11.12197292     11.95534538      0.71376365
O      13.63590653     16.30952038      0.71376365
O      12.33421774     14.86968179      2.55338970
O      14.84815135     10.51550679      2.55338970
O      11.73812573     16.71689699      4.39301574
O      14.25205934     12.36272199      4.39301574
Si      0.11418058      4.35417500      5.51887814
Si      2.62811419     17.41670000      5.51887814
Si      1.19987652      6.63018936      9.19829581
Si      3.71381013      2.27601436      9.19829581
Si      1.19987652      2.07816064      7.35850419
Si      3.71381013      6.43233564      7.35850419
O       1.06638931      5.46135462     10.32415821
O       3.58032292      1.10717962     10.32415821
O       2.27863413      2.54701821      8.48436659
O       4.79256774      6.90119321      8.48436659
O       1.68269295      0.69997717      6.64474054
O       4.19647573      5.05415217      6.64474054
O       1.06638931      3.24699538      6.23264179
O       3.58032292      7.60117038      6.23264179
O       2.27863413      6.16133179      8.07243341
O       4.79256774      1.80715679      8.07243341
O       1.68269295      8.00854699      9.91205946
O       4.19647573      3.65437199      9.91205946
Si      5.14189697      4.35417500      5.51887814
Si      7.65583058     17.41670000      5.51887814
Si      6.22759290      6.63018936      9.19829581
Si      8.74152652      2.27601436      9.19829581
Si      6.22759290      2.07816064      7.35850419
Si      8.74152652      6.43233564      7.35850419
O       6.09425653      5.46135462     10.32415821
O       8.60803931      1.10717962     10.32415821
O       7.30650135      2.54701821      8.48436659
O       9.82028413      6.90119321      8.48436659
O       6.71040934      0.69997717      6.64474054
O       9.22434295      5.05415217      6.64474054
O       6.09425653      3.24699538      6.23264179
O       8.60803931      7.60117038      6.23264179
O       7.30650135      6.16133179      8.07243341
O       9.82028413      1.80715679      8.07243341
O       6.71040934      8.00854699      9.91205946
O       9.22434295      3.65437199      9.91205946
Si     10.16976419      4.35417500      5.51887814
Si     12.68354697     17.41670000      5.51887814
Si     11.25546013      6.63018936      9.19829581
Si     13.76924290      2.27601436      9.19829581
Si     11.25546013      2.07816064      7.35850419
Si     13.76924290      6.43233564      7.35850419
O      11.12197292      5.46135462     10.32415821
O      13.63590653      1.10717962     10.32415821
O      12.33421774      2.54701821      8.48436659
O      14.84815135      6.90119321      8.48436659
O      11.73812573      0.69997717      6.64474054
O      14.25205934      5.05415217      6.64474054
O      11.12197292      3.24699538      6.23264179
O      13.63590653      7.60117038      6.23264179
O      12.33421774      6.16133179      8.07243341
O      14.84815135      1.80715679      8.07243341
O      11.73812573      8.00854699      9.91205946
O      14.25205934      3.65437199      9.91205946
Si      0.11418058     13.06252500      5.51887814
Si      2.62811419      8.70835000      5.51887814
Si      1.19987652     15.33853936      9.19829581
Si      3.71381013     10.98436436      9.19829581
Si      1.19987652     10.78651064      7.35850419
Si      3.71381013     15.14068564      7.35850419
O       1.06638931     14.16970462     10.32415821
O       3.58032292      9.81552962     10.32415821
O       2.27863413     11.25536821      8.48436659
O       4.79256774     15.60954321      8.48436659
O       1.68269295      9.40832717      6.64474054
O       4.19647573     13.76250217      6.64474054
O       1.06638931     11.95534538      6.23264179
O       3.58032292     16.30952038      6.23264179
O       2.27863413     14.86968179      8.07243341
O       4.79256774     10.51550679      8.07243341
O       1.68269295     16.71689699      9.91205946
O       4.19647573     12.36272199      9.91205946
Si      5.14189697     13.06252500      5.51887814
Si      7.65583058      8.70835000      5.51887814
Si      6.22759290     15.33853936      9.19829581
Si      8.74152652     10.98436436      9.19829581
Si      6.22759290     10.78651064      7.35850419
Si      8.74152651     15.14068564      7.35850419
O       6.09425653     14.16970462     10.32415821
O       8.60803931      9.81552962     10.32415821
O       7.30650135     11.25536821      8.48436659
O       9.82028413     15.60954321      8.48436659
O       6.71040934      9.40832717      6.64474054
O       9.22434295     13.76250217      6.64474054
O       6.09425653     11.95534538      6.23264179
O       8.60803931     16.30952038      6.23264179
O       7.30650135     14.86968179      8.07243341
O       9.82028413     10.51550679      8.07243341
O       6.71040934     16.71689699      9.91205946
O       9.22434295     12.36272199      9.91205946
Si     10.16976419     13.06252500      5.51887814
Si     12.68354697      8.70835000      5.51887814
Si     11.25546013     15.33853936      9.19829581
Si     13.76924290     10.98436436      9.19829581
Si     11.25546013     10.78651064      7.35850419
Si     13.76924290     15.14068564      7.35850419
O      11.12197292     14.16970462     10.32415821
O      13.63590653      9.81552962     10.32415821
O      12.33421774     11.25536821      8.48436659
O      14.84815135     15.60954321      8.48436659
O      11.73812573      9.40832717      6.64474054
O      14.25205934     13.76250217      6.64474054
O      11.12197292     11.95534538      6.23264179
O      13.63590653     16.30952038      6.23264179
O      12.33421774     14.86968179      8.07243341
O      14.84815135     10.51550679      8.07243341
O      11.73812573     16.71689699      9.91205946
O      14.25205934     12.36272199      9.91205946
Si      0.11418058      4.35417500     11.03792186
Si      2.62811419     17.41670000     11.03792186
Si      1.19987652      6.63018936     14.71717395
Si      3.71381013      2.27601436     14.71717395
Si      1.19987652      2.07816064     12.87754790
Si      3.71381013      6.43233564     12.87754790
O       1.06638931      5.46135462     15.84303635
O       3.58032292      1.10717962     15.84303635
O       2.27863413      2.54701821     14.00341030
O       4.79256774      6.90119321     14.00341030
O       1.68269295      0.69997717     12.16378426
O       4.19647573      5.05415217     12.16378426
O       1.06638931      3.24699538     11.75168550
O       3.58032292      7.60117038     11.75168550
O       2.27863413      6.16133179     13.59131155
O       4.79256774      1.80715679     13.59131155
O       1.68269295      8.00854699     15.43093760
O       4.19647573      3.65437199     15.43093760
Si      5.14189697      4.35417500     11.03792186
Si      7.65583058     17.41670000     11.03792186
Si      6.22759290      6.63018936     14.71717395
Si      8.74152651      2.27601436     14.71717395
Si      6.22759290      2.07816064     12.87754790
Si      8.74152652      6.43233564     12.87754790
O       6.09425653      5.46135462     15.84303635
O       8.60803931      1.10717962     15.84303635
O       7.30650135      2.54701821     14.00341030
O       9.82028413      6.90119321     14.00341030
O       6.71040934      0.69997717     12.16378426
O       9.22434295      5.05415217     12.16378426
O       6.09425653      3.24699538     11.75168550
O       8.60803931      7.60117038     11.75168550
O       7.30650135      6.16133179     13.59131155
O       9.82028413      1.80715679     13.59131155
O       6.71040934      8.00854699     15.43093760
O       9.22434295      3.65437199     15.43093760
Si     10.16976419      4.35417500     11.03792186
Si     12.68354697     17.41670000     11.03792186
Si     11.25546013      6.63018936     14.71717395
Si     13.76924290      2.27601436     14.71717395
Si     11.25546013      2.07816064     12.87754790
Si     13.76924290      6.43233564     12.87754790
O      11.12197292      5.46135462     15.84303635
O      13.63590653      1.10717962     15.84303635
O      12.33421774      2.54701821     14.00341030
O      14.84815135      6.90119321     14.00341030
O      11.73812573      0.69997717     12.16378426
O      14.25205934      5.05415217     12.16378426
O      11.12197292      3.24699538     11.75168550
O      13.63590653      7.60117038     11.75168550
O      12.33421774      6.16133179     13.59131155
O      14.84815135      1.80715679     13.59131155
O      11.73812573      8.00854699     15.43093760
O      14.25205934      3.65437199     15.43093760
Si      0.11418058     13.06252500     11.03792186
Si      2.62811419      8.70835000     11.03792186
Si      1.19987652     15.33853936     14.71717395
Si      3.71381013     10.98436436     14.71717395
Si      1.19987652     10.78651064     12.87754790
Si      3.71381013     15.14068564     12.87754790
O       1.06638931     14.16970462     15.84303635
O       3.58032292      9.81552962     15.84303635
O       2.27863413     11.25536821     14.00341030
O       4.79256774     15.60954321     14.00341030
O       1.68269295      9.40832717     12.16378426
O       4.19647573     13.76250217     12.16378426
O       1.06638931     11.95534538     11.75168550
O       3.58032292     16.30952038     11.75168550
O       2.27863413     14.86968179     13.59131155
O       4.79256774     10.51550679     13.59131155
O       1.68269295     16.71689699     15.43093760
O       4.19647573     12.36272199     15.43093760
Si      5.14189697     13.06252500     11.03792186
Si      7.65583058      8.70835000     11.03792186
Si      6.22759290     15.33853936     14.71717395
Si      8.74152651     10.98436436     14.71717395
Si      6.22759290     10.78651064     12.87754790
Si      8.74152651     15.14068564     12.87754790
O       6.09425653     14.16970462     15.84303635
O       8.60803931      9.81552962     15.84303635
O       7.30650135     11.25536821     14.00341030
O       9.82028413     15.60954321     14.00341030
O       6.71040934      9.40832717     12.16378426
O       9.22434295     13.76250217     12.16378426
O       6.09425653     11.95534538     11.75168550
O       8.60803931     16.30952038     11.75168550
O       7.30650135     14.86968179     13.59131155
O       9.82028413     10.51550679     13.59131155
O       6.71040934     16.71689699     15.43093760
O       9.22434295     12.36272199     15.43093760
Si     10.16976419     13.06252500     11.03792186
Si     12.68354697      8.70835000     11.03792186
Si     11.25546013     15.33853936     14.71717395
Si     13.76924290     10.98436436     14.71717395
Si     11.25546013     10.78651064     12.87754790
Si     13.76924290     15.14068564     12.87754790
O      11.12197292     14.16970462     15.84303635
O      13.63590653      9.81552962     15.84303635
O      12.33421774     11.25536821     14.00341030
O      14.84815135     15.60954321     14.00341030
O      11.73812573      9.40832717     12.16378426
O      14.25205934     13.76250217     12.16378426
O      11.12197292     11.95534538     11.75168550
O      13.63590653     16.30952038     11.75168550
O      12.33421774     14.86968179     13.59131155
O      14.84815135     10.51550679     13.59131155
O      11.73812573     16.71689699     15.43093760
O      14.25205934     12.36272199     15.43093760
