    241
 i =       61, E =     -2915.3241363048
 Si         2.2257897786        0.6289748425        5.7622216276
 Si         4.6523932581        4.8606385219        5.7767495166
  O         2.8268220910        1.3220617766        4.4239919225
  O         0.3077622195        5.5562501322        4.4113580952
  O         2.4552003771        3.4643254317        2.9030154870
  O         0.0066058732        7.6895008941        2.8986542295
  O         3.7495026428        3.6095264267        5.2748548365
  O         1.3073342604        7.8313203574        5.2686307285
  O         0.6456881978        3.9159793968        1.1210446966
  O         3.0672886306        8.2141261374        1.1815543862
  O         0.0188051642        2.3504606265        3.1960736280
  O         2.4510115635        6.6273437720        3.2114354199
 Si         1.1455019636        2.8505524696        2.0824412660
 Si         3.5695464997        7.1119067148        2.0992223405
 Si         3.5019097394        2.7259117945        3.9387349594
 Si         1.0293545914        6.9414843165        3.9412339142
 Si         7.0780820841       17.5971264860        5.7807940157
 Si         9.5686000317        4.8761118661        5.7716906898
  O         7.6600062878        1.3456204272        4.4326474349
  O         5.2141466447        5.5753257726        4.4339594673
  O         7.3678545644        3.4652093196        2.9011447357
  O         4.9035897929        7.6952577956        2.9078989826
  O         8.6587360176        3.6194793085        5.2825392282
  O         6.2889926101        7.8357346583        5.2609351121
  O         5.5552869141        3.9122293818        1.1211052635
  O         7.9772757137        8.0877836073        1.1142278691
  O         4.9150478584        2.4148248222        3.2013316388
  O         7.3045525216        6.5579693034        3.1394753846
 Si         6.0596493909        2.8461686504        2.0790016155
 Si         8.4856619334        7.0396571048        2.0888678242
 Si         8.3915342444        2.7272249006        3.9559080785
 Si         5.9449213841        6.9485658418        3.9412127413
 Si         2.2582990067        9.0721926451        5.7154091511
 Si         4.6373214883       13.3112570978        5.7518451303
  O         2.8356642589        9.7819329802        4.3654828042
  O         0.3106579476       14.0711151251        4.3694257846
  O         2.5890454866       11.8403606513        2.7439341293
  O        -0.0039134355       16.2032083879        2.8865270046
  O         3.6181081949       12.1310002107        5.2617733284
  O         1.2968647368       16.3377718889        5.2704969247
  O         0.6489505964       12.3848644544        1.1164698074
  O         3.0729843604       16.6863433025        1.1214483825
  O         0.1331742597       10.9998397935        3.3417407949
  O         2.4546901779       15.1460630368        3.2016837867
 Si         1.1513625534       11.3198264658        2.0766694974
 Si         3.5754940473       15.6056862372        2.0654913249
 Si         3.5254092576       11.1976535125        3.9291415806
 Si         1.0314061253       15.4659859870        3.9249310374
 Si         7.2066810678        9.0882522337        5.7633550357
 Si         9.4125210801       13.4597823574        5.6899735225
  O         7.7453807882        9.8565461703        4.4310349663
  O         5.2843965347       14.0159094633        4.4321301997
  O         7.4445603131       11.9035497776        2.7458348664
  O         4.9018733691       16.1867717850        2.9053769264
  O         8.4310945664       12.2745371443        5.1951229336
  O         6.1373449088       16.3422417526        5.3326159529
  O         5.4982352145       12.3871803565        1.1189184697
  O         7.9744263315       16.6881142643        1.1800083493
  O         5.0400835977       10.9948837551        3.3555727319
  O         7.3732138511       15.2132217528        3.2840426893
 Si         6.0398172763       11.3446966603        2.0829406410
 Si         8.4769720126       15.5902904931        2.1027680157
 Si         8.3971003958       11.2630896681        3.9223726909
 Si         5.9200888774       15.4588146002        3.9777835752
  O         1.2937883934        1.5803521832        6.7098304375
  O         3.6903914036        5.7974593971        6.7112436316
  O         2.9882926609       15.5898335150        8.8673640402
  O         0.5336872019        2.8845652263        8.8633057268
  O         2.5979472354        1.2191624378        9.0144329814
  O         0.1622061301        5.4927507671        8.9377809922
  O         1.0001713380        4.3672636792        6.6722002778
  O         3.5169380809        8.5952502154        6.6467744016
  O         0.1674002002       17.1951043074        8.7697077527
  O         2.6162822033        4.5145127081        8.7884296937
 Si         1.1384297208        1.4820416917        8.3441058009
 Si         3.5816298136        5.7426113554        8.3512990213
 Si         3.5419785224       17.0263406087        8.3502608275
 Si         1.0873932912        4.3124793678        8.3120878603
  O         6.1326159183        1.5914503231        6.7247409823
  O         8.5953009498        5.8000898600        6.7085652164
  O         7.8891439884       15.6712419905        8.9295222766
  O         5.4357606570        2.9252359072        8.9278347329
  O         7.5053654630        1.2952359800        9.0127362458
  O         5.0536371727        5.5039160605        9.0072344823
  O         5.8957236591        4.3786724737        6.7217545275
  O         8.4442349493        8.6059132445        6.7143195014
  O         5.0755264047       17.2400587365        8.7997186060
  O         7.5310323395        4.5199930212        8.7952525289
 Si         6.0281337573        1.5322052254        8.3662461324
 Si         8.4985888111        5.7451817572        8.3492538960
 Si         8.4407192261       17.0942256390        8.3564987111
 Si         5.9892538230        4.3440815766        8.3608434732
  O         1.3076108242       10.0180011780        6.6515644305
  O         3.7487547137       14.3130250619        6.6885401784
  O         2.9908340912        7.1548075949        8.8595057784
  O         0.5373121815       11.3165682403        8.7993582762
  O         2.6840430535        9.7320008723        8.9293878133
  O         0.1476877180       13.9307310647        8.9323200536
  O         0.9221296302       12.8142716793        6.6361940276
  O         3.4551578188       17.0974153152        6.7175667839
  O         0.2875777790        8.6679575331        8.7737001327
  O         2.6094491787       12.9564720096        8.7062345545
 Si         1.1971323102        9.9335424094        8.2935417812
 Si         3.5866454543       14.1961821019        8.3207721632
 Si         3.6023355593        8.5509355629        8.2895607398
 Si         1.0639257795       12.7608296789        8.2687515171
  O         6.2701267908       10.0252997819        6.7179573420
  O         8.5166101635       14.3869343729        6.6975395709
  O         7.8993590969        7.1492564314        8.8652067411
  O         5.5130903242       11.3089985893        8.9337657914
  O         7.5996956578        9.7127679600        9.0086620953
  O         5.0445374576       13.9240850354        9.0019360012
  O         5.8266137612       12.7450010323        6.7212071893
  O         8.3472671400       17.1673898092        6.7214344845
  O         5.1506463155        8.6835265396        8.7252995347
  O         7.5151695308       13.0307166900        8.7824005384
 Si         6.1287921562        9.9304738316        8.3527684160
 Si         8.4427686990       14.2813273866        8.3396738690
 Si         8.5498149216        8.5549865610        8.3581280321
 Si         5.9761115993       12.7549406239        8.3563346025
 Si        12.0090065263        0.6695324254        5.8064263741
 Si        14.5003437651        4.8718674459        5.7735174348
  O        12.7131655467        1.3336220823        4.5027945718
  O        10.1835958731        5.5770260260        4.4429840414
  O        12.2804619583        3.4022322911        2.8980192480
  O         9.7448567068        7.6928548559        2.9744423671
  O        13.4960196746        3.6934987541        5.2786314961
  O        11.1042345233        7.9041249128        5.3406883282
  O        10.3994843669        3.9086844011        1.1835459784
  O        12.8815934367        8.0893990809        1.1172290199
  O         9.8294887913        2.4072412140        3.2674884890
  O        12.2657955314        6.7089007188        3.2720181333
 Si        10.9409723671        2.8281001796        2.1064813669
 Si        13.3898739345        7.0409469315        2.0916908353
 Si        13.3280835878        2.7461830740        3.9749499801
 Si        10.8433835537        7.0103882462        4.0024149034
 Si        16.8954258773       17.5337436364        5.7154138232
 Si        19.3631549866        4.8118472739        5.7356282502
  O        17.4721837355        1.2832838730        4.3582174457
  O        15.0986913472        5.5719888580        4.4370913637
  O        17.2336457189        3.4549180763        2.8281287902
  O        14.7155760022        7.6860187938        2.8963370845
  O        18.4711462332        3.5369427490        5.2611789814
  O        16.0178383229        7.9089260765        5.2784728441
  O        15.3093453141        3.9131833885        1.1258597109
  O        17.7736547927        8.1577745986        1.1748963014
  O        14.7829687268        2.4867313483        3.2877642192
  O        17.1863522336        6.6947983518        3.2771506548
 Si        15.8514851154        2.8651351622        2.0844508699
 Si        18.2875595905        7.0842324587        2.1187160815
 Si        18.2096891745        2.6760890066        3.9055021919
 Si        15.7463525112        6.9928805109        3.9645257199
 Si        12.0490130206        9.1323077599        5.8684798799
 Si        14.4251947452       13.3582557022        5.7278839905
  O        12.5722615684        9.8606737267        4.4987380080
  O        10.1113512767       14.1623860191        4.4138512959
  O        12.3499765177       11.8924283125        2.7686935666
  O         9.8546707596       16.2025461985        2.8195709718
  O        13.4849293887       12.1271773798        5.2615396800
  O        10.9667917914       16.4875929896        5.2727064811
  O        10.4024630339       12.3861176689        1.1204577714
  O        12.8228942730       16.6269823261        1.1237594727
  O         9.8997362849       11.0667348310        3.3496133073
  O        12.3333554254       15.2903338986        3.3561006335
 Si        10.9383116737       11.3215446464        2.0635521383
 Si        13.3671334491       15.5830272442        2.0850887447
 Si        13.3021952387       11.2049760585        3.9301007767
 Si        10.8380692647       15.5497781346        3.9526917726
 Si        17.0227255467        9.0932340849        5.7586977230
 Si        19.3242552386       13.3656788042        5.6999680855
  O        17.6282685182        9.7864080805        4.4195492392
  O        15.0216099943       14.0166248858        4.3620354774
  O        17.2610228595       11.8335214859        2.7523774282
  O        14.7926737076       16.1263471447        2.7639252494
  O        18.3195892858       12.1934337254        5.1980705434
  O        15.9465370173       16.2835401645        5.2678214679
  O        15.3082093433       12.3857007544        1.1200750870
  O        17.7289836673       16.6872376294        1.1819288778
  O        14.7881433599       10.9261330021        3.2825891674
  O        17.2084045130       15.1337912835        3.2787008561
 Si        15.8472791736       11.3195425680        2.0596468744
 Si        18.2672913800       15.6077782780        2.1074787074
 Si        18.2430463571       11.2063839784        3.9159488786
 Si        15.7361670219       15.4146303575        3.9097937054
  O        11.1185537291        1.6601258629        6.7527862944
  O        13.6311743667        5.8670740728        6.7299846491
  O        12.7465634900       15.5275048492        8.9298917616
  O        10.4145542218        2.9383853628        8.9389404140
  O        12.4176397663        1.2026714042        9.0794165435
  O         9.9691273381        5.5030085758        9.0102152770
  O        10.8155408409        4.4364064590        6.7283522177
  O        13.3436398663        8.5959443375        6.7164114361
  O         9.9848075205       17.2577798424        8.7880888732
  O        12.4878430456        4.5297057720        8.7825605699
 Si        10.9770775915        1.5348326150        8.3892529055
 Si        13.4854615925        5.7423617651        8.3654422952
 Si        13.3113937229       16.9710506165        8.4066005665
 Si        10.9339485448        4.3674982496        8.3608835098
  O        15.9381311161        1.5122660452        6.6627296429
  O        18.3908066796        5.7387197284        6.6630078527
  O        17.7039399201       15.5926523875        8.8545356915
  O        15.2507748327        2.8421768080        8.8640415148
  O        17.3136193783        1.2155031577        8.9375889595
  O        14.9449939877        5.4297012614        9.0138573601
  O        15.7175909887        4.3041255683        6.7063685355
  O        18.2476125875        8.5796652638        6.7107813303
  O        14.8724543660       17.1656476998        8.7868167787
  O        17.3884339776        4.4432852323        8.7808276731
 Si        15.8288519871        1.4422037536        8.3065173870
 Si        18.3020110514        5.6997957783        8.3073111315
 Si        18.2572872953       17.0153965769        8.2914851757
 Si        15.8408682598        4.2593167752        8.3412348857
  O        11.1989458768       10.0265131452        6.9347881731
  O        13.4933655625       14.3119340014        6.6846012011
  O        12.9442552825        7.1451463755        8.9367487991
  O        10.0277075038       11.4414797648        8.5840611078
  O        12.6399936831        9.7028166704        9.0794607426
  O         9.9545458901       14.0256440018        8.9259911661
  O        10.6612518453       12.8812503684        6.5768308504
  O        13.1821363951       17.0269036376        6.7747940391
  O        10.0830345241        8.6604816689        8.8525196333
  O        12.3574490615       12.8935482196        8.6351087690
 Si        11.0818332429        9.9449294865        8.6232172283
 Si        13.3555550435       14.1576451976        8.3180884705
 Si        13.5116471465        8.5496510984        8.3450992741
 Si        10.8192073318       12.8816510507        8.1845575045
  O        16.1597212392       10.1000020994        6.7079879075
  O        18.4013101178       14.3175716246        6.6541115246
  O        17.7170458215        7.1008691847        8.8575115666
  O        15.3214635807       11.3080939550        8.8677217553
  O        17.4727558664        9.7158545941        9.0088079753
  O        14.7961739789       13.8604614286        9.0080578405
  O        15.6504670211       12.8760157885        6.6873565797
  O        18.1654942803       17.0955840201        6.6507237552
  O        15.0879558976        8.6668859578        8.7095823853
  O        17.3306271947       12.9677054837        8.7166757777
 Si        16.0062587366        9.9506975723        8.3364114767
 Si        18.2956404863       14.2011679772        8.2919019978
 Si        18.3525870869        8.5137092121        8.3494293823
 Si        15.7804086838       12.7620880419        8.3144246400
  O        10.6558425727       10.9984175663        9.9292908170
    241
 i =       36, E =     -2915.2628055786
 Si         2.2090163829        0.6298980614        5.8142583756
 Si         4.6682994489        4.8449324164        5.8274184216
  O         2.7730179850        1.3568180717        4.4770166313
  O         0.3763202895        5.5717723712        4.4945599175
  O         2.4573010948        3.4625339966        2.9029256425
  O         0.0075793540        7.6820781586        2.9062507168
  O         3.7565162202        3.6186023798        5.2782658548
  O         1.3016015090        7.8930327295        5.2644840852
  O         0.6456881978        3.9159793968        1.1210446966
  O         3.0672886306        8.2141261374        1.1815543862
  O         0.0343991103        2.3410908755        3.2002781127
  O         2.4522416469        6.6304459311        3.2144678812
 Si         1.1455019636        2.8505524696        2.0824412660
 Si         3.5695464997        7.1119067148        2.0992223405
 Si         3.4961322906        2.7249510843        3.9501265353
 Si         1.0401072807        6.9631586400        3.9617799497
 Si         7.0668993168       17.5874021321        5.8360747876
 Si         9.5492194169        4.8717331568        5.8458234889
  O         7.6647719940        1.3528021415        4.5029422441
  O         5.2782939087        5.5767393540        4.5105183550
  O         7.3682962457        3.4569857374        2.9162480369
  O         4.9036630164        7.6830266676        2.9068105840
  O         8.6538729423        3.6111467957        5.3417629698
  O         6.2805254190        7.9036880426        5.2094288936
  O         5.5552869141        3.9122293818        1.1211052635
  O         7.9772757137        8.0877836073        1.1142278691
  O         4.9095686378        2.4118481707        3.2050519056
  O         7.3052436667        6.5539614697        3.1372781575
 Si         6.0596493909        2.8461686504        2.0790016155
 Si         8.4856619334        7.0396571048        2.0888678242
 Si         8.3912945967        2.7312921496        3.9941337323
 Si         5.9518868072        6.9493092373        3.9441342899
 Si         2.2641638554        9.0959430291        5.7733474078
 Si         4.6375115221       13.3315239078        5.7675397672
  O         2.9033429093        9.7904511459        4.4420921067
  O         0.3760348384       14.0748163897        4.4901494808
  O         2.5942629349       11.8283458523        2.7465754698
  O        -0.0618055635       16.2040309515        2.9594193297
  O         3.6086454131       12.1774019472        5.2530661012
  O         1.3052013515       16.3434308845        5.2796668616
  O         0.6489505964       12.3848644544        1.1164698074
  O         3.0729843604       16.6863433025        1.1214483825
  O         0.1270755062       11.0707473970        3.3596951516
  O         2.3895723199       15.1414911907        3.1335280722
 Si         1.1513625534       11.3198264658        2.0766694974
 Si         3.5754940473       15.6056862372        2.0654913249
 Si         3.5351795017       11.2112938891        3.9433867006
 Si         1.0227637675       15.4654915532        3.9478573983
 Si         7.1760012580        9.1186070364        5.8073534666
 Si         9.5323134959       13.3967290029        5.8195198353
  O         7.8080208609        9.8679423402        4.5073921656
  O         5.2867547326       14.0181137190        4.4391316725
  O         7.4482744818       11.8970718338        2.7592669387
  O         4.8452833033       16.1944062902        2.9741299001
  O         8.5162059347       12.2829104009        5.2026496580
  O         6.1334714307       16.3449745986        5.3431359654
  O         5.4982352145       12.3871803565        1.1189184697
  O         7.9744263315       16.6881142643        1.1800083493
  O         5.0460767442       10.9951040420        3.3600882442
  O         7.3644696598       15.2181764417        3.2802969181
 Si         6.0398172763       11.3446966603        2.0829406410
 Si         8.4769720126       15.5902904931        2.1027680157
 Si         8.4166228861       11.2685540315        3.9381823323
 Si         5.9151424695       15.4637442445        3.9904250333
  O         1.2323611750        1.5184458542        6.7813237922
  O         3.6847414666        5.7331730287        6.7888233441
  O         2.9861767058       15.5796188013        8.9313407806
  O         0.5284080960        2.8597000703        8.9409496817
  O         2.5964005875        1.2100478779        9.0799637861
  O         0.1392163342        5.4499544861        9.0235345824
  O         1.0036845345        4.3634661639        6.7715564136
  O         3.4737247433        8.5542720735        6.7336479117
  O         0.1508166859       17.1820459538        8.8623207717
  O         2.6144268431        4.4656391344        8.8953554270
 Si         1.1252359084        1.4551940981        8.4187066794
 Si         3.5812844701        5.6885560226        8.4299361800
 Si         3.5367096896       17.0147044260        8.4072623689
 Si         1.0836821519        4.2872973452        8.4050540759
  O         6.1301096207        1.5819620577        6.7941287719
  O         8.5876389403        5.7989258810        6.7946322260
  O         7.8995031767       15.6091332487        9.0035009669
  O         5.4351924515        2.8744919721        8.9998709992
  O         7.5076243655        1.2681485348        9.0836201936
  O         5.0518645826        5.4481420860        9.0854973628
  O         5.8987086691        4.3661573877        6.7933672416
  O         8.3669474864        8.5867914830        6.7904770211
  O         5.0771166855       17.1860386692        8.8626528451
  O         7.5288072082        4.4932714205        8.8709988375
 Si         6.0296250164        1.4852233267        8.4343376868
 Si         8.4859069928        5.7305613628        8.4372570271
 Si         8.4281852761       17.0431769519        8.4313491815
 Si         5.9887955751        4.2955703901        8.4309390326
  O         1.3076175898       10.0257255662        6.7223518483
  O         3.7459177487       14.3150194491        6.7231047277
  O         2.9918677198        7.1044923087        8.9356643813
  O         0.5455814060       11.3003225425        8.9272645265
  O         2.6663936488        9.7078116415        9.0058226995
  O         0.1415708491       13.8772911117        9.0809339406
  O         0.9211069571       12.8040331694        6.7393589992
  O         3.4470482746       17.1035507802        6.7726408589
  O         0.2285056896        8.6693564843        8.7829581376
  O         2.6171484052       12.9556186548        8.7791001547
 Si         1.1800851900        9.9235545863        8.3632040086
 Si         3.5854684580       14.1923784128        8.3577105959
 Si         3.5842414255        8.5166039455        8.3768628890
 Si         1.0647866236       12.7415900338        8.3734337774
  O         6.2090621847       10.0151046649        6.7812483612
  O         8.6526146030       14.3796427923        6.7883525051
  O         7.8938779278        7.1270373313        8.9935240447
  O         5.4893584442       11.3222982592        8.9645982192
  O         7.5731783058        9.7138754376        9.0780525998
  O         5.0571701266       13.9292584825        9.0077197356
  O         5.8263269788       12.7426448430        6.7247861764
  O         8.2916028693       17.0991137284        6.7981071884
  O         5.1306391337        8.6807387125        8.8440308846
  O         7.5250233340       12.9681609972        8.7806272174
 Si         6.0943579398        9.9285975941        8.4241255290
 Si         8.4928602986       14.2230603750        8.4206937001
 Si         8.4857727239        8.5337164335        8.4286833975
 Si         5.9781142758       12.7514674758        8.3628659565
 Si        12.0114577612        0.6980801956        5.8261733346
 Si        14.4757662301        4.9068315333        5.8401825429
  O        12.7176235344        1.3601195465        4.5164380609
  O        10.1195093428        5.5713885262        4.4992285433
  O        12.2759759448        3.4105997057        2.8979272777
  O         9.7421874105        7.6853430990        2.9700092983
  O        13.4853605794        3.7556354087        5.2715085135
  O        11.1307992481        7.8447035183        5.2713845848
  O        10.3994843669        3.9086844011        1.1835459784
  O        12.8815934367        8.0893990809        1.1172290199
  O         9.8210503464        2.4116959321        3.2769692627
  O        12.1905108034        6.5637683129        3.1415397658
 Si        10.9409723671        2.8281001796        2.1064813669
 Si        13.3898739345        7.0409469315        2.0916908353
 Si        13.3240324321        2.7787171155        3.9871186396
 Si        10.8273503401        6.9385861884        3.9582199027
 Si        16.8955045743       17.5444111232        5.8151150170
 Si        19.3960599549        4.8238375531        5.8006815377
  O        17.5449677587        1.2907866325        4.4930789531
  O        15.1638083093        5.6365238895        4.5735512815
  O        17.2472275333        3.3903108429        2.8356360112
  O        14.6439913128        7.6881708758        2.9719340919
  O        18.5385346398        3.5502092497        5.2691143960
  O        15.9456129803        8.0447834657        5.2696600432
  O        15.3093453141        3.9131833885        1.1258597109
  O        17.7736547927        8.1577745986        1.1748963014
  O        14.7816191068        2.5468698817        3.2996274084
  O        17.1674504473        6.7128601302        3.2854731006
 Si        15.8514851154        2.8651351622        2.0844508699
 Si        18.2875595905        7.0842324587        2.1187160815
 Si        18.2396213870        2.6636041327        3.9404873851
 Si        15.7485371278        7.0432296116        4.0076704661
 Si        12.0139574379        9.1195496296        5.7729451105
 Si        14.3871460669       13.3856643327        5.7731381657
  O        12.5721991211        9.8574590223        4.4295622894
  O        10.2637590040       14.1232869008        4.5658882683
  O        12.3435557190       11.9015633337        2.7612487293
  O         9.8695393986       16.1210989614        2.8332769946
  O        13.4850609478       12.1297416025        5.2698828625
  O        10.9656987146       16.5326645605        5.2688122692
  O        10.4024630339       12.3861176689        1.1204577714
  O        12.8228942730       16.6269823261        1.1237594727
  O         9.8877551512       10.9946688229        3.2966384302
  O        12.3413832576       15.2888267571        3.3568802168
 Si        10.9383116737       11.3215446464        2.0635521383
 Si        13.3671334491       15.5830272442        2.0850887447
 Si        13.3042072438       11.2315015476        3.9248269084
 Si        10.8641345040       15.5247419919        3.9988768936
 Si        16.9713094436        9.1834564376        5.8044912809
 Si        19.3416512204       13.3983470397        5.8060820692
  O        17.6297621414        9.8690673214        4.4919774727
  O        14.9576073023       14.0882540089        4.4231045126
  O        17.2591158976       11.8475791032        2.7619371527
  O        14.7883664108       16.1328036855        2.7612438805
  O        18.3150973200       12.2614833026        5.2574667899
  O        15.9404939306       16.3449041333        5.2693209301
  O        15.3082093433       12.3857007544        1.1200750870
  O        17.7289836673       16.6872376294        1.1819288778
  O        14.7886906168       10.9835061981        3.2895963409
  O        17.1779984594       15.1315042224        3.2718384950
 Si        15.8472791736       11.3195425680        2.0596468744
 Si        18.2672913800       15.6077782780        2.1074787074
 Si        18.2436511383       11.2814132094        3.9563390313
 Si        15.7244438131       15.4448394109        3.9305795912
  O        11.1109043964        1.6613310113        6.7969893317
  O        13.5654788461        5.8714466967        6.7919167635
  O        12.7268360479       15.5845500874        8.9415206652
  O        10.3543922986        2.9290241700        8.9963670713
  O        12.4122590719        1.2362640150        9.0874530178
  O         9.9626583819        5.5014188073        9.0877845134
  O        10.8070571607        4.4397303000        6.7970776703
  O        13.2688790989        8.6596525561        6.7162650676
  O         9.9736142826       17.2511320019        8.8536590014
  O        12.4556217590        4.5299669455        8.8612238598
 Si        10.9489439896        1.5344282899        8.4323699528
 Si        13.4251077385        5.7585993709        8.4246716800
 Si        13.3103838339       17.0068521581        8.4217355064
 Si        10.9060476024        4.3539081952        8.4324035078
  O        15.9418758613        1.5224259724        6.7705963210
  O        18.3947141651        5.7265600979        6.7316012278
  O        17.7062245862       15.5799491840        9.0121931422
  O        15.1886672840        2.8560899551        8.9454801882
  O        17.2778089426        1.2148540514        9.0799492779
  O        14.8866960851        5.4791800749        9.0850018567
  O        15.6500469705        4.3036416649        6.7963288190
  O        18.1676403014        8.5850626661        6.7427711771
  O        14.8614439793       17.1712508716        8.8575249465
  O        17.3277332739        4.4529145344        8.8554443892
 Si        15.8122889657        1.4621407886        8.4101826113
 Si        18.2851891287        5.6832612379        8.3780709415
 Si        18.2226889636       17.0082117838        8.4319735340
 Si        15.7744356873        4.2827951815        8.4302732808
  O        11.0419978392       10.0153325330        6.7445254905
  O        13.4198016465       14.3071199828        6.7209382256
  O        12.8591799127        7.1705380821        8.9403080988
  O        10.3488605743       11.3016068621        8.9987123288
  O        12.4697332071        9.7342388750        9.0090269949
  O         9.9552071518       13.9296110264        9.0818654389
  O        10.6633662438       12.7378610631        6.7922464708
  O        13.1877733512       17.0431692648        6.7864690943
  O        10.0420046798        8.6748334173        8.8527792039
  O        12.4070763580       12.9468065483        8.7883017635
 Si        10.9725744570        9.9336570437        8.3970675301
 Si        13.3335518974       14.2027231526        8.3643647533
 Si        13.4049888091        8.5843038396        8.3493426007
 Si        10.8455569496       12.7377097167        8.4222277756
  O        16.0951095124       10.1651237761        6.7751421376
  O        18.4706652993       14.3721183276        6.7912699426
  O        17.7091820301        7.0935549727        8.9234399483
  O        15.2591847149       11.3762205778        8.9328240861
  O        17.3914799756        9.7083978374        9.0597401201
  O        14.8059541392       13.9501957218        9.0131764178
  O        15.6405015997       12.9406912208        6.7226993759
  O        18.0966202171       17.0338805776        6.7963783896
  O        14.9560810578        8.7470207076        8.7781069160
  O        17.3187601699       12.9659827126        8.7824370899
 Si        15.9231627056       10.0016725846        8.4038054272
 Si        18.3091960555       14.2018371343        8.4210487031
 Si        18.2859536277        8.5203441734        8.3825913990
 Si        15.7634361056       12.8152796599        8.3551014798
  O        10.5397467154       10.5421005258       16.0000000000
