241
Lattice="19.6230000000 0.0000000000 0.0000000000 0.0000000000 16.9480000000 0.0000000000 0.0000000000 0.0000000000 22.0000000000" Properties=species:S:1:pos:R:3 pbc="T T T"
Si       2.2257897786    0.6289748425    5.7622216276
Si       4.6523932581    4.8606385219    5.7767495166
O        2.8268220910    1.3220617766    4.4239919225
O        0.3077622195    5.5562501322    4.4113580952
O        2.4552003771    3.4643254317    2.9030154870
O        0.0066058732    7.6895008941    2.8986542295
O        3.7495026428    3.6095264267    5.2748548365
O        1.3073342604    7.8313203574    5.2686307285
O        0.6456881978    3.9159793968    1.1210446966
O        3.0672886306    8.2141261374    1.1815543862
O        0.0188051642    2.3504606265    3.1960736280
O        2.4510115635    6.6273437720    3.2114354199
Si       1.1455019636    2.8505524696    2.0824412660
Si       3.5695464997    7.1119067148    2.0992223405
Si       3.5019097394    2.7259117945    3.9387349594
Si       1.0293545914    6.9414843165    3.9412339142
Si       7.0780820841   17.5971264860    5.7807940157
Si       9.5686000317    4.8761118661    5.7716906898
O        7.6600062878    1.3456204272    4.4326474349
O        5.2141466447    5.5753257726    4.4339594673
O        7.3678545644    3.4652093196    2.9011447357
O        4.9035897929    7.6952577956    2.9078989826
O        8.6587360176    3.6194793085    5.2825392282
O        6.2889926101    7.8357346583    5.2609351121
O        5.5552869141    3.9122293818    1.1211052635
O        7.9772757137    8.0877836073    1.1142278691
O        4.9150478584    2.4148248222    3.2013316388
O        7.3045525216    6.5579693034    3.1394753846
Si       6.0596493909    2.8461686504    2.0790016155
Si       8.4856619334    7.0396571048    2.0888678242
Si       8.3915342444    2.7272249006    3.9559080785
Si       5.9449213841    6.9485658418    3.9412127413
Si       2.2582990067    9.0721926451    5.7154091511
Si       4.6373214883   13.3112570978    5.7518451303
O        2.8356642589    9.7819329802    4.3654828042
O        0.3106579476   14.0711151251    4.3694257846
O        2.5890454866   11.8403606513    2.7439341293
O       -0.0039134355   16.2032083879    2.8865270046
O        3.6181081949   12.1310002107    5.2617733284
O        1.2968647368   16.3377718889    5.2704969247
O        0.6489505964   12.3848644544    1.1164698074
O        3.0729843604   16.6863433025    1.1214483825
O        0.1331742597   10.9998397935    3.3417407949
O        2.4546901779   15.1460630368    3.2016837867
Si       1.1513625534   11.3198264658    2.0766694974
Si       3.5754940473   15.6056862372    2.0654913249
Si       3.5254092576   11.1976535125    3.9291415806
Si       1.0314061253   15.4659859870    3.9249310374
Si       7.2066810678    9.0882522337    5.7633550357
Si       9.4125210801   13.4597823574    5.6899735225
O        7.7453807882    9.8565461703    4.4310349663
O        5.2843965347   14.0159094633    4.4321301997
O        7.4445603131   11.9035497776    2.7458348664
O        4.9018733691   16.1867717850    2.9053769264
O        8.4310945664   12.2745371443    5.1951229336
O        6.1373449088   16.3422417526    5.3326159529
O        5.4982352145   12.3871803565    1.1189184697
O        7.9744263315   16.6881142643    1.1800083493
O        5.0400835977   10.9948837551    3.3555727319
O        7.3732138511   15.2132217528    3.2840426893
Si       6.0398172763   11.3446966603    2.0829406410
Si       8.4769720126   15.5902904931    2.1027680157
Si       8.3971003958   11.2630896681    3.9223726909
Si       5.9200888774   15.4588146002    3.9777835752
O        1.2937883934    1.5803521832    6.7098304375
O        3.6903914036    5.7974593971    6.7112436316
O        2.9882926609   15.5898335150    8.8673640402
O        0.5336872019    2.8845652263    8.8633057268
O        2.5979472354    1.2191624378    9.0144329814
O        0.1622061301    5.4927507671    8.9377809922
O        1.0001713380    4.3672636792    6.6722002778
O        3.5169380809    8.5952502154    6.6467744016
O        0.1674002002   17.1951043074    8.7697077527
O        2.6162822033    4.5145127081    8.7884296937
Si       1.1384297208    1.4820416917    8.3441058009
Si       3.5816298136    5.7426113554    8.3512990213
Si       3.5419785224   17.0263406087    8.3502608275
Si       1.0873932912    4.3124793678    8.3120878603
O        6.1326159183    1.5914503231    6.7247409823
O        8.5953009498    5.8000898600    6.7085652164
O        7.8891439884   15.6712419905    8.9295222766
O        5.4357606570    2.9252359072    8.9278347329
O        7.5053654630    1.2952359800    9.0127362458
O        5.0536371727    5.5039160605    9.0072344823
O        5.8957236591    4.3786724737    6.7217545275
O        8.4442349493    8.6059132445    6.7143195014
O        5.0755264047   17.2400587365    8.7997186060
O        7.5310323395    4.5199930212    8.7952525289
Si       6.0281337573    1.5322052254    8.3662461324
Si       8.4985888111    5.7451817572    8.3492538960
Si       8.4407192261   17.0942256390    8.3564987111
Si       5.9892538230    4.3440815766    8.3608434732
O        1.3076108242   10.0180011780    6.6515644305
O        3.7487547137   14.3130250619    6.6885401784
O        2.9908340912    7.1548075949    8.8595057784
O        0.5373121815   11.3165682403    8.7993582762
O        2.6840430535    9.7320008723    8.9293878133
O        0.1476877180   13.9307310647    8.9323200536
O        0.9221296302   12.8142716793    6.6361940276
O        3.4551578188   17.0974153152    6.7175667839
O        0.2875777790    8.6679575331    8.7737001327
O        2.6094491787   12.9564720096    8.7062345545
Si       1.1971323102    9.9335424094    8.2935417812
Si       3.5866454543   14.1961821019    8.3207721632
Si       3.6023355593    8.5509355629    8.2895607398
Si       1.0639257795   12.7608296789    8.2687515171
O        6.2701267908   10.0252997819    6.7179573420
O        8.5166101635   14.3869343729    6.6975395709
O        7.8993590969    7.1492564314    8.8652067411
O        5.5130903242   11.3089985893    8.9337657914
O        7.5996956578    9.7127679600    9.0086620953
O        5.0445374576   13.9240850354    9.0019360012
O        5.8266137612   12.7450010323    6.7212071893
O        8.3472671400   17.1673898092    6.7214344845
O        5.1506463155    8.6835265396    8.7252995347
O        7.5151695308   13.0307166900    8.7824005384
Si       6.1287921562    9.9304738316    8.3527684160
Si       8.4427686990   14.2813273866    8.3396738690
Si       8.5498149216    8.5549865610    8.3581280321
Si       5.9761115993   12.7549406239    8.3563346025
Si      12.0090065263    0.6695324254    5.8064263741
Si      14.5003437651    4.8718674459    5.7735174348
O       12.7131655467    1.3336220823    4.5027945718
O       10.1835958731    5.5770260260    4.4429840414
O       12.2804619583    3.4022322911    2.8980192480
O        9.7448567068    7.6928548559    2.9744423671
O       13.4960196746    3.6934987541    5.2786314961
O       11.1042345233    7.9041249128    5.3406883282
O       10.3994843669    3.9086844011    1.1835459784
O       12.8815934367    8.0893990809    1.1172290199
O        9.8294887913    2.4072412140    3.2674884890
O       12.2657955314    6.7089007188    3.2720181333
Si      10.9409723671    2.8281001796    2.1064813669
Si      13.3898739345    7.0409469315    2.0916908353
Si      13.3280835878    2.7461830740    3.9749499801
Si      10.8433835537    7.0103882462    4.0024149034
Si      16.8954258773   17.5337436364    5.7154138232
Si      19.3631549866    4.8118472739    5.7356282502
O       17.4721837355    1.2832838730    4.3582174457
O       15.0986913472    5.5719888580    4.4370913637
O       17.2336457189    3.4549180763    2.8281287902
O       14.7155760022    7.6860187938    2.8963370845
O       18.4711462332    3.5369427490    5.2611789814
O       16.0178383229    7.9089260765    5.2784728441
O       15.3093453141    3.9131833885    1.1258597109
O       17.7736547927    8.1577745986    1.1748963014
O       14.7829687268    2.4867313483    3.2877642192
O       17.1863522336    6.6947983518    3.2771506548
Si      15.8514851154    2.8651351622    2.0844508699
Si      18.2875595905    7.0842324587    2.1187160815
Si      18.2096891745    2.6760890066    3.9055021919
Si      15.7463525112    6.9928805109    3.9645257199
Si      12.0490130206    9.1323077599    5.8684798799
Si      14.4251947452   13.3582557022    5.7278839905
O       12.5722615684    9.8606737267    4.4987380080
O       10.1113512767   14.1623860191    4.4138512959
O       12.3499765177   11.8924283125    2.7686935666
O        9.8546707596   16.2025461985    2.8195709718
O       13.4849293887   12.1271773798    5.2615396800
O       10.9667917914   16.4875929896    5.2727064811
O       10.4024630339   12.3861176689    1.1204577714
O       12.8228942730   16.6269823261    1.1237594727
O        9.8997362849   11.0667348310    3.3496133073
O       12.3333554254   15.2903338986    3.3561006335
Si      10.9383116737   11.3215446464    2.0635521383
Si      13.3671334491   15.5830272442    2.0850887447
Si      13.3021952387   11.2049760585    3.9301007767
Si      10.8380692647   15.5497781346    3.9526917726
Si      17.0227255467    9.0932340849    5.7586977230
Si      19.3242552386   13.3656788042    5.6999680855
O       17.6282685182    9.7864080805    4.4195492392
O       15.0216099943   14.0166248858    4.3620354774
O       17.2610228595   11.8335214859    2.7523774282
O       14.7926737076   16.1263471447    2.7639252494
O       18.3195892858   12.1934337254    5.1980705434
O       15.9465370173   16.2835401645    5.2678214679
O       15.3082093433   12.3857007544    1.1200750870
O       17.7289836673   16.6872376294    1.1819288778
O       14.7881433599   10.9261330021    3.2825891674
O       17.2084045130   15.1337912835    3.2787008561
Si      15.8472791736   11.3195425680    2.0596468744
Si      18.2672913800   15.6077782780    2.1074787074
Si      18.2430463571   11.2063839784    3.9159488786
Si      15.7361670219   15.4146303575    3.9097937054
O       11.1185537291    1.6601258629    6.7527862944
O       13.6311743667    5.8670740728    6.7299846491
O       12.7465634900   15.5275048492    8.9298917616
O       10.4145542218    2.9383853628    8.9389404140
O       12.4176397663    1.2026714042    9.0794165435
O        9.9691273381    5.5030085758    9.0102152770
O       10.8155408409    4.4364064590    6.7283522177
O       13.3436398663    8.5959443375    6.7164114361
O        9.9848075205   17.2577798424    8.7880888732
O       12.4878430456    4.5297057720    8.7825605699
Si      10.9770775915    1.5348326150    8.3892529055
Si      13.4854615925    5.7423617651    8.3654422952
Si      13.3113937229   16.9710506165    8.4066005665
Si      10.9339485448    4.3674982496    8.3608835098
O       15.9381311161    1.5122660452    6.6627296429
O       18.3908066796    5.7387197284    6.6630078527
O       17.7039399201   15.5926523875    8.8545356915
O       15.2507748327    2.8421768080    8.8640415148
O       17.3136193783    1.2155031577    8.9375889595
O       14.9449939877    5.4297012614    9.0138573601
O       15.7175909887    4.3041255683    6.7063685355
O       18.2476125875    8.5796652638    6.7107813303
O       14.8724543660   17.1656476998    8.7868167787
O       17.3884339776    4.4432852323    8.7808276731
Si      15.8288519871    1.4422037536    8.3065173870
Si      18.3020110514    5.6997957783    8.3073111315
Si      18.2572872953   17.0153965769    8.2914851757
Si      15.8408682598    4.2593167752    8.3412348857
O       11.1989458768   10.0265131452    6.9347881731
O       13.4933655625   14.3119340014    6.6846012011
O       12.9442552825    7.1451463755    8.9367487991
O       10.0277075038   11.4414797648    8.5840611078
O       12.6399936831    9.7028166704    9.0794607426
O        9.9545458901   14.0256440018    8.9259911661
O       10.6612518453   12.8812503684    6.5768308504
O       13.1821363951   17.0269036376    6.7747940391
O       10.0830345241    8.6604816689    8.8525196333
O       12.3574490615   12.8935482196    8.6351087690
Si      11.0818332429    9.9449294865    8.6232172283
Si      13.3555550435   14.1576451976    8.3180884705
Si      13.5116471465    8.5496510984    8.3450992741
Si      10.8192073318   12.8816510507    8.1845575045
O       16.1597212392   10.1000020994    6.7079879075
O       18.4013101178   14.3175716246    6.6541115246
O       17.7170458215    7.1008691847    8.8575115666
O       15.3214635807   11.3080939550    8.8677217553
O       17.4727558664    9.7158545941    9.0088079753
O       14.7961739789   13.8604614286    9.0080578405
O       15.6504670211   12.8760157885    6.6873565797
O       18.1654942803   17.0955840201    6.6507237552
O       15.0879558976    8.6668859578    8.7095823853
O       17.3306271947   12.9677054837    8.7166757777
Si      16.0062587366    9.9506975723    8.3364114767
Si      18.2956404863   14.2011679772    8.2919019978
Si      18.3525870869    8.5137092121    8.3494293823
Si      15.7804086838   12.7620880419    8.3144246400
O       10.6558425727   10.9984175663    9.9292908170
241
Lattice="19.6230000000 0.0000000000 0.0000000000 0.0000000000 16.9480000000 0.0000000000 0.0000000000 0.0000000000 22.0000000000" Properties=species:S:1:pos:R:3 pbc="T T T"
Si       2.2229942126    0.6291287123    5.7708944189
Si       4.6550442899    4.8580208377    5.7851943341
O        2.8178547400    1.3278544924    4.4328293740
O        0.3191885645    5.5588371720    4.4252250656
O        2.4555504967    3.4640268592    2.9030005129
O        0.0067681200    7.6882637715    2.8999203107
O        3.7506715724    3.6110390855    5.2754233396
O        1.3063788018    7.8416057528    5.2679396213
O        0.6456881978    3.9159793968    1.1210446966
O        3.0672886306    8.2141261374    1.1815543862
O        0.0214041552    2.3488990013    3.1967743754
O        2.4512165774    6.6278607985    3.2119408301
Si       1.1455019636    2.8505524696    2.0824412660
Si       3.5695464997    7.1119067148    2.0992223405
Si       3.5009468313    2.7257516761    3.9406335554
Si       1.0311467063    6.9450967037    3.9446582535
Si       7.0762182895   17.5955057604    5.7900074777
Si       9.5653699292    4.8753820812    5.7840461563
O        7.6608005722    1.3468173796    4.4443632364
O        5.2248378554    5.5755613695    4.4467192819
O        7.3679281779    3.4638387226    2.9036619526
O        4.9036019968    7.6932192743    2.9077175828
O        8.6579255051    3.6180905564    5.2924098518
O        6.2875814116    7.8470602223    5.2523507423
O        5.5552869141    3.9122293818    1.1211052635
O        7.9772757137    8.0877836073    1.1142278691
O        4.9141346550    2.4143287136    3.2019516833
O        7.3046677124    6.5573013311    3.1391091801
Si       6.0596493909    2.8461686504    2.0790016155
Si       8.4856619334    7.0396571048    2.0888678242
Si       8.3914943031    2.7279027754    3.9622790208
Si       5.9460822879    6.9486897410    3.9416996661
Si       2.2592764815    9.0761510424    5.7250655272
Si       4.6373531606   13.3146348995    5.7544609031
O        2.8469440340    9.7833526745    4.3782510213
O        0.3215540961   14.0717320025    4.3895464006
O        2.5899150613   11.8383581848    2.7443743527
O       -0.0135621235   16.2033454818    2.8986757254
O        3.6165310646   12.1387338335    5.2603221239
O        1.2982541726   16.3387150548    5.2720252475
O        0.6489505964   12.3848644544    1.1164698074
O        3.0729843604   16.6863433025    1.1214483825
O        0.1321578008   11.0116577274    3.3447331877
O        2.4438372016   15.1453010624    3.1903245010
Si       1.1513625534   11.3198264658    2.0766694974
Si       3.5754940473   15.6056862372    2.0654913249
Si       3.5270376316   11.1999269086    3.9315157673
Si       1.0299657323   15.4659035814    3.9287520975
Si       7.2015677662    9.0933113675    5.7706881075
Si       9.4324864827   13.4492734650    5.7115645746
O        7.7558208003    9.8584455320    4.4437611662
O        5.2847895677   14.0162768393    4.4332971118
O        7.4451793412   11.9024701203    2.7480735451
O        4.8924416915   16.1880442025    2.9168357553
O        8.4452797945   12.2759326871    5.1963773877
O        6.1366993291   16.3426972269    5.3343692883
O        5.4982352145   12.3871803565    1.1189184697
O        7.9744263315   16.6881142643    1.1800083493
O        5.0410824554   10.9949204696    3.3563253173
O        7.3717564859   15.2140475343    3.2834183941
Si       6.0398172763   11.3446966603    2.0829406410
Si       8.4769720126   15.5902904931    2.1027680157
Si       8.4003541442   11.2640003953    3.9250076311
Si       5.9192644761   15.4596362076    3.9798904849
O        1.2835505237    1.5700344617    6.7217459966
O        3.6894497474    5.7867450024    6.7241735837
O        2.9879400017   15.5881310627    8.8780268303
O        0.5328073509    2.8804210336    8.8762463860
O        2.5976894607    1.2176433445    9.0253547822
O        0.1583744975    5.4856180536    8.9520732572
O        1.0007568707    4.3666307600    6.6887596338
O        3.5097358580    8.5884205251    6.6612533200
O        0.1646362811   17.1929279151    8.7851432559
O        2.6159729766    4.5063671125    8.8062506492
Si       1.1362307521    1.4775670928    8.3565392806
Si       3.5815722564    5.7336021333    8.3644052144
Si       3.5411003836   17.0244012449    8.3597610844
Si       1.0867747680    4.3082823640    8.3275822296
O        6.1321982020    1.5898689455    6.7363056139
O        8.5940239482    5.7998958635    6.7229097180
O        7.8908705198   15.6608905335    8.9418520583
O        5.4356659561    2.9167785847    8.9398407773
O        7.5057419468    1.2907214058    9.0245502371
O        5.0533417410    5.4946203981    9.0202782957
O        5.8962211608    4.3765866260    6.7336899799
O        8.4313537055    8.6027262843    6.7270124214
O        5.0757914515   17.2310553920    8.8102076459
O        7.5306614843    4.5155394211    8.8078769137
Si       6.0283823005    1.5243749090    8.3775947248
Si       8.4964751747    5.7427450248    8.3639210845
Si       8.4386302344   17.0857175245    8.3689737895
Si       5.9891774484    4.3359963788    8.3725260664
O        1.3076119518   10.0192885760    6.6633623335
O        3.7482818862   14.3133574598    6.6943009366
O        2.9910063626    7.1464217139    8.8721988789
O        0.5386903856   11.3138606240    8.8206759846
O        2.6811014861    9.7279693338    8.9421269610
O        0.1466682398   13.9218244059    8.9570890348
O        0.9219591847   12.8125652610    6.6533881895
O        3.4538062281   17.0984378927    6.7267457964
O        0.2777324308    8.6681906916    8.7752431335
O        2.6107323831   12.9563297838    8.7183788212
Si       1.1942911235    9.9318777722    8.3051521524
Si       3.5864492882   14.1955481537    8.3269285686
Si       3.5993198703    8.5452136267    8.3041110980
Si       1.0640692535   12.7576230714    8.2861985605
O        6.2599493564   10.0236005957    6.7285058452
O        8.5392775701   14.3857191095    6.7126750599
O        7.8984455687    7.1455532480    8.8865929584
O        5.5091350109   11.3112152010    8.9389045294
O        7.5952760991    9.7129525396    9.0202271794
O        5.0466429024   13.9249472766    9.0028999569
O        5.8265659641   12.7446083341    6.7218036872
O        8.3379897616   17.1560104624    6.7342132685
O        5.1473117852    8.6830619018    8.7450880930
O        7.5168118313   13.0202907412    8.7821049849
Si       6.1230531201    9.9301611254    8.3646612682
Si       8.4511172989   14.2716162180    8.3531771742
Si       8.5391412220    8.5514415397    8.3698872597
Si       5.9764453787   12.7543617659    8.3574231615
Si      12.0094150654    0.6742903871    5.8097175342
Si      14.4962475093    4.8776947938    5.7846282861
O       12.7139085446    1.3380383263    4.5050684866
O       10.1729147847    5.5760864427    4.4523581250
O       12.2797142894    3.4036268602    2.8980039196
O        9.7444118241    7.6916028964    2.9737035223
O       13.4942431587    3.7038548632    5.2774443323
O       11.1086619774    7.8942213471    5.3291377043
O       10.3994843669    3.9086844011    1.1835459784
O       12.8815934367    8.0893990809    1.1172290199
O        9.8280823838    2.4079836670    3.2690686180
O       12.2532480767    6.6847119845    3.2502717387
Si      10.9409723671    2.8281001796    2.1064813669
Si      13.3898739345    7.0409469315    2.0916908353
Si      13.3274083952    2.7516054143    3.9769780900
Si      10.8407113514    6.9984212366    3.9950490699
Si      16.8954389935   17.5355215509    5.7320306888
Si      19.3686391480    4.8138456538    5.7464704648
O       17.4843144060    1.2845343329    4.3806943636
O       15.1095441742    5.5827446966    4.4598346833
O       17.2359093546    3.4441502041    2.8293799937
O       14.7036452206    7.6863774741    2.9089365857
O       18.4823776343    3.5391538325    5.2625015505
O       16.0058007658    7.9315689747    5.2770040440
O       15.3093453141    3.9131833885    1.1258597109
O       17.7736547927    8.1577745986    1.1748963014
O       14.7827437901    2.4967544372    3.2897414174
O       17.1832019359    6.6978086482    3.2785377291
Si      15.8514851154    2.8651351622    2.0844508699
Si      18.2875595905    7.0842324587    2.1187160815
Si      18.2146778766    2.6740081943    3.9113330574
Si      15.7467166140    7.0012720277    3.9717165109
Si      12.0431704235    9.1301814048    5.8525574183
Si      14.4188532988   13.3628238073    5.7354263530
O       12.5722511605    9.8601379426    4.4872087216
O       10.1367525646   14.1558694994    4.4391907913
O       12.3489063846   11.8939508160    2.7674527604
O        9.8571488661   16.1889716590    2.8218553089
O       13.4849513152   12.1276047503    5.2629302104
O       10.9666096119   16.4951049181    5.2720574458
O       10.4024630339   12.3861176689    1.1204577714
O       12.8228942730   16.6269823261    1.1237594727
O        9.8977394293   11.0547238296    3.3407841611
O       12.3346933974   15.2900827084    3.3562305641
Si      10.9383116737   11.3215446464    2.0635521383
Si      13.3671334491   15.5830272442    2.0850887447
Si      13.3025305729   11.2093969733    3.9292217986
Si      10.8424134712   15.5456054442    3.9603892928
Si      17.0141561962    9.1082711437    5.7663299827
Si      19.3271545689   13.3711235101    5.7176537495
O       17.6285174554    9.8001846206    4.4316206115
O       15.0109428790   14.0285630730    4.3722136499
O       17.2607050325   11.8358644221    2.7539707156
O       14.7919558248   16.1274232348    2.7634783546
O       18.3188406248   12.2047753216    5.2079699178
O       15.9455298362   16.2937674926    5.2680713783
O       15.3082093433   12.3857007544    1.1200750870
O       17.7289836673   16.6872376294    1.1819288778
O       14.7882345694   10.9356952014    3.2837570296
O       17.2033368374   15.1334101067    3.2775571292
Si      15.8472791736   11.3195425680    2.0596468744
Si      18.2672913800   15.6077782780    2.1074787074
Si      18.2431471540   11.2188888502    3.9226805707
Si      15.7342131538   15.4196651997    3.9132580197
O       11.1172788403    1.6603267210    6.7601534673
O       13.6202251133    5.8678028435    6.7403066682
O       12.7432755830   15.5370123889    8.9318299122
O       10.4045272346    2.9368251640    8.9485115235
O       12.4167429839    1.2082701727    9.0807559559
O        9.9680491787    5.5027436144    9.0231434831
O       10.8141268942    4.4369604325    6.7398064598
O       13.3311797384    8.6065623739    6.7163870413
O        9.9829419809   17.2566718690    8.7990172279
O       12.4824728312    4.5297493009    8.7956711182
Si      10.9723886579    1.5347652275    8.3964390800
Si      13.4754026168    5.7450680327    8.3753138593
Si      13.3112254081   16.9770175401    8.4091230565
Si      10.9292983877    4.3652332405    8.3728035095
O       15.9387552403    1.5139593664    6.6807074226
O       18.3914579272    5.7366931233    6.6744400819
O       17.7043206978   15.5905351869    8.8808119333
O       15.2404235746    2.8444956659    8.8776146270
O       17.3076509724    1.2153949733    8.9613156792
O       14.9352776706    5.4379477303    9.0257147762
O       15.7063336523    4.3040449177    6.7213619161
O       18.2342838732    8.5805648309    6.7161129714
O       14.8706193016   17.1665815618    8.7986014733
O       17.3783171936    4.4448901160    8.7932637924
Si      15.8260914835    1.4455265928    8.3237949244
Si      18.2992073976    5.6970400216    8.3191044332
Si      18.2515209067   17.0141991114    8.3148999021
Si      15.8297961644    4.2632298429    8.3560746182
O       11.1727878705   10.0246497098    6.9030777260
O       13.4811049098   14.3111316650    6.6906573718
O       12.9300760542    7.1493783266    8.9373420157
O       10.0812330155   11.4181676144    8.6531696446
O       12.6116169371    9.7080537045    9.0677217847
O        9.9546561004   14.0096385059    8.9519702116
O       10.6616042451   12.8573521508    6.6127334538
O       13.1830758878   17.0296145755    6.7767398816
O       10.0761962167    8.6628736270    8.8525628951
O       12.3657202776   12.9024246077    8.6606409348
Si      11.0636234453    9.9430507460    8.5855256119
Si      13.3518878525   14.1651581901    8.3258011843
Si      13.4938707569    8.5554265553    8.3458064952
Si      10.8235989348   12.8576608284    8.2241692164
O       16.1489526181   10.1108557122    6.7191802792
O       18.4128693147   14.3266627418    6.6769712609
O       17.7157351896    7.0996501494    8.8684996302
O       15.3110837697   11.3194483921    8.8785721438
O       17.4592098846    9.7146118013    9.0172966661
O       14.7978040056   13.8754171441    9.0089109367
O       15.6488061175   12.8867950272    6.6932470457
O       18.1540152698   17.0853001130    6.6749995276
O       15.0659767576    8.6802417494    8.7210031404
O       17.3286493572   12.9674183552    8.7276359964
Si      15.9924093981    9.9591934077    8.3476438018
Si      18.2978997478   14.2012795034    8.3134264487
Si      18.3414815104    8.5148150390    8.3549563851
Si      15.7775799208   12.7709533116    8.3212041133
O       10.6364932631   10.9223647262   10.9410756808
241
Lattice="19.6230000000 0.0000000000 0.0000000000 0.0000000000 16.9480000000 0.0000000000 0.0000000000 0.0000000000 22.0000000000" Properties=species:S:1:pos:R:3 pbc="T T T"
Si       2.2201986467    0.6292825821    5.7795672103
Si       4.6576953217    4.8554031534    5.7936391516
O        2.8088873890    1.3336472083    4.4416668254
O        0.3306149095    5.5614242119    4.4390920360
O        2.4559006163    3.4637282867    2.9029855388
O        0.0069303668    7.6870266489    2.9011863919
O        3.7518405019    3.6125517444    5.2759918426
O        1.3054233433    7.8518911481    5.2672485141
O        0.6456881978    3.9159793968    1.1210446966
O        3.0672886306    8.2141261374    1.1815543862
O        0.0240031462    2.3473373762    3.1974751229
O        2.4514215913    6.6283778250    3.2124462403
Si       1.1455019636    2.8505524696    2.0824412660
Si       3.5695464997    7.1119067148    2.0992223405
Si       3.4999839231    2.7255915578    3.9425321514
Si       1.0329388212    6.9487090910    3.9480825927
Si       7.0743544950   17.5938850347    5.7992209397
Si       9.5621398268    4.8746522963    5.7964016228
O        7.6615948565    1.3480143320    4.4560790380
O        5.2355290660    5.5757969664    4.4594790965
O        7.3680017915    3.4624681255    2.9061791694
O        4.9036142007    7.6911807529    2.9075361831
O        8.6571149925    3.6167018042    5.3022804754
O        6.2861702131    7.8583857864    5.2437663726
O        5.5552869141    3.9122293818    1.1211052635
O        7.9772757137    8.0877836073    1.1142278691
O        4.9132214515    2.4138326050    3.2025717277
O        7.3047829033    6.5566333588    3.1387429756
Si       6.0596493909    2.8461686504    2.0790016155
Si       8.4856619334    7.0396571048    2.0888678242
Si       8.3914543618    2.7285806503    3.9686499631
Si       5.9472431918    6.9488136403    3.9421865908
Si       2.2602539563    9.0801094398    5.7347219033
Si       4.6373848329   13.3180127011    5.7570766759
O        2.8582238090    9.7847723688    4.3910192384
O        0.3324502445   14.0723488800    4.4096670167
O        2.5907846360   11.8363557183    2.7448145761
O       -0.0232108115   16.2034825758    2.9108244463
O        3.6149539343   12.1464674562    5.2588709193
O        1.2996436084   16.3396582208    5.2735535703
O        0.6489505964   12.3848644544    1.1164698074
O        3.0729843604   16.6863433025    1.1214483825
O        0.1311413419   11.0234756613    3.3477255805
O        2.4329842252   15.1445390881    3.1789652152
Si       1.1513625534   11.3198264658    2.0766694974
Si       3.5754940473   15.6056862372    2.0654913249
Si       3.5286660056   11.2022003047    3.9338899539
Si       1.0285253394   15.4658211757    3.9325731577
Si       7.1964544645    9.0983705013    5.7780211793
Si       9.4524518854   13.4387645726    5.7331556268
O        7.7662608124    9.8603448936    4.4564873661
O        5.2851826007   14.0166442152    4.4344640240
O        7.4457983693   11.9013904630    2.7503122238
O        4.8830100138   16.1893166201    2.9282945843
O        8.4594650225   12.2773282298    5.1976318417
O        6.1360537494   16.3431527013    5.3361226237
O        5.4982352145   12.3871803565    1.1189184697
O        7.9744263315   16.6881142643    1.1800083493
O        5.0420813132   10.9949571841    3.3570779027
O        7.3702991207   15.2148733158    3.2827940989
Si       6.0398172763   11.3446966603    2.0829406410
Si       8.4769720126   15.5902904931    2.1027680157
Si       8.4036078926   11.2649111226    3.9276425714
Si       5.9184400748   15.4604578150    3.9819973946
O        1.2733126539    1.5597167402    6.7336615557
O        3.6885080913    5.7760306076    6.7371035358
O        2.9875873425   15.5864286104    8.8886896203
O        0.5319274999    2.8762768410    8.8891870451
O        2.5974316861    1.2161242512    9.0362765830
O        0.1545428648    5.4784853401    8.9663655223
O        1.0013424035    4.3659978408    6.7053189897
O        3.5025336350    8.5815908348    6.6757322383
O        0.1618723621   17.1907515229    8.8005787590
O        2.6156637499    4.4982215169    8.8240716048
Si       1.1340317833    1.4730924938    8.3689727604
Si       3.5815146991    5.7245929111    8.3775114075
Si       3.5402222448   17.0224618811    8.3692613413
Si       1.0861562448    4.3040853603    8.3430765988
O        6.1317804858    1.5882875680    6.7478702455
O        8.5927469466    5.7997018670    6.7372542196
O        7.8925970512   15.6505390766    8.9541818400
O        5.4355712552    2.9083212622    8.9518468217
O        7.5061184305    1.2862068316    9.0363642284
O        5.0530463093    5.4853247357    9.0333221091
O        5.8967186624    4.3745007784    6.7456254322
O        8.4184724617    8.5995393240    6.7397053413
O        5.0760564983   17.2220520474    8.8206966857
O        7.5302906291    4.5110858210    8.8205012984
Si       6.0286308437    1.5165445925    8.3889433172
Si       8.4943615383    5.7403082924    8.3785882730
Si       8.4365412428   17.0772094100    8.3814488679
Si       5.9891010737    4.3279111811    8.3842086597
O        1.3076130794   10.0205759741    6.6751602364
O        3.7478090587   14.3136898576    6.7000616948
O        2.9911786341    7.1380358328    8.8848919794
O        0.5400685897   11.3111530077    8.8419936930
O        2.6781599186    9.7239377954    8.9548661087
O        0.1456487617   13.9129177470    8.9818580159
O        0.9217887392   12.8108588427    6.6705823515
O        3.4524546374   17.0994604702    6.7359248089
O        0.2678870825    8.6684238502    8.7767861343
O        2.6120155875   12.9561875580    8.7305230879
Si       1.1914499368    9.9302131350    8.3167625237
Si       3.5862531222   14.1949142055    8.3330849741
Si       3.5963041814    8.5394916904    8.3186614562
Si       1.0642127275   12.7544164639    8.3036456039
O        6.2497719221   10.0219014096    6.7390543484
O        8.5619449767   14.3845038460    6.7278105490
O        7.8975320405    7.1418500647    8.9079791756
O        5.5051796975   11.3134318126    8.9440432673
O        7.5908565405    9.7131371192    9.0317922635
O        5.0487483473   13.9258095178    9.0038639127
O        5.8265181671   12.7442156359    6.7224001850
O        8.3287123831   17.1446311156    6.7469920525
O        5.1439772549    8.6825972639    8.7648766513
O        7.5184541319   13.0098647924    8.7818094314
Si       6.1173140841    9.9298484191    8.3765541203
Si       8.4594658989   14.2619050494    8.3666804794
Si       8.5284675224    8.5478965185    8.3816464872
Si       5.9767791581   12.7537829079    8.3585117205
Si      12.0098236046    0.6790483488    5.8130086943
Si      14.4921512534    4.8835221417    5.7957391375
O       12.7146515426    1.3424545704    4.5073424015
O       10.1622336963    5.5751468594    4.4617322087
O       12.2789666205    3.4050214293    2.8979885912
O        9.7439669414    7.6903509369    2.9729646775
O       13.4924666429    3.7142109723    5.2762571686
O       11.1130894316    7.8843177813    5.3175870804
O       10.3994843669    3.9086844011    1.1835459784
O       12.8815934367    8.0893990809    1.1172290199
O        9.8266759763    2.4087261200    3.2706487469
O       12.2407006221    6.6605232502    3.2285253441
Si      10.9409723671    2.8281001796    2.1064813669
Si      13.3898739345    7.0409469315    2.0916908353
Si      13.3267332026    2.7570277545    3.9790061999
Si      10.8380391492    6.9864542269    3.9876832365
Si      16.8954521096   17.5372994653    5.7486475545
Si      19.3741233094    4.8158440336    5.7573126794
O       17.4964450766    1.2857847928    4.4031712815
O       15.1203970012    5.5935005352    4.4825780030
O       17.2381729904    3.4333823318    2.8306311972
O       14.6917144391    7.6867361545    2.9215360870
O       18.4936090354    3.5413649159    5.2638241196
O       15.9937632087    7.9542118729    5.2755352438
O       15.3093453141    3.9131833885    1.1258597109
O       17.7736547927    8.1577745986    1.1748963014
O       14.7825188535    2.5067775261    3.2917186156
O       17.1800516382    6.7008189446    3.2799248034
Si      15.8514851154    2.8651351622    2.0844508699
Si      18.2875595905    7.0842324587    2.1187160815
Si      18.2196665787    2.6719273820    3.9171639230
Si      15.7470807167    7.0096635445    3.9789073020
Si      12.0373278264    9.1280550498    5.8366349568
Si      14.4125118524   13.3673919124    5.7429687156
O       12.5722407526    9.8596021586    4.4756794351
O       10.1621538525   14.1493529797    4.4645302867
O       12.3478362515   11.8954733196    2.7662119542
O        9.8596269726   16.1753971195    2.8241396461
O       13.4849732417   12.1280321207    5.2643207408
O       10.9664274325   16.5026168466    5.2714084105
O       10.4024630339   12.3861176689    1.1204577714
O       12.8228942730   16.6269823261    1.1237594727
O        9.8957425737   11.0427128283    3.3319550149
O       12.3360313695   15.2898315181    3.3563604946
Si      10.9383116737   11.3215446464    2.0635521383
Si      13.3671334491   15.5830272442    2.0850887447
Si      13.3028659071   11.2138178882    3.9283428206
Si      10.8467576778   15.5414327537    3.9680868129
Si      17.0055868457    9.1233082025    5.7739622423
Si      19.3300538992   13.3765682160    5.7353394134
O       17.6287663926    9.8139611608    4.4436919837
O       15.0002757636   14.0405012602    4.3823918225
O       17.2603872055   11.8382073583    2.7555640030
O       14.7912379420   16.1284993250    2.7630314598
O       18.3180919639   12.2161169178    5.2178692922
O       15.9445226551   16.3039948208    5.2683212886
O       15.3082093433   12.3857007544    1.1200750870
O       17.7289836673   16.6872376294    1.1819288778
O       14.7883257789   10.9452574008    3.2849248919
O       17.1982691618   15.1330289298    3.2764134024
Si      15.8472791736   11.3195425680    2.0596468744
Si      18.2672913800   15.6077782780    2.1074787074
Si      18.2432479508   11.2313937221    3.9294122628
Si      15.7322592856   15.4247000420    3.9167223340
O       11.1160039515    1.6605275790    6.7675206402
O       13.6092758598    5.8685316141    6.7506286872
O       12.7399876760   15.5465199286    8.9337680628
O       10.3945002474    2.9352649652    8.9580826331
O       12.4158462015    1.2138689411    9.0820953683
O        9.9669710194    5.5024786530    9.0360716891
O       10.8127129475    4.4375144060    6.7512607019
O       13.3187196105    8.6171804104    6.7163626466
O        9.9810764412   17.2555638956    8.8099455826
O       12.4771026167    4.5297928298    8.8087816665
Si      10.9676997242    1.5346978400    8.4036252546
Si      13.4653436412    5.7477743004    8.3851854235
Si      13.3110570932   16.9829844637    8.4116455465
Si      10.9246482307    4.3629682315    8.3847235091
O       15.9393793645    1.5156526876    6.6986852023
O       18.3921091748    5.7346665182    6.6858723111
O       17.7047014755   15.5884179863    8.9070881751
O       15.2300723165    2.8468145237    8.8911877393
O       17.3016825664    1.2152867889    8.9850423990
O       14.9255613535    5.4461941992    9.0375721923
O       15.6950763160    4.3039642672    6.7363552967
O       18.2209551588    8.5814643979    6.7214446126
O       14.8687842371   17.1675154237    8.8103861680
O       17.3682004097    4.4464949997    8.8056999118
Si      15.8233309800    1.4488494319    8.3410724618
Si      18.2964037438    5.6942842648    8.3308977348
Si      18.2457545181   17.0130016459    8.3383146285
Si      15.8187240690    4.2671429106    8.3709143507
O       11.1466298643   10.0227862745    6.8713672789
O       13.4688442572   14.3103293285    6.6967135426
O       12.9158968259    7.1536102777    8.9379352323
O       10.1347585273   11.3948554639    8.7222781815
O       12.5832401911    9.7132907386    9.0559828267
O        9.9547663107   13.9936330100    8.9779492570
O       10.6619566448   12.8334539333    6.6486360572
O       13.1840153805   17.0323255133    6.7786857242
O       10.0693579093    8.6652655850    8.8526061568
O       12.3739914937   12.9113009958    8.6861731005
Si      11.0454136476    9.9411720056    8.5478339956
Si      13.3482206615   14.1726711826    8.3335138981
Si      13.4760943674    8.5612020121    8.3465137163
Si      10.8279905377   12.8336706060    8.2637809282
O       16.1381839969   10.1217093250    6.7303726509
O       18.4244285116   14.3357538589    6.6998309973
O       17.7144245577    7.0984311140    8.8794876938
O       15.3007039588   11.3308028293    8.8894225322
O       17.4456639028    9.7133690085    9.0257853569
O       14.7994340323   13.8903728597    9.0097640329
O       15.6471452140   12.8975742659    6.6991375118
O       18.1425362592   17.0750162059    6.6992753000
O       15.0439976177    8.6935975411    8.7324238955
O       17.3266715198   12.9671312267    8.7385962151
Si      15.9785600596    9.9676892431    8.3588761269
Si      18.3001590094   14.2013910296    8.3349508996
Si      18.3303759338    8.5159208659    8.3604833879
Si      15.7747511577   12.7798185812    8.3279835866
O       10.6171439536   10.8463118861   11.9528605447
241
Lattice="19.6230000000 0.0000000000 0.0000000000 0.0000000000 16.9480000000 0.0000000000 0.0000000000 0.0000000000 22.0000000000" Properties=species:S:1:pos:R:3 pbc="T T T"
Si       2.2174030807    0.6294364519    5.7882400016
Si       4.6603463535    4.8527854691    5.8020839691
O        2.7999200380    1.3394399242    4.4505042769
O        0.3420412545    5.5640112517    4.4529590063
O        2.4562507360    3.4634297142    2.9029705647
O        0.0070926136    7.6857895263    2.9024524731
O        3.7530094315    3.6140644033    5.2765603457
O        1.3044678847    7.8621765434    5.2665574068
O        0.6456881978    3.9159793968    1.1210446966
O        3.0672886306    8.2141261374    1.1815543862
O        0.0266021372    2.3457757510    3.1981758704
O        2.4516266052    6.6288948515    3.2129516505
Si       1.1455019636    2.8505524696    2.0824412660
Si       3.5695464997    7.1119067148    2.0992223405
Si       3.4990210150    2.7254314394    3.9444307474
Si       1.0347309360    6.9523214783    3.9515069320
Si       7.0724907005   17.5922643091    5.8084344017
Si       9.5589097243    4.8739225114    5.8087570893
O        7.6623891409    1.3492112843    4.4677948395
O        5.2462202767    5.5760325633    4.4722389112
O        7.3680754050    3.4610975285    2.9086963863
O        4.9036264046    7.6891422316    2.9073547833
O        8.6563044800    3.6153130521    5.3121510990
O        6.2847590145    7.8697113505    5.2351820029
O        5.5552869141    3.9122293818    1.1211052635
O        7.9772757137    8.0877836073    1.1142278691
O        4.9123082481    2.4133364964    3.2031917722
O        7.3048980941    6.5559653865    3.1383767710
Si       6.0596493909    2.8461686504    2.0790016155
Si       8.4856619334    7.0396571048    2.0888678242
Si       8.3914144205    2.7292585251    3.9750209054
Si       5.9484040956    6.9489375396    3.9426735156
Si       2.2612314311    9.0840678371    5.7443782795
Si       4.6374165052   13.3213905028    5.7596924488
O        2.8695035841    9.7861920631    4.4037874554
O        0.3433463930   14.0729657574    4.4297876327
O        2.5916542107   11.8343532518    2.7452547995
O       -0.0328594995   16.2036196697    2.9229731672
O        3.6133768040   12.1542010789    5.2574197148
O        1.3010330441   16.3406013867    5.2750818932
O        0.6489505964   12.3848644544    1.1164698074
O        3.0729843604   16.6863433025    1.1214483825
O        0.1301248829   11.0352935952    3.3507179733
O        2.4221312489   15.1437771137    3.1676059294
Si       1.1513625534   11.3198264658    2.0766694974
Si       3.5754940473   15.6056862372    2.0654913249
Si       3.5302943796   11.2044737008    3.9362641406
Si       1.0270849464   15.4657387701    3.9363942179
Si       7.1913411629    9.1034296351    5.7853542512
Si       9.4724172880   13.4282556802    5.7547466789
O        7.7767008245    9.8622442553    4.4692135659
O        5.2855756336   14.0170115912    4.4356309361
O        7.4464173975   11.9003108057    2.7525509026
O        4.8735783362   16.1905890376    2.9397534133
O        8.4736502506   12.2787237726    5.1988862958
O        6.1354081698   16.3436081756    5.3378759592
O        5.4982352145   12.3871803565    1.1189184697
O        7.9744263315   16.6881142643    1.1800083493
O        5.0430801709   10.9949938985    3.3578304881
O        7.3688417555   15.2156990973    3.2821698037
Si       6.0398172763   11.3446966603    2.0829406410
Si       8.4769720126   15.5902904931    2.1027680157
Si       8.4068616410   11.2658218498    3.9302775116
Si       5.9176156734   15.4612794223    3.9841043043
O        1.2630747842    1.5493990187    6.7455771149
O        3.6875664351    5.7653162129    6.7500334879
O        2.9872346834   15.5847261582    8.8993524104
O        0.5310476490    2.8721326483    8.9021277042
O        2.5971739114    1.2146051578    9.0471983838
O        0.1507112322    5.4713526266    8.9806577873
O        1.0019279362    4.3653649216    6.7218783457
O        3.4953314121    8.5747611445    6.6902111567
O        0.1591084430   17.1885751306    8.8160142622
O        2.6153545232    4.4900759212    8.8418925604
Si       1.1318328146    1.4686178949    8.3814062401
Si       3.5814571419    5.7155836890    8.3906176006
Si       3.5393441060   17.0205225174    8.3787615982
Si       1.0855377215    4.2998883565    8.3585709681
O        6.1313627695    1.5867061904    6.7594348771
O        8.5914699451    5.7995078705    6.7515987212
O        7.8943235825   15.6401876196    8.9665116218
O        5.4354765543    2.8998639396    8.9638528661
O        7.5064949143    1.2816922574    9.0481782197
O        5.0527508777    5.4760290733    9.0463659225
O        5.8972161641    4.3724149307    6.7575608846
O        8.4055912179    8.5963523638    6.7523982613
O        5.0763215451   17.2130487028    8.8311857256
O        7.5299197739    4.5066322209    8.8331256832
Si       6.0288793868    1.5087142761    8.4002919096
Si       8.4922479019    5.7378715600    8.3932554615
Si       8.4344522511   17.0687012955    8.3939239463
Si       5.9890246991    4.3198259834    8.3958912529
O        1.3076142070   10.0218633721    6.6869581394
O        3.7473362312   14.3140222555    6.7058224531
O        2.9913509055    7.1296499518    8.8975850798
O        0.5414467938   11.3084453914    8.8633114013
O        2.6752183511    9.7199062569    8.9676052564
O        0.1446292835   13.9040110882    9.0066269971
O        0.9216182937   12.8091524243    6.6877765134
O        3.4511030467   17.1004830477    6.7451038214
O        0.2580417343    8.6686570087    8.7783291351
O        2.6132987920   12.9560453322    8.7426673546
Si       1.1886087501    9.9285484978    8.3283728949
Si       3.5860569562   14.1942802573    8.3392413795
Si       3.5932884924    8.5337697542    8.3332118144
Si       1.0643562015   12.7512098564    8.3210926473
O        6.2395944877   10.0202022234    6.7496028516
O        8.5846123833   14.3832885826    6.7429460380
O        7.8966185123    7.1381468813    8.9293653929
O        5.5012243842   11.3156484242    8.9491820053
O        7.5864369818    9.7133216988    9.0433573475
O        5.0508537921   13.9266717590    9.0048278684
O        5.8264703700   12.7438229377    6.7229966829
O        8.3194350046   17.1332517688    6.7597708365
O        5.1406427246    8.6821326261    8.7846652097
O        7.5200964324   12.9994388436    8.7815138779
Si       6.1115750480    9.9295357129    8.3884469725
Si       8.4678144988   14.2521938808    8.3801837845
Si       8.5177938228    8.5443514973    8.3934057148
Si       5.9771129376   12.7532040498    8.3596002795
Si      12.0102321438    0.6838063105    5.8162998543
Si      14.4880549976    4.8893494896    5.8068499888
O       12.7153945406    1.3468708144    4.5096163163
O       10.1515526080    5.5742072761    4.4711062924
O       12.2782189516    3.4064159984    2.8979732628
O        9.7435220587    7.6890989774    2.9722258327
O       13.4906901270    3.7245670814    5.2750700048
O       11.1175168857    7.8744142156    5.3060364565
O       10.3994843669    3.9086844011    1.1835459784
O       12.8815934367    8.0893990809    1.1172290199
O        9.8252695689    2.4094685730    3.2722288759
O       12.2281531674    6.6363345158    3.2067789496
Si      10.9409723671    2.8281001796    2.1064813669
Si      13.3898739345    7.0409469315    2.0916908353
Si      13.3260580099    2.7624500948    3.9810343099
Si      10.8353669469    6.9744872173    3.9803174030
Si      16.8954652258   17.5390773798    5.7652644201
Si      19.3796074708    4.8178424135    5.7681548939
O       17.5085757471    1.2870352527    4.4256481994
O       15.1312498283    5.6042563738    4.5053213226
O       17.2404366261    3.4226144596    2.8318824007
O       14.6797836575    7.6870948348    2.9341355882
O       18.5048404365    3.5435759993    5.2651466887
O       15.9817256516    7.9768547711    5.2740664436
O       15.3093453141    3.9131833885    1.1258597109
O       17.7736547927    8.1577745986    1.1748963014
O       14.7822939168    2.5168006150    3.2936958138
O       17.1769013405    6.7038292410    3.2813118777
Si      15.8514851154    2.8651351622    2.0844508699
Si      18.2875595905    7.0842324587    2.1187160815
Si      18.2246552807    2.6698465696    3.9229947885
Si      15.7474448195    7.0180550613    3.9860980930
Si      12.0314852293    9.1259286947    5.8207124952
Si      14.4061704061   13.3719600175    5.7505110781
O       12.5722303448    9.8590663745    4.4641501487
O       10.1875551403   14.1428364600    4.4898697821
O       12.3467661184   11.8969958231    2.7649711479
O        9.8621050791   16.1618225799    2.8264239832
O       13.4849951682   12.1284594912    5.2657112712
O       10.9662452530   16.5101287750    5.2707593751
O       10.4024630339   12.3861176689    1.1204577714
O       12.8228942730   16.6269823261    1.1237594727
O        9.8937457180   11.0307018270    3.3231258688
O       12.3373693415   15.2895803279    3.3564904252
Si      10.9383116737   11.3215446464    2.0635521383
Si      13.3671334491   15.5830272442    2.0850887447
Si      13.3032012413   11.2182388030    3.9274638425
Si      10.8511018844   15.5372600632    3.9757843331
Si      16.9970174951    9.1383452613    5.7815945019
Si      19.3329532295   13.3820129220    5.7530250774
O       17.6290153298    9.8277377009    4.4557633560
O       14.9896086483   14.0524394474    4.3925699950
O       17.2600693785   11.8405502945    2.7571572904
O       14.7905200592   16.1295754151    2.7625845650
O       18.3173433029   12.2274585140    5.2277686667
O       15.9435154740   16.3142221489    5.2685711990
O       15.3082093433   12.3857007544    1.1200750870
O       17.7289836673   16.6872376294    1.1819288778
O       14.7884169884   10.9548196001    3.2860927542
O       17.1932014862   15.1326477529    3.2752696755
Si      15.8472791736   11.3195425680    2.0596468744
Si      18.2672913800   15.6077782780    2.1074787074
Si      18.2433487477   11.2438985939    3.9361439550
Si      15.7303054175   15.4297348842    3.9201866483
O       11.1147290628    1.6607284371    6.7748878131
O       13.5983266064    5.8692603847    6.7609507063
O       12.7366997690   15.5560274683    8.9357062134
O       10.3844732602    2.9337047664    8.9676537427
O       12.4149494191    1.2194677096    9.0834347807
O        9.9658928600    5.5022136916    9.0489998952
O       10.8112990008    4.4380683795    6.7627149440
O       13.3062594826    8.6277984468    6.7163382518
O        9.9792109016   17.2544559222    8.8208739373
O       12.4717324023    4.5298363587    8.8218922148
Si      10.9630107906    1.5346304525    8.4108114291
Si      13.4552846655    5.7504805680    8.3950569876
Si      13.3108887784   16.9889513873    8.4141680365
Si      10.9199980736    4.3607032224    8.3966435088
O       15.9400034887    1.5173460088    6.7166629819
O       18.3927604224    5.7326399132    6.6973045403
O       17.7050822532   15.5863007857    8.9333644169
O       15.2197210584    2.8491333815    8.9047608515
O       17.2957141605    1.2151786045    9.0087691187
O       14.9158450364    5.4544406682    9.0494296084
O       15.6838189796    4.3038836166    6.7513486773
O       18.2076264444    8.5823639650    6.7267762537
O       14.8669491726   17.1684492857    8.8221708626
O       17.3580836257    4.4480998834    8.8181360312
Si      15.8205704764    1.4521722711    8.3583499992
Si      18.2936000900    5.6915285081    8.3426910365
Si      18.2399881294   17.0118041803    8.3617293549
Si      15.8076519736    4.2710559784    8.3857540832
O       11.1204718580   10.0209228391    6.8396568318
O       13.4565836045   14.3095269921    6.7027697133
O       12.9017175976    7.1578422288    8.9385284489
O       10.1882840391   11.3715433135    8.7913867183
O       12.5548634451    9.7185277727    9.0442438687
O        9.9548765210   13.9776275141    9.0039283025
O       10.6623090445   12.8095557158    6.6845386606
O       13.1849548732   17.0350364512    6.7806315667
O       10.0625196020    8.6676575431    8.8526494186
O       12.3822627097   12.9201773839    8.7117052663
Si      11.0272038500    9.9392932651    8.5101423792
Si      13.3445534705   14.1801841751    8.3412266119
Si      13.4583179778    8.5669774690    8.3472209374
Si      10.8323821407   12.8096803837    8.3033926400
O       16.1274153758   10.1325629377    6.7415650225
O       18.4359877086   14.3448449761    6.7226907336
O       17.7131139258    7.0972120787    8.8904757574
O       15.2903241478   11.3421572664    8.9002729207
O       17.4321179210    9.7121262158    9.0342740477
O       14.8010640591   13.9053285752    9.0106171291
O       15.6454843104   12.9083535046    6.7050279778
O       18.1310572487   17.0647322989    6.7235510724
O       15.0220184777    8.7069533327    8.7438446507
O       17.3246936823   12.9668440982    8.7495564338
Si      15.9647107211    9.9761850784    8.3701084519
Si      18.3024182709   14.2015025558    8.3564753505
Si      18.3192703573    8.5170266928    8.3660103907
Si      15.7719223947   12.7886838509    8.3347630599
O       10.5977946440   10.7702590461   12.9646454085
241
Lattice="19.6230000000 0.0000000000 0.0000000000 0.0000000000 16.9480000000 0.0000000000 0.0000000000 0.0000000000 22.0000000000" Properties=species:S:1:pos:R:3 pbc="T T T"
Si       2.2146075148    0.6295903218    5.7969127929
Si       4.6629973853    4.8501677849    5.8105287866
O        2.7909526870    1.3452326400    4.4593417284
O        0.3534675995    5.5665982915    4.4668259767
O        2.4566008556    3.4631311416    2.9029555907
O        0.0072548604    7.6845524038    2.9037185544
O        3.7541783611    3.6155770621    5.2771288487
O        1.3035124261    7.8724619388    5.2658662996
O        0.6456881978    3.9159793968    1.1210446966
O        3.0672886306    8.2141261374    1.1815543862
O        0.0292011283    2.3442141258    3.1988766178
O        2.4518316191    6.6294118781    3.2134570608
Si       1.1455019636    2.8505524696    2.0824412660
Si       3.5695464997    7.1119067148    2.0992223405
Si       3.4980581069    2.7252713210    3.9463293433
Si       1.0365230509    6.9559338655    3.9549312712
Si       7.0706269059   17.5906435834    5.8176478636
Si       9.5556796218    4.8731927266    5.8211125559
O        7.6631834253    1.3504082367    4.4795106410
O        5.2569114874    5.5762681602    4.4849987258
O        7.3681490186    3.4597269315    2.9112136032
O        4.9036386086    7.6871037103    2.9071733835
O        8.6554939674    3.6139243000    5.3220217226
O        6.2833478160    7.8810369145    5.2265976331
O        5.5552869141    3.9122293818    1.1211052635
O        7.9772757137    8.0877836073    1.1142278691
O        4.9113950447    2.4128403879    3.2038118167
O        7.3050132850    6.5552974143    3.1380105665
Si       6.0596493909    2.8461686504    2.0790016155
Si       8.4856619334    7.0396571048    2.0888678242
Si       8.3913744793    2.7299363999    3.9813918477
Si       5.9495649995    6.9490614388    3.9431604404
Si       2.2622089058    9.0880262344    5.7540346556
Si       4.6374481775   13.3247683045    5.7623082216
O        2.8807833592    9.7876117573    4.4165556725
O        0.3542425415   14.0735826348    4.4499082487
O        2.5925237855   11.8323507853    2.7456950230
O       -0.0425081875   16.2037567636    2.9351218880
O        3.6117996737   12.1619347017    5.2559685103
O        1.3024224799   16.3415445526    5.2766102160
O        0.6489505964   12.3848644544    1.1164698074
O        3.0729843604   16.6863433025    1.1214483825
O        0.1291084240   11.0471115292    3.3537103660
O        2.4112782726   15.1430151394    3.1562466437
Si       1.1513625534   11.3198264658    2.0766694974
Si       3.5754940473   15.6056862372    2.0654913249
Si       3.5319227537   11.2067470969    3.9386383273
Si       1.0256445534   15.4656563645    3.9402152780
Si       7.1862278613    9.1084887688    5.7926873230
Si       9.4923826906   13.4177467877    5.7763377310
O        7.7871408367    9.8641436169    4.4819397658
O        5.2859686666   14.0173789671    4.4367978482
O        7.4470364256   11.8992311484    2.7547895813
O        4.8641466586   16.1918614551    2.9512122422
O        8.4878354786   12.2801193154    5.2001407499
O        6.1347625901   16.3440636499    5.3396292946
O        5.4982352145   12.3871803565    1.1189184697
O        7.9744263315   16.6881142643    1.1800083493
O        5.0440790287   10.9950306130    3.3585830734
O        7.3673843902   15.2165248787    3.2815455085
Si       6.0398172763   11.3446966603    2.0829406410
Si       8.4769720126   15.5902904931    2.1027680157
Si       8.4101153893   11.2667325770    3.9329124518
Si       5.9167912721   15.4621010297    3.9862112139
O        1.2528369145    1.5390812972    6.7574926740
O        3.6866247789    5.7546018182    6.7629634399
O        2.9868820242   15.5830237059    8.9100152005
O        0.5301677980    2.8679884556    8.9150683634
O        2.5969161368    1.2130860645    9.0581201845
O        0.1468795995    5.4642199131    8.9949500523
O        1.0025134690    4.3647320023    6.7384377017
O        3.4881291892    8.5679314541    6.7046900750
O        0.1563445240   17.1863987383    8.8314497654
O        2.6150452965    4.4819303256    8.8597135159
Si       1.1296338459    1.4641432960    8.3938397199
Si       3.5813995846    5.7065744669    8.4037237938
Si       3.5384659672   17.0185831536    8.3882618551
Si       1.0849191983    4.2956913527    8.3740653374
O        6.1309450532    1.5851248128    6.7709995087
O        8.5901929435    5.7993138740    6.7659432228
O        7.8960501139   15.6298361626    8.9788414035
O        5.4353818533    2.8914066171    8.9758589104
O        7.5068713980    1.2771776832    9.0599922110
O        5.0524554460    5.4667334108    9.0594097360
O        5.8977136658    4.3703290830    6.7694963369
O        8.3927099740    8.5931654035    6.7650911812
O        5.0765865919   17.2040453583    8.8416747654
O        7.5295489186    4.5021786207    8.8457500680
Si       6.0291279300    1.5008839596    8.4116405020
Si       8.4901342656    5.7354348276    8.4079226501
Si       8.4323632594   17.0601931809    8.4063990247
Si       5.9889483244    4.3117407856    8.4075738461
O        1.3076153346   10.0231507701    6.6987560424
O        3.7468634037   14.3143546534    6.7115832113
O        2.9915231769    7.1212640708    8.9102781803
O        0.5428249978   11.3057377751    8.8846291097
O        2.6722767837    9.7158747184    8.9803444041
O        0.1436098054   13.8951044294    9.0313959783
O        0.9214478481   12.8074460060    6.7049706753
O        3.4497514560   17.1015056252    6.7542828339
O        0.2481963861    8.6688901672    8.7798721360
O        2.6145819964   12.9559031064    8.7548116213
Si       1.1857675634    9.9268838607    8.3399832661
Si       3.5858607901   14.1936463092    8.3453977850
Si       3.5902728034    8.5280478180    8.3477621726
Si       1.0644996756   12.7480032488    8.3385396906
O        6.2294170534   10.0185030372    6.7601513548
O        8.6072797898   14.3820733192    6.7580815270
O        7.8957049842    7.1344436980    8.9507516102
O        5.4972690709   11.3178650359    8.9543207433
O        7.5820174231    9.7135062784    9.0549224316
O        5.0529592369   13.9275340001    9.0057918241
O        5.8264225729   12.7434302394    6.7235931807
O        8.3101576262   17.1218724220    6.7725496204
O        5.1373081943    8.6816679882    8.8044537680
O        7.5217387329   12.9890128948    8.7812183244
Si       6.1058360119    9.9292230066    8.4003398247
Si       8.4761630987   14.2424827122    8.3936870897
Si       8.5071201231    8.5408064760    8.4051649424
Si       5.9774467170   12.7526251918    8.3606888385
Si      12.0106406829    0.6885642722    5.8195910144
Si      14.4839587418    4.8951768375    5.8179608402
O       12.7161375385    1.3512870584    4.5118902312
O       10.1408715196    5.5732676928    4.4804803760
O       12.2774712826    3.4078105675    2.8979579345
O        9.7430771759    7.6878470180    2.9714869879
O       13.4889136111    3.7349231905    5.2738828410
O       11.1219443398    7.8645106498    5.2944858326
O       10.3994843669    3.9086844011    1.1835459784
O       12.8815934367    8.0893990809    1.1172290199
O        9.8238631614    2.4102110261    3.2738090048
O       12.2156057127    6.6121457815    3.1850325550
Si      10.9409723671    2.8281001796    2.1064813669
Si      13.3898739345    7.0409469315    2.0916908353
Si      13.3253828173    2.7678724350    3.9830624198
Si      10.8326947446    6.9625202077    3.9729515696
Si      16.8954783420   17.5408552943    5.7818812857
Si      19.3850916321    4.8198407934    5.7789971085
O       17.5207064176    1.2882857127    4.4481251173
O       15.1421026553    5.6150122123    4.5280646422
O       17.2427002618    3.4118465874    2.8331336042
O       14.6678528759    7.6874535151    2.9467350894
O       18.5160718376    3.5457870828    5.2664692578
O       15.9696880945    7.9994976693    5.2725976435
O       15.3093453141    3.9131833885    1.1258597109
O       17.7736547927    8.1577745986    1.1748963014
O       14.7820689801    2.5268237039    3.2956730120
O       17.1737510427    6.7068395374    3.2826989520
Si      15.8514851154    2.8651351622    2.0844508699
Si      18.2875595905    7.0842324587    2.1187160815
Si      18.2296439828    2.6677657573    3.9288256540
Si      15.7478089223    7.0264465780    3.9932888840
Si      12.0256426321    9.1238023397    5.8047900336
Si      14.3998289597   13.3765281225    5.7580534406
O       12.5722199369    9.8585305904    4.4526208623
O       10.2129564282   14.1363199402    4.5152092775
O       12.3456959852   11.8985183266    2.7637303417
O        9.8645831856   16.1482480404    2.8287083203
O       13.4850170948   12.1288868616    5.2671018017
O       10.9660630735   16.5176407035    5.2701103398
O       10.4024630339   12.3861176689    1.1204577714
O       12.8228942730   16.6269823261    1.1237594727
O        9.8917488624   11.0186908256    3.3142967226
O       12.3387073135   15.2893291376    3.3566203557
Si      10.9383116737   11.3215446464    2.0635521383
Si      13.3671334491   15.5830272442    2.0850887447
Si      13.3035365754   11.2226597179    3.9265848645
Si      10.8554460909   15.5330873728    3.9834818533
Si      16.9884481446    9.1533823200    5.7892267616
Si      19.3358525598   13.3874576279    5.7707107413
O       17.6292642670    9.8415142411    4.4678347282
O       14.9789415330   14.0643776345    4.4027481675
O       17.2597515516   11.8428932308    2.7587505779
O       14.7898021764   16.1306515052    2.7621376701
O       18.3165946419   12.2388001102    5.2376680411
O       15.9425082928   16.3244494770    5.2688211094
O       15.3082093433   12.3857007544    1.1200750870
O       17.7289836673   16.6872376294    1.1819288778
O       14.7885081978   10.9643817994    3.2872606164
O       17.1881338106   15.1322665761    3.2741259487
Si      15.8472791736   11.3195425680    2.0596468744
Si      18.2672913800   15.6077782780    2.1074787074
Si      18.2434495446   11.2564034657    3.9428756471
Si      15.7283515494   15.4347697264    3.9236509626
O       11.1134541740    1.6609292952    6.7822549859
O       13.5873773530    5.8699891554    6.7712727254
O       12.7334118619   15.5655350080    8.9376443640
O       10.3744462730    2.9321445676    8.9772248522
O       12.4140526367    1.2250664781    9.0847741930
O        9.9648147006    5.5019487301    9.0619281013
O       10.8098850541    4.4386223530    6.7741691861
O       13.2937993547    8.6384164832    6.7163138571
O        9.9773453619   17.2533479487    8.8318022920
O       12.4663621879    4.5298798877    8.8350027632
Si      10.9583218569    1.5345630649    8.4179976037
Si      13.4452256898    5.7531868356    8.4049285517
Si      13.3107204636   16.9949183109    8.4166905264
Si      10.9153479165    4.3584382133    8.4085635085
O       15.9406276129    1.5190393300    6.7346407616
O       18.3934116699    5.7306133081    6.7087367694
O       17.7054630308   15.5841835852    8.9596406586
O       15.2093698002    2.8514522394    8.9183339637
O       17.2897457545    1.2150704202    9.0324958384
O       14.9061287193    5.4626871371    9.0612870245
O       15.6725616432    4.3038029660    6.7663420578
O       18.1942977301    8.5832635320    6.7321078948
O       14.8651141082   17.1693831477    8.8339555572
O       17.3479668418    4.4497047670    8.8305721505
Si      15.8178099728    1.4554951103    8.3756275365
Si      18.2907964363    5.6887727514    8.3544843382
Si      18.2342217408   17.0106067148    8.3851440812
Si      15.7965798781    4.2749690461    8.4005938158
O       11.0943138517   10.0190594037    6.8079463847
O       13.4443229518   14.3087246557    6.7088258841
O       12.8875383693    7.1620741799    8.9391216656
O       10.2418095508   11.3482311630    8.8604952551
O       12.5264866991    9.7237648068    9.0325049108
O        9.9549867312   13.9616220182    9.0299073480
O       10.6626614443   12.7856574982    6.7204412640
O       13.1858943658   17.0377473891    6.7825774092
O       10.0556812946    8.6700495012    8.8526926804
O       12.3905339258   12.9290537721    8.7372374320
Si      11.0089940523    9.9374145246    8.4724507628
Si      13.3408862794   14.1876971676    8.3489393257
Si      13.4405415882    8.5727529259    8.3479281585
Si      10.8367737437   12.7856901614    8.3430043519
O       16.1166467547   10.1434165505    6.7527573942
O       18.4475469055   14.3539360933    6.7455504699
O       17.7118032939    7.0959930434    8.9014638211
O       15.2799443368   11.3535117035    8.9111233092
O       17.4185719392    9.7108834230    9.0427627385
O       14.8026940858   13.9202842907    9.0114702254
O       15.6438234068   12.9191327434    6.7109184438
O       18.1195782382   17.0544483918    6.7478268448
O       15.0000393377    8.7203091243    8.7552654058
O       17.3227158448   12.9665569696    8.7605166525
Si      15.9508613826    9.9846809138    8.3813407770
Si      18.3046775324   14.2016140819    8.3779998013
Si      18.3081647808    8.5181325196    8.3715373934
Si      15.7690936317   12.7975491206    8.3415425332
O       10.5784453345   10.6942062060   13.9764302723
241
Lattice="19.6230000000 0.0000000000 0.0000000000 0.0000000000 16.9480000000 0.0000000000 0.0000000000 0.0000000000 22.0000000000" Properties=species:S:1:pos:R:3 pbc="T T T"
Si       2.2118119488    0.6297441916    5.8055855843
Si       4.6656484171    4.8475501007    5.8189736041
O        2.7819853360    1.3510253559    4.4681791798
O        0.3648939445    5.5691853314    4.4806929471
O        2.4569509752    3.4628325691    2.9029406166
O        0.0074171072    7.6833152812    2.9049846356
O        3.7553472906    3.6170897210    5.2776973517
O        1.3025569676    7.8827473342    5.2651751924
O        0.6456881978    3.9159793968    1.1210446966
O        3.0672886306    8.2141261374    1.1815543862
O        0.0318001193    2.3426525007    3.1995773653
O        2.4520366330    6.6299289046    3.2139624710
Si       1.1455019636    2.8505524696    2.0824412660
Si       3.5695464997    7.1119067148    2.0992223405
Si       3.4970951987    2.7251112027    3.9482279393
Si       1.0383151658    6.9595462528    3.9583556104
Si       7.0687631114   17.5890228577    5.8268613256
Si       9.5524495194    4.8724629417    5.8334680224
O        7.6639777096    1.3516051891    4.4912264426
O        5.2676026980    5.5765037571    4.4977585404
O        7.3682226322    3.4583563344    2.9137308200
O        4.9036508125    7.6850651889    2.9069919838
O        8.6546834548    3.6125355478    5.3318923462
O        6.2819366175    7.8923624785    5.2180132634
O        5.5552869141    3.9122293818    1.1211052635
O        7.9772757137    8.0877836073    1.1142278691
O        4.9104818412    2.4123442793    3.2044318611
O        7.3051284759    6.5546294420    3.1376443620
Si       6.0596493909    2.8461686504    2.0790016155
Si       8.4856619334    7.0396571048    2.0888678242
Si       8.3913345380    2.7306142748    3.9877627900
Si       5.9507259034    6.9491853380    3.9436473651
Si       2.2631863806    9.0919846318    5.7636910317
Si       4.6374798498   13.3281461061    5.7649239944
O        2.8920631342    9.7890314516    4.4293238896
O        0.3651386899   14.0741995123    4.4700288648
O        2.5933933602   11.8303483188    2.7461352464
O       -0.0521568755   16.2038938576    2.9472706089
O        3.6102225434   12.1696683245    5.2545173057
O        1.3038119157   16.3424877186    5.2781385388
O        0.6489505964   12.3848644544    1.1164698074
O        3.0729843604   16.6863433025    1.1214483825
O        0.1280919651   11.0589294631    3.3567027588
O        2.4004252962   15.1422531651    3.1448873580
Si       1.1513625534   11.3198264658    2.0766694974
Si       3.5754940473   15.6056862372    2.0654913249
Si       3.5335511277   11.2090204930    3.9410125139
Si       1.0242041605   15.4655739588    3.9440363382
Si       7.1811145596    9.1135479026    5.8000203948
Si       9.5123480933   13.4072378953    5.7979287832
O        7.7975808488    9.8660429786    4.4946659657
O        5.2863616996   14.0177463430    4.4379647604
O        7.4476554537   11.8981514911    2.7570282600
O        4.8547149809   16.1931338727    2.9626710711
O        8.5020207067   12.2815148581    5.2013952039
O        6.1341170104   16.3445191243    5.3413826300
O        5.4982352145   12.3871803565    1.1189184697
O        7.9744263315   16.6881142643    1.1800083493
O        5.0450778864   10.9950673275    3.3593356588
O        7.3659270250   15.2173506602    3.2809212133
Si       6.0398172763   11.3446966603    2.0829406410
Si       8.4769720126   15.5902904931    2.1027680157
Si       8.4133691377   11.2676433043    3.9355473921
Si       5.9159668708   15.4629226371    3.9883181236
O        1.2425990447    1.5287635757    6.7694082331
O        3.6856831228    5.7438874234    6.7758933920
O        2.9865293650   15.5813212536    8.9206779905
O        0.5292879470    2.8638442630    8.9280090226
O        2.5966583621    1.2115669712    9.0690419853
O        0.1430479669    5.4570871996    9.0092423174
O        1.0030990018    4.3640990831    6.7549970576
O        3.4809269662    8.5611017638    6.7191689934
O        0.1535806050   17.1842223461    8.8468852685
O        2.6147360698    4.4737847300    8.8775344714
Si       1.1274348771    1.4596686970    8.4062731997
Si       3.5813420273    5.6975652447    8.4168299869
Si       3.5375878284   17.0166437898    8.3977621120
Si       1.0843006751    4.2914943490    8.3895597066
O        6.1305273370    1.5835434353    6.7825641403
O        8.5889159419    5.7991198775    6.7802877244
O        7.8977766453   15.6194847057    8.9911711852
O        5.4352871524    2.8829492946    8.9878649548
O        7.5072478817    1.2726631090    9.0718062023
O        5.0521600143    5.4574377484    9.0724535494
O        5.8982111674    4.3682432354    6.7814317893
O        8.3798287302    8.5899784433    6.7777841011
O        5.0768516387   17.1950420137    8.8521638052
O        7.5291780634    4.4977250206    8.8583744527
Si       6.0293764732    1.4930536431    8.4229890944
Si       8.4880206292    5.7329980952    8.4225898386
Si       8.4302742678   17.0516850664    8.4188741031
Si       5.9888719498    4.3036555878    8.4192564394
O        1.3076164622   10.0244381682    6.7105539453
O        3.7463905762   14.3146870512    6.7173439695
O        2.9916954484    7.1128781897    8.9229712808
O        0.5442032019   11.3030301588    8.9059468181
O        2.6693352163    9.7118431800    8.9930835518
O        0.1425903273   13.8861977705    9.0561649594
O        0.9212774026   12.8057395877    6.7221648373
O        3.4483998653   17.1025282027    6.7634618464
O        0.2383510378    8.6691233258    8.7814151368
O        2.6158652008   12.9557608806    8.7669558880
Si       1.1829263767    9.9252192235    8.3515936374
Si       3.5856646240   14.1930123610    8.3515541905
Si       3.5872571145    8.5223258817    8.3623125308
Si       1.0646431496   12.7447966413    8.3559867340
O        6.2192396190   10.0168038511    6.7706998580
O        8.6299471964   14.3808580557    6.7732170161
O        7.8947914560    7.1307405147    8.9721378274
O        5.4933137575   11.3200816475    8.9594594812
O        7.5775978645    9.7136908580    9.0664875157
O        5.0550646818   13.9283962413    9.0067557799
O        5.8263747759   12.7430375412    6.7241896786
O        8.3008802477   17.1104930752    6.7853284044
O        5.1339736640    8.6812033503    8.8242423263
O        7.5233810335   12.9785869460    8.7809227709
Si       6.1000969759    9.9289103003    8.4122326768
Si       8.4845116987   14.2327715436    8.4071903949
Si       8.4964464235    8.5372614548    8.4169241699
Si       5.9777804964   12.7520463338    8.3617773975
Si      12.0110492221    0.6933222339    5.8228821745
Si      14.4798624859    4.9010041854    5.8290716916
O       12.7168805364    1.3557033025    4.5141641460
O       10.1301904312    5.5723281095    4.4898544597
O       12.2767236137    3.4092051366    2.8979426061
O        9.7426322932    7.6865950585    2.9707481431
O       13.4871370953    3.7452792996    5.2726956773
O       11.1263717940    7.8546070841    5.2829352087
O       10.3994843669    3.9086844011    1.1835459784
O       12.8815934367    8.0893990809    1.1172290199
O        9.8224567539    2.4109534791    3.2753891338
O       12.2030582581    6.5879570472    3.1632861604
Si      10.9409723671    2.8281001796    2.1064813669
Si      13.3898739345    7.0409469315    2.0916908353
Si      13.3247076247    2.7732947753    3.9850905297
Si      10.8300225424    6.9505531980    3.9655857361
Si      16.8954914581   17.5426332087    5.7984981514
Si      19.3905757935    4.8218391732    5.7898393231
O       17.5328370882    1.2895361726    4.4706020352
O       15.1529554823    5.6257680509    4.5508079619
O       17.2449638976    3.4010787151    2.8343848077
O       14.6559220944    7.6878121955    2.9593345907
O       18.5273032387    3.5479981663    5.2677918269
O       15.9576505374    8.0221405675    5.2711288434
O       15.3093453141    3.9131833885    1.1258597109
O       17.7736547927    8.1577745986    1.1748963014
O       14.7818440435    2.5368467928    3.2976502102
O       17.1706007450    6.7098498338    3.2840860263
Si      15.8514851154    2.8651351622    2.0844508699
Si      18.2875595905    7.0842324587    2.1187160815
Si      18.2346326849    2.6656849450    3.9346565196
Si      15.7481730250    7.0348380948    4.0004796751
Si      12.0198000350    9.1216759847    5.7888675721
Si      14.3934875133   13.3810962276    5.7655958032
O       12.5722095290    9.8579948064    4.4410915758
O       10.2383577161   14.1298034205    4.5405487729
O       12.3446258521   11.9000408302    2.7624895355
O        9.8670612921   16.1346735009    2.8309926575
O       13.4850390213   12.1293142320    5.2684923321
O       10.9658808941   16.5251526320    5.2694613045
O       10.4024630339   12.3861176689    1.1204577714
O       12.8228942730   16.6269823261    1.1237594727
O        9.8897520068   11.0066798242    3.3054675764
O       12.3400452856   15.2890779474    3.3567502863
Si      10.9383116737   11.3215446464    2.0635521383
Si      13.3671334491   15.5830272442    2.0850887447
Si      13.3038719096   11.2270806328    3.9257058864
Si      10.8597902975   15.5289146823    3.9911793734
Si      16.9798787941    9.1684193788    5.7968590212
Si      19.3387518901   13.3929023338    5.7883964053
O       17.6295132042    9.8552907812    4.4799061005
O       14.9682744176   14.0763158217    4.4129263401
O       17.2594337246   11.8452361670    2.7603438653
O       14.7890842936   16.1317275954    2.7616907753
O       18.3158459810   12.2501417064    5.2475674155
O       15.9415011117   16.3346768052    5.2690710197
O       15.3082093433   12.3857007544    1.1200750870
O       17.7289836673   16.6872376294    1.1819288778
O       14.7885994073   10.9739439988    3.2884284787
O       17.1830661350   15.1318853993    3.2729822218
Si      15.8472791736   11.3195425680    2.0596468744
Si      18.2672913800   15.6077782780    2.1074787074
Si      18.2435503414   11.2689083376    3.9496073392
Si      15.7263976812   15.4398045687    3.9271152769
O       11.1121792852    1.6611301532    6.7896221588
O       13.5764280995    5.8707179261    6.7815947444
O       12.7301239549   15.5750425477    8.9395825146
O       10.3644192858    2.9305843688    8.9867959617
O       12.4131558543    1.2306652465    9.0861136054
O        9.9637365413    5.5016837687    9.0748563073
O       10.8084711074    4.4391763265    6.7856234282
O       13.2813392268    8.6490345197    6.7162894623
O        9.9754798222   17.2522399753    8.8427306467
O       12.4609919734    4.5299234166    8.8481133115
Si      10.9536329232    1.5344956774    8.4251837783
Si      13.4351667142    5.7558931033    8.4148001159
Si      13.3105521487   17.0008852345    8.4192130164
Si      10.9106977595    4.3561732043    8.4204835081
O       15.9412517371    1.5207326512    6.7526185413
O       18.3940629175    5.7285867030    6.7201689986
O       17.7058438085   15.5820663846    8.9859169004
O       15.1990185421    2.8537710973    8.9319070760
O       17.2837773486    1.2149622358    9.0562225582
O       14.8964124022    5.4709336060    9.0731444406
O       15.6613043069    4.3037223155    6.7813354384
O       18.1809690157    8.5841630991    6.7374395360
O       14.8632790438   17.1703170096    8.8457402519
O       17.3378500579    4.4513096507    8.8430082698
Si      15.8150494693    1.4588179494    8.3929050739
Si      18.2879927825    5.6860169946    8.3662776398
Si      18.2284553522   17.0094092493    8.4085588076
Si      15.7855077827    4.2788821138    8.4154335483
O       11.0681558455   10.0171959684    6.7762359376
O       13.4320622992   14.3079223192    6.7148820549
O       12.8733591410    7.1663061310    8.9397148822
O       10.2953350626   11.3249190125    8.9296037920
O       12.4981099531    9.7290018409    9.0207659528
O        9.9550969415   13.9456165223    9.0558863934
O       10.6630138441   12.7617592807    6.7563438674
O       13.1868338585   17.0404583269    6.7845232518
O       10.0488429872    8.6724414592    8.8527359421
O       12.3988051419   12.9379301602    8.7627695977
Si      10.9907842547    9.9355357842    8.4347591465
Si      13.3372190884   14.1952101601    8.3566520395
Si      13.4227651987    8.5785283827    8.3486353796
Si      10.8411653466   12.7616999390    8.3826160637
O       16.1058781335   10.1542701633    6.7639497659
O       18.4591061024   14.3630272104    6.7684102063
O       17.7104926620    7.0947740080    8.9124518847
O       15.2695645259   11.3648661407    8.9219736976
O       17.4050259574    9.7096406302    9.0512514293
O       14.8043241125   13.9352400063    9.0123233216
O       15.6421625033   12.9299119821    6.7168089099
O       18.1080992276   17.0441644847    6.7721026172
O       14.9780601978    8.7336649160    8.7666861609
O       17.3207380074   12.9662698411    8.7714768712
Si      15.9370120441    9.9931767492    8.3925731021
Si      18.3069367940   14.2017256081    8.3995242522
Si      18.2970592042    8.5192383465    8.3770643962
Si      15.7662648686   12.8064143902    8.3483220065
O       10.5590960249   10.6181533659   14.9882151362
241
Lattice="19.6230000000 0.0000000000 0.0000000000 0.0000000000 16.9480000000 0.0000000000 0.0000000000 0.0000000000 22.0000000000" Properties=species:S:1:pos:R:3 pbc="T T T"
Si       2.2090163829    0.6298980614    5.8142583756
Si       4.6682994489    4.8449324164    5.8274184216
O        2.7730179850    1.3568180717    4.4770166313
O        0.3763202895    5.5717723712    4.4945599175
O        2.4573010948    3.4625339966    2.9029256425
O        0.0075793540    7.6820781586    2.9062507168
O        3.7565162202    3.6186023798    5.2782658548
O        1.3016015090    7.8930327295    5.2644840852
O        0.6456881978    3.9159793968    1.1210446966
O        3.0672886306    8.2141261374    1.1815543862
O        0.0343991103    2.3410908755    3.2002781127
O        2.4522416469    6.6304459311    3.2144678812
Si       1.1455019636    2.8505524696    2.0824412660
Si       3.5695464997    7.1119067148    2.0992223405
Si       3.4961322906    2.7249510843    3.9501265353
Si       1.0401072807    6.9631586400    3.9617799497
Si       7.0668993168   17.5874021321    5.8360747876
Si       9.5492194169    4.8717331568    5.8458234889
O        7.6647719940    1.3528021415    4.5029422441
O        5.2782939087    5.5767393540    4.5105183550
O        7.3682962457    3.4569857374    2.9162480369
O        4.9036630164    7.6830266676    2.9068105840
O        8.6538729423    3.6111467957    5.3417629698
O        6.2805254190    7.9036880426    5.2094288936
O        5.5552869141    3.9122293818    1.1211052635
O        7.9772757137    8.0877836073    1.1142278691
O        4.9095686378    2.4118481707    3.2050519056
O        7.3052436667    6.5539614697    3.1372781575
Si       6.0596493909    2.8461686504    2.0790016155
Si       8.4856619334    7.0396571048    2.0888678242
Si       8.3912945967    2.7312921496    3.9941337323
Si       5.9518868072    6.9493092373    3.9441342899
Si       2.2641638554    9.0959430291    5.7733474078
Si       4.6375115221   13.3315239078    5.7675397672
O        2.9033429093    9.7904511459    4.4420921067
O        0.3760348384   14.0748163897    4.4901494808
O        2.5942629349   11.8283458523    2.7465754698
O       -0.0618055635   16.2040309515    2.9594193297
O        3.6086454131   12.1774019472    5.2530661012
O        1.3052013515   16.3434308845    5.2796668616
O        0.6489505964   12.3848644544    1.1164698074
O        3.0729843604   16.6863433025    1.1214483825
O        0.1270755062   11.0707473970    3.3596951516
O        2.3895723199   15.1414911907    3.1335280722
Si       1.1513625534   11.3198264658    2.0766694974
Si       3.5754940473   15.6056862372    2.0654913249
Si       3.5351795017   11.2112938891    3.9433867006
Si       1.0227637675   15.4654915532    3.9478573983
Si       7.1760012580    9.1186070364    5.8073534666
Si       9.5323134959   13.3967290029    5.8195198353
O        7.8080208609    9.8679423402    4.5073921656
O        5.2867547326   14.0181137190    4.4391316725
O        7.4482744818   11.8970718338    2.7592669387
O        4.8452833033   16.1944062902    2.9741299001
O        8.5162059347   12.2829104009    5.2026496580
O        6.1334714307   16.3449745986    5.3431359654
O        5.4982352145   12.3871803565    1.1189184697
O        7.9744263315   16.6881142643    1.1800083493
O        5.0460767442   10.9951040420    3.3600882442
O        7.3644696598   15.2181764417    3.2802969181
Si       6.0398172763   11.3446966603    2.0829406410
Si       8.4769720126   15.5902904931    2.1027680157
Si       8.4166228861   11.2685540315    3.9381823323
Si       5.9151424695   15.4637442445    3.9904250333
O        1.2323611750    1.5184458542    6.7813237922
O        3.6847414666    5.7331730287    6.7888233441
O        2.9861767058   15.5796188013    8.9313407806
O        0.5284080960    2.8597000703    8.9409496817
O        2.5964005875    1.2100478779    9.0799637861
O        0.1392163342    5.4499544861    9.0235345824
O        1.0036845345    4.3634661639    6.7715564136
O        3.4737247433    8.5542720735    6.7336479117
O        0.1508166859   17.1820459538    8.8623207717
O        2.6144268431    4.4656391344    8.8953554270
Si       1.1252359084    1.4551940981    8.4187066794
Si       3.5812844701    5.6885560226    8.4299361800
Si       3.5367096896   17.0147044260    8.4072623689
Si       1.0836821519    4.2872973452    8.4050540759
O        6.1301096207    1.5819620577    6.7941287719
O        8.5876389403    5.7989258810    6.7946322260
O        7.8995031767   15.6091332487    9.0035009669
O        5.4351924515    2.8744919721    8.9998709992
O        7.5076243655    1.2681485348    9.0836201936
O        5.0518645826    5.4481420860    9.0854973628
O        5.8987086691    4.3661573877    6.7933672416
O        8.3669474864    8.5867914830    6.7904770211
O        5.0771166855   17.1860386692    8.8626528451
O        7.5288072082    4.4932714205    8.8709988375
Si       6.0296250164    1.4852233267    8.4343376868
Si       8.4859069928    5.7305613628    8.4372570271
Si       8.4281852761   17.0431769519    8.4313491815
Si       5.9887955751    4.2955703901    8.4309390326
O        1.3076175898   10.0257255662    6.7223518483
O        3.7459177487   14.3150194491    6.7231047277
O        2.9918677198    7.1044923087    8.9356643813
O        0.5455814060   11.3003225425    8.9272645265
O        2.6663936488    9.7078116415    9.0058226995
O        0.1415708491   13.8772911117    9.0809339406
O        0.9211069571   12.8040331694    6.7393589992
O        3.4470482746   17.1035507802    6.7726408589
O        0.2285056896    8.6693564843    8.7829581376
O        2.6171484052   12.9556186548    8.7791001547
Si       1.1800851900    9.9235545863    8.3632040086
Si       3.5854684580   14.1923784128    8.3577105959
Si       3.5842414255    8.5166039455    8.3768628890
Si       1.0647866236   12.7415900338    8.3734337774
O        6.2090621847   10.0151046649    6.7812483612
O        8.6526146030   14.3796427923    6.7883525051
O        7.8938779278    7.1270373313    8.9935240447
O        5.4893584442   11.3222982592    8.9645982192
O        7.5731783058    9.7138754376    9.0780525998
O        5.0571701266   13.9292584825    9.0077197356
O        5.8263269788   12.7426448430    6.7247861764
O        8.2916028693   17.0991137284    6.7981071884
O        5.1306391337    8.6807387125    8.8440308846
O        7.5250233340   12.9681609972    8.7806272174
Si       6.0943579398    9.9285975941    8.4241255290
Si       8.4928602986   14.2230603750    8.4206937001
Si       8.4857727239    8.5337164335    8.4286833975
Si       5.9781142758   12.7514674758    8.3628659565
Si      12.0114577612    0.6980801956    5.8261733346
Si      14.4757662301    4.9068315333    5.8401825429
O       12.7176235344    1.3601195465    4.5164380609
O       10.1195093428    5.5713885262    4.4992285433
O       12.2759759448    3.4105997057    2.8979272777
O        9.7421874105    7.6853430990    2.9700092983
O       13.4853605794    3.7556354087    5.2715085135
O       11.1307992481    7.8447035183    5.2713845848
O       10.3994843669    3.9086844011    1.1835459784
O       12.8815934367    8.0893990809    1.1172290199
O        9.8210503464    2.4116959321    3.2769692627
O       12.1905108034    6.5637683129    3.1415397658
Si      10.9409723671    2.8281001796    2.1064813669
Si      13.3898739345    7.0409469315    2.0916908353
Si      13.3240324321    2.7787171155    3.9871186396
Si      10.8273503401    6.9385861884    3.9582199027
Si      16.8955045743   17.5444111232    5.8151150170
Si      19.3960599549    4.8238375531    5.8006815377
O       17.5449677587    1.2907866325    4.4930789531
O       15.1638083093    5.6365238895    4.5735512815
O       17.2472275333    3.3903108429    2.8356360112
O       14.6439913128    7.6881708758    2.9719340919
O       18.5385346398    3.5502092497    5.2691143960
O       15.9456129803    8.0447834657    5.2696600432
O       15.3093453141    3.9131833885    1.1258597109
O       17.7736547927    8.1577745986    1.1748963014
O       14.7816191068    2.5468698817    3.2996274084
O       17.1674504473    6.7128601302    3.2854731006
Si      15.8514851154    2.8651351622    2.0844508699
Si      18.2875595905    7.0842324587    2.1187160815
Si      18.2396213870    2.6636041327    3.9404873851
Si      15.7485371278    7.0432296116    4.0076704661
Si      12.0139574379    9.1195496296    5.7729451105
Si      14.3871460669   13.3856643327    5.7731381657
O       12.5721991211    9.8574590223    4.4295622894
O       10.2637590040   14.1232869008    4.5658882683
O       12.3435557190   11.9015633337    2.7612487293
O        9.8695393986   16.1210989614    2.8332769946
O       13.4850609478   12.1297416025    5.2698828625
O       10.9656987146   16.5326645605    5.2688122692
O       10.4024630339   12.3861176689    1.1204577714
O       12.8228942730   16.6269823261    1.1237594727
O        9.8877551512   10.9946688229    3.2966384302
O       12.3413832576   15.2888267571    3.3568802168
Si      10.9383116737   11.3215446464    2.0635521383
Si      13.3671334491   15.5830272442    2.0850887447
Si      13.3042072438   11.2315015476    3.9248269084
Si      10.8641345040   15.5247419919    3.9988768936
Si      16.9713094436    9.1834564376    5.8044912809
Si      19.3416512204   13.3983470397    5.8060820692
O       17.6297621414    9.8690673214    4.4919774727
O       14.9576073023   14.0882540089    4.4231045126
O       17.2591158976   11.8475791032    2.7619371527
O       14.7883664108   16.1328036855    2.7612438805
O       18.3150973200   12.2614833026    5.2574667899
O       15.9404939306   16.3449041333    5.2693209301
O       15.3082093433   12.3857007544    1.1200750870
O       17.7289836673   16.6872376294    1.1819288778
O       14.7886906168   10.9835061981    3.2895963409
O       17.1779984594   15.1315042224    3.2718384950
Si      15.8472791736   11.3195425680    2.0596468744
Si      18.2672913800   15.6077782780    2.1074787074
Si      18.2436511383   11.2814132094    3.9563390313
Si      15.7244438131   15.4448394109    3.9305795912
O       11.1109043964    1.6613310113    6.7969893317
O       13.5654788461    5.8714466967    6.7919167635
O       12.7268360479   15.5845500874    8.9415206652
O       10.3543922986    2.9290241700    8.9963670713
O       12.4122590719    1.2362640150    9.0874530178
O        9.9626583819    5.5014188073    9.0877845134
O       10.8070571607    4.4397303000    6.7970776703
O       13.2688790989    8.6596525561    6.7162650676
O        9.9736142826   17.2511320019    8.8536590014
O       12.4556217590    4.5299669455    8.8612238598
Si      10.9489439896    1.5344282899    8.4323699528
Si      13.4251077385    5.7585993709    8.4246716800
Si      13.3103838339   17.0068521581    8.4217355064
Si      10.9060476024    4.3539081952    8.4324035078
O       15.9418758613    1.5224259724    6.7705963210
O       18.3947141651    5.7265600979    6.7316012278
O       17.7062245862   15.5799491840    9.0121931422
O       15.1886672840    2.8560899551    8.9454801882
O       17.2778089426    1.2148540514    9.0799492779
O       14.8866960851    5.4791800749    9.0850018567
O       15.6500469705    4.3036416649    6.7963288190
O       18.1676403014    8.5850626661    6.7427711771
O       14.8614439793   17.1712508716    8.8575249465
O       17.3277332739    4.4529145344    8.8554443892
Si      15.8122889657    1.4621407886    8.4101826113
Si      18.2851891287    5.6832612379    8.3780709415
Si      18.2226889636   17.0082117838    8.4319735340
Si      15.7744356873    4.2827951815    8.4302732808
O       11.0419978392   10.0153325330    6.7445254905
O       13.4198016465   14.3071199828    6.7209382256
O       12.8591799127    7.1705380821    8.9403080988
O       10.3488605743   11.3016068621    8.9987123288
O       12.4697332071    9.7342388750    9.0090269949
O        9.9552071518   13.9296110264    9.0818654389
O       10.6633662438   12.7378610631    6.7922464708
O       13.1877733512   17.0431692648    6.7864690943
O       10.0420046798    8.6748334173    8.8527792039
O       12.4070763580   12.9468065483    8.7883017635
Si      10.9725744570    9.9336570437    8.3970675301
Si      13.3335518974   14.2027231526    8.3643647533
Si      13.4049888091    8.5843038396    8.3493426007
Si      10.8455569496   12.7377097167    8.4222277756
O       16.0951095124   10.1651237761    6.7751421376
O       18.4706652993   14.3721183276    6.7912699426
O       17.7091820301    7.0935549727    8.9234399483
O       15.2591847149   11.3762205778    8.9328240861
O       17.3914799756    9.7083978374    9.0597401201
O       14.8059541392   13.9501957218    9.0131764178
O       15.6405015997   12.9406912208    6.7226993759
O       18.0966202171   17.0338805776    6.7963783896
O       14.9560810578    8.7470207076    8.7781069160
O       17.3187601699   12.9659827126    8.7824370899
Si      15.9231627056   10.0016725846    8.4038054272
Si      18.3091960555   14.2018371343    8.4210487031
Si      18.2859536277    8.5203441734    8.3825913990
Si      15.7634361056   12.8152796599    8.3551014798
O       10.5397467154   10.5421005258   16.0000000000
