Atoms  # charge
 
         240  atoms
           2  atom types
 
      0.000000000000      19.623000000000  xlo xhi
      0.000000000000      16.948000000000  ylo yhi
     -20.000000000000      38.000000000000  zlo zhi
 
Masses
 
            1   28.08500000             # Si
            2   15.99900000             # O
 

Atoms  # charge
 
1	1	2.400000	2.237353218400	16.959768759000	5.418690566400
2	1	2.400000	4.684667408900	4.246735340300	5.426009384500
3	2	-1.200000	3.153268774300	0.549150556200	4.182196072100
4	2	-1.200000	0.715519800800	4.781374420500	4.198813384800
5	2	-1.200000	2.781609310000	2.511761390000	2.408423490000
6	2	-1.200000	0.328734310000	6.748761390000	2.408423490000
7	2	-1.200000	3.734435731700	3.046196430100	4.862697368500
8	2	-1.200000	1.294227964100	7.280086793100	4.862213759000
9	2	-1.200000	0.741406000000	3.686834020000	1.212851340000
10	2	-1.200000	3.194281000000	7.923834020000	1.212851340000
11	2	-1.200000	0.334573258300	1.731794024700	3.060593522300
12	2	-1.200000	2.794137772300	5.966680772000	3.063595099200
13	1	2.400000	1.286032550000	2.272269200000	1.809522720000
14	1	2.400000	3.738907550000	6.509269200000	1.809522720000
15	1	2.400000	3.729337280700	1.967239493900	3.632165824600
16	1	2.400000	1.279808131200	6.200225823900	3.632709657100
17	1	2.400000	7.143133955400	16.959748367500	5.418641688500
18	1	2.400000	9.590383151700	4.246769349700	5.426087367000
19	2	-1.200000	8.059018129700	0.549084478500	4.182067344000
20	2	-1.200000	5.621244477800	4.781441741700	4.198762136400
21	2	-1.200000	7.687359310000	2.511761390000	2.408423490000
22	2	-1.200000	5.234484310000	6.748761390000	2.408423490000
23	2	-1.200000	8.640276090200	3.046129494500	4.862682909900
24	2	-1.200000	6.199825294300	7.280216490100	4.862259716400
25	2	-1.200000	5.647156000000	3.686834020000	1.212851340000
26	2	-1.200000	8.100031000000	7.923834020000	1.212851340000
27	2	-1.200000	5.240512087900	1.732013776900	3.061112262500
28	2	-1.200000	7.700224014200	5.966896761500	3.064308777000
29	1	2.400000	6.191782550000	2.272269200000	1.809522720000
30	1	2.400000	8.644657550000	6.509269200000	1.809522720000
31	1	2.400000	8.635109198400	1.967197829900	3.632158208600
32	1	2.400000	6.185612069400	6.200314680000	3.632729835600
33	1	2.400000	2.237501602300	8.485760583300	5.418503003000
34	1	2.400000	4.684655568200	12.720637749300	5.426001217100
35	2	-1.200000	3.153184093600	9.022949293300	4.181739643200
36	2	-1.200000	0.715470562400	13.255456360300	4.198745595700
37	2	-1.200000	2.781609310000	10.985761390000	2.408423490000
38	2	-1.200000	0.328734310000	15.222761390000	2.408423490000
39	2	-1.200000	3.734524824900	11.520025415300	4.862592384800
40	2	-1.200000	1.293919038700	15.754239948700	4.862309817800
41	2	-1.200000	0.741406000000	12.160834020000	1.212851340000
42	2	-1.200000	3.194281000000	16.397834020000	1.212851340000
43	2	-1.200000	0.334704892800	10.205899317600	3.060958624900
44	2	-1.200000	2.794583945900	14.440956782500	3.064531108400
45	1	2.400000	1.286032550000	10.746269200000	1.809522720000
46	1	2.400000	3.738907550000	14.983269200000	1.809522720000
47	1	2.400000	3.729351318200	10.441135196000	3.632071149200
48	1	2.400000	1.279873739300	14.674330944600	3.632721227700
49	1	2.400000	7.143212348700	8.485783571700	5.418597724500
50	1	2.400000	9.590405279800	12.720664013400	5.425925271500
51	2	-1.200000	8.058933416800	9.023083266200	4.181961920400
52	2	-1.200000	5.621253518700	13.255369963100	4.198781857900
53	2	-1.200000	7.687359310000	10.985761390000	2.408423490000
54	2	-1.200000	5.234484310000	15.222761390000	2.408423490000
55	2	-1.200000	8.640164126200	11.520134131500	4.862636779200
56	2	-1.200000	6.199787366700	15.754149854800	4.862254169300
57	2	-1.200000	5.647156000000	12.160834020000	1.212851340000
58	2	-1.200000	8.100031000000	16.397834020000	1.212851340000
59	2	-1.200000	5.240236707000	10.205640638100	3.060410007000
60	2	-1.200000	7.700093764500	14.440832316200	3.064037281200
61	1	2.400000	6.191782550000	10.746269200000	1.809522720000
62	1	2.400000	8.644657550000	14.983269200000	1.809522720000
63	1	2.400000	8.635101056600	10.441216316000	3.632113968400
64	1	2.400000	6.185598220300	14.674247676000	3.632726056500
65	2	-1.200000	1.300601215100	1.193806168000	6.025121749900
66	2	-1.200000	3.732029318100	5.423703526500	6.022575420000
67	2	-1.200000	3.131618510100	0.378647933600	9.650832207400
68	2	-1.200000	0.650953440000	4.616269934100	9.653429224400
69	2	-1.200000	2.813546803600	2.510650818400	7.813335862300
70	2	-1.200000	0.336619570300	6.744347352300	7.814952233600
71	2	-1.200000	0.783826045000	3.728043707400	6.614527934000
72	2	-1.200000	3.259744312000	7.964644841300	6.586747556900
73	2	-1.200000	0.322520739600	1.772911072200	8.414142074200
74	2	-1.200000	2.747998693700	6.015611753100	8.407661105000
75	1	2.400000	1.295952487700	2.305547839800	7.232421700900
76	1	2.400000	3.729504606800	6.538899688200	7.227450871000
77	1	2.400000	3.681021835400	1.479273346300	8.760518120200
78	1	2.400000	1.203390421000	5.713628437200	8.760661662500
79	2	-1.200000	6.206371716600	1.193759411400	6.025068189300
80	2	-1.200000	8.637769980500	5.423709749600	6.022706796800
81	2	-1.200000	8.037369360200	0.378662501500	9.650798869600
82	2	-1.200000	5.556744617900	4.616148828900	9.653182874800
83	2	-1.200000	7.719293794300	2.510626680700	7.813319868500
84	2	-1.200000	5.242416899500	6.744176479800	7.814987656800
85	2	-1.200000	5.689592060600	3.727985997400	6.614401107300
86	2	-1.200000	8.165445962500	7.964677536500	6.586885883100
87	2	-1.200000	5.228328725800	1.772912734200	8.414104186900
88	2	-1.200000	7.653587189700	6.015490306700	8.407652093900
89	1	2.400000	6.201710974800	2.305537111200	7.232333022500
90	1	2.400000	8.635177859000	6.538919543100	7.227573684500
91	1	2.400000	8.586786611900	1.479333946600	8.760564589100
92	1	2.400000	6.109122381200	5.713716586900	8.760829020500
93	2	-1.200000	1.300706010000	9.667684136900	6.024976128900
94	2	-1.200000	3.732110255500	13.897578392900	6.022692440000
95	2	-1.200000	3.131504674300	8.852064629900	9.650581810800
96	2	-1.200000	0.651110897600	13.089353294800	9.653117191100
97	2	-1.200000	2.813418953100	10.984955345600	7.813317000800
98	2	-1.200000	0.336837793900	15.218534392700	7.815066909800
99	2	-1.200000	0.783962111100	12.201823052700	6.614128970800
100	2	-1.200000	3.259483868500	16.438647689000	6.587130887800
101	2	-1.200000	0.322765134700	10.246951945900	8.414170589700
102	2	-1.200000	2.748126818200	14.489583300400	8.407847095800
103	1	2.400000	1.295932665300	10.779474981600	7.232195344200
104	1	2.400000	3.729561886400	15.012869719400	7.227548407100
105	1	2.400000	3.680987990800	9.952723691300	8.759834098500
106	1	2.400000	1.203322903700	14.187047156400	8.760432563200
107	2	-1.200000	6.206399004200	9.667714575800	6.025067654400
108	2	-1.200000	8.637869232900	13.897635024200	6.022608914400
109	2	-1.200000	8.037255497500	8.852159140800	9.650632620700
110	2	-1.200000	5.556894356400	13.089435884300	9.653034289000
111	2	-1.200000	7.719172241600	10.984968415700	7.813356711100
112	2	-1.200000	5.242608706100	15.218454484400	7.815045705800
113	2	-1.200000	5.689685122600	12.201884068000	6.614275283200
114	2	-1.200000	8.165271570000	16.438629675400	6.587053851000
115	2	-1.200000	5.228527100400	10.247053150500	8.414284889700
116	2	-1.200000	7.653823472400	14.489531192100	8.407766976100
117	1	2.400000	6.201695970400	10.779496304700	7.232281898500
118	1	2.400000	8.635322654800	15.012849112900	7.227520707100
119	1	2.400000	8.586767456700	9.952758933700	8.759832388700
120	1	2.400000	6.109111825600	14.187157308300	8.760499084800
121	1	2.400000	12.048860994300	16.959753254700	5.418674838400
122	1	2.400000	14.496144022800	4.246781487200	5.426056155000
123	2	-1.200000	12.964742922900	0.549176605300	4.182163520100
124	2	-1.200000	10.527006169400	4.781423443800	4.198822281100
125	2	-1.200000	12.593109310000	2.511761390000	2.408423490000
126	2	-1.200000	10.140234310000	6.748761390000	2.408423490000
127	2	-1.200000	13.545945980100	3.046214653500	4.862706597100
128	2	-1.200000	11.105791769200	7.280138835200	4.862271381000
129	2	-1.200000	10.552906000000	3.686834020000	1.212851340000
130	2	-1.200000	13.005781000000	7.923834020000	1.212851340000
131	2	-1.200000	10.146089345200	1.731881717600	3.060623361800
132	2	-1.200000	12.605677792400	5.966773245000	3.063719761100
133	1	2.400000	11.097532550000	2.272269200000	1.809522720000
134	1	2.400000	13.550407550000	6.509269200000	1.809522720000
135	1	2.400000	13.540837872800	1.967266720800	3.632158162600
136	1	2.400000	11.091317989100	6.200291691700	3.632748199900
137	1	2.400000	16.954641323000	16.959757081400	5.418702296300
138	1	2.400000	19.401903946100	4.246738688200	5.426109700200
139	2	-1.200000	17.870606142800	0.549056516900	4.182170602800
140	2	-1.200000	15.432715755800	4.781450651800	4.198778642200
141	2	-1.200000	17.498859310000	2.511761390000	2.408423490000
142	2	-1.200000	15.045984310000	6.748761390000	2.408423490000
143	2	-1.200000	18.451798900500	3.046120550100	4.862656539300
144	2	-1.200000	16.011389802200	7.280197772700	4.862278548800
145	2	-1.200000	15.458656000000	3.686834020000	1.212851340000
146	2	-1.200000	17.911531000000	7.923834020000	1.212851340000
147	2	-1.200000	15.052013735900	1.732049853900	3.061074589300
148	2	-1.200000	17.511620475600	5.966838478100	3.064107829800
149	1	2.400000	16.003282550000	2.272269200000	1.809522720000
150	1	2.400000	18.456157550000	6.509269200000	1.809522720000
151	1	2.400000	18.446609926700	1.967163943600	3.632165059000
152	1	2.400000	15.997073959400	6.200327370900	3.632729738300
153	1	2.400000	12.049017506900	8.485793497000	5.418702583400
154	1	2.400000	14.496145823200	12.720693105700	5.425974293300
155	2	-1.200000	12.964815076100	9.023028229000	4.182086797000
156	2	-1.200000	10.526978203400	13.255422424700	4.198731930200
157	2	-1.200000	12.593109310000	10.985761390000	2.408423490000
158	2	-1.200000	10.140234310000	15.222761390000	2.408423490000
159	2	-1.200000	13.545996237200	11.520112091400	4.862592968400
160	2	-1.200000	11.105438981700	15.754220272000	4.862277092200
161	2	-1.200000	10.552906000000	12.160834020000	1.212851340000
162	2	-1.200000	13.005781000000	16.397834020000	1.212851340000
163	2	-1.200000	10.146210893300	10.205831222400	3.061025945700
164	2	-1.200000	12.606071883900	14.440954455800	3.064499328600
165	1	2.400000	11.097532550000	10.746269200000	1.809522720000
166	1	2.400000	13.550407550000	14.983269200000	1.809522720000
167	1	2.400000	13.540883491500	10.441156585800	3.632141371800
168	1	2.400000	11.091366917700	14.674303280700	3.632710375400
169	1	2.400000	16.954740817100	8.485796360400	5.418612712400
170	1	2.400000	19.401902234600	12.720684184000	5.425925616000
171	2	-1.200000	17.870473212300	9.023121879900	4.181998223000
172	2	-1.200000	15.432759243100	13.255429540000	4.198776713800
173	2	-1.200000	17.498859310000	10.985761390000	2.408423490000
174	2	-1.200000	15.045984310000	15.222761390000	2.408423490000
175	2	-1.200000	18.451650023900	11.520182804100	4.862605959900
176	2	-1.200000	16.011295967000	15.754176464200	4.862289784000
177	2	-1.200000	15.458656000000	12.160834020000	1.212851340000
178	2	-1.200000	17.911531000000	16.397834020000	1.212851340000
179	2	-1.200000	15.051800233000	10.205703216200	3.060593339900
180	2	-1.200000	17.511656869200	14.440903276000	3.064173978100
181	1	2.400000	16.003282550000	10.746269200000	1.809522720000
182	1	2.400000	18.456157550000	14.983269200000	1.809522720000
183	1	2.400000	18.446610717400	10.441245147600	3.632095166900
184	1	2.400000	15.997117301900	14.674291499700	3.632737390900
185	2	-1.200000	11.112098496300	1.193788735700	6.025080739200
186	2	-1.200000	13.543509206600	5.423763731400	6.022621157300
187	2	-1.200000	12.943107878200	0.378717929200	9.650819778700
188	2	-1.200000	10.462458655400	4.616172389000	9.653325988700
189	2	-1.200000	12.625039926700	2.510653507700	7.813306066100
190	2	-1.200000	10.148137120800	6.744263779300	7.814955154700
191	2	-1.200000	10.595330572500	3.728033271300	6.614473617600
192	2	-1.200000	13.071178930400	7.964750050800	6.587079049600
193	2	-1.200000	10.134057603700	1.772931801900	8.414121587700
194	2	-1.200000	12.559410131500	6.015560928000	8.407709142400
195	1	2.400000	11.107456318300	2.305549491700	7.232364670700
196	1	2.400000	13.540952743200	6.538904271800	7.227562228300
197	1	2.400000	13.492516818700	1.479361497300	8.760545149600
198	1	2.400000	11.014842781100	5.713639674000	8.760732160500
199	2	-1.200000	16.017890767000	1.193806236800	6.025064635600
200	2	-1.200000	18.449273061300	5.423690233400	6.022655883900
201	2	-1.200000	17.848891647900	0.378566920800	9.650759869600
202	2	-1.200000	15.368194241300	4.616183929200	9.653365293500
203	2	-1.200000	17.530813300600	2.510571174200	7.813334154000
204	2	-1.200000	15.053872934000	6.744269181000	7.814999993000
205	2	-1.200000	15.501076053400	3.728055149600	6.614486218900
206	2	-1.200000	17.976943668600	7.964685617600	6.586925638500
207	2	-1.200000	15.039816560700	1.772918611400	8.414097559100
208	2	-1.200000	17.465198726900	6.015575778300	8.407713379100
209	1	2.400000	16.013211943600	2.305574536100	7.232352374100
210	1	2.400000	18.446702382300	6.538912675500	7.227525410600
211	1	2.400000	18.398268261100	1.479251862000	8.760558766000
212	1	2.400000	15.920606634900	5.713619696800	8.760728308000
213	2	-1.200000	11.112163076800	9.667718636800	6.025079076000
214	2	-1.200000	13.543618333600	13.897625657800	6.022711324500
215	2	-1.200000	12.943014699500	8.852426670000	9.650720236100
216	2	-1.200000	10.462654258500	13.089385734000	9.653006231100
217	2	-1.200000	12.624958719500	10.984927545000	7.813316926900
218	2	-1.200000	10.148368348800	15.218419906500	7.815044596500
219	2	-1.200000	10.595442585700	12.201889744600	6.614185978700
220	2	-1.200000	13.070985581600	16.438663024900	6.587137708800
221	2	-1.200000	10.134288350900	10.247020699700	8.414234692100
222	2	-1.200000	12.559563561000	14.489522608900	8.407822555000
223	1	2.400000	11.107452256700	10.779543259200	7.232256363200
224	1	2.400000	13.541041600200	15.012884899400	7.227581907000
225	1	2.400000	13.492538809400	9.953005955700	8.760037832100
226	1	2.400000	11.014847439100	14.187141372700	8.760515037800
227	2	-1.200000	16.017909892000	9.667725645800	6.025042477600
228	2	-1.200000	18.449370783400	13.897650555800	6.022655524700
229	2	-1.200000	17.848771825000	8.852347868000	9.650665508400
230	2	-1.200000	15.368369692300	13.089410312900	9.653123848900
231	2	-1.200000	17.530701495200	10.984924190700	7.813301667300
232	2	-1.200000	15.054097680300	15.218539803300	7.815038804400
233	2	-1.200000	15.501196592200	12.201878036300	6.614181839600
234	2	-1.200000	17.976749175000	16.438699514700	6.587180519400
235	2	-1.200000	15.039999698400	10.246998323800	8.414208048800
236	2	-1.200000	17.465385703100	14.489587486600	8.407850430900
237	1	2.400000	16.013190368900	10.779507339300	7.232252202400
238	1	2.400000	18.446818221900	15.012872189000	7.227553943700
239	1	2.400000	18.398265269300	9.952944355100	8.759963058300
240	1	2.400000	15.920584821800	14.187089221000	8.760442911400
