256
Lattice="19.6230000000 0.0000000000 0.0000000000 0.0000000000 16.9480000000 0.0000000000 0.0000000000 0.0000000000 18.0" Properties=species:S:1:pos:R:3 pbc="T T T"
 Si         2.4193717921       -0.2097090430        5.4092222867
 Si         4.8424322004        4.0341642426        5.4238940244
  O         3.0752874416        0.4600387654        4.0675377656
  O         0.6380706166        4.6863793805        4.0866353775
  O         2.6755374935        2.6511084745        2.5726878579
  O         0.1896283592        6.8920536808        2.6293957027
  O         3.9162536957        2.7862395979        4.9470469135
  O         1.4946686312        7.0140464911        4.9746638488
  O         0.6456881978        3.9159793968        1.1210446966
  O         3.0672886306        8.2141261374        1.1815543862
  O         0.2407031537        1.7387496052        2.8985827706
  O         2.6884314568        5.9658471943        2.8861623424
 Si         1.1455019636        2.8505524696        2.0824412660
 Si         3.5695464997        7.1119067148        2.0992223405
 Si         3.6951700371        1.9016023962        3.5868322778
 Si         1.2338374140        6.1393083567        3.6148251080
 Si         7.2992855078       16.7524021442        5.4307626617
 Si         9.7427900855        4.0085976217        5.4214007079
  O         7.9243674657        0.4634139482        4.0703361384
  O         5.4923113002        4.7064000614        4.0801554027
  O         7.5890100924        2.6565189828        2.5753716444
  O         5.1036197040        6.8858406335        2.5585196465
  O         8.7784523421        2.7747798097        4.9819505246
  O         6.2877384593        7.0836925858        4.9287189275
  O         5.5552869141        3.9122293818        1.1211052635
  O         7.9772757137        8.0877836073        1.1142278691
  O         5.1677706672        1.7253658964        2.8924656888
  O         7.5937893468        5.9556574001        2.9480140907
 Si         6.0596493909        2.8461686504        2.0790016155
 Si         8.4856619334        7.0396571048        2.0888678242
 Si         8.5776048685        1.8950764817        3.6106115764
 Si         6.1036110724        6.1486601327        3.5976713340
 Si         2.4269636064        8.2699928783        5.4206873388
 Si         4.8701274270       12.5170060742        5.4359346092
  O         3.0777914700        8.9371644120        4.0753219778
  O         0.5923204926       13.1814833340        4.0252658656
  O         2.6694712886       11.1760566241        2.6329726711
  O         0.1732996860       15.4274115534        2.6152959527
  O         3.9462707807       11.2518854426        4.9864498001
  O         1.4954595535       15.4876127550        4.9349371423
  O         0.6489505964       12.3848644544        1.1164698074
  O         3.0729843604       16.6863433025        1.1214483825
  O         0.2564167158       10.1946454579        2.8840556062
  O         2.6712259630       14.4549717878        2.8254447349
 Si         1.1513625534       11.3198264658        2.0766694974
 Si         3.5754940473       15.6056862372        2.0654913249
 Si         3.6986524669       10.3886196025        3.6114764886
 Si         1.2206942329       14.6290017270        3.5656629234
 Si         7.2521026974        8.3069238218        5.3956320373
 Si         9.8151344625       12.5199095949        5.5393130209
  O         7.9194178511        9.0066732718        4.0795078745
  O         5.4920830373       13.1821531303        4.0728820257
  O         7.5644793036       11.1997847091        2.6267160516
  O         5.0856776321       15.4237337094        2.6302158434
  O         8.8406308945       11.3125250809        5.0137424027
  O         6.3971185892       15.4779933083        4.9784168186
  O         5.4982352145       12.3871803565        1.1189184697
  O         7.9744263315       16.6881142643        1.1800083493
  O         5.1617671177       10.2065561446        2.8945847570
  O         7.5565780799       14.4412804319        2.8459242312
 Si         6.0398172763       11.3446966603        2.0829406410
 Si         8.4769720126       15.5902904931        2.1027680157
 Si         8.5828100955       10.4484896050        3.6484025443
 Si         6.1172533484       14.6284166705        3.6023807658
  O         1.4919336693        0.7882626824        6.3154530800
  O         3.9200678876        5.0223715374        6.3459775467
  O         3.1997811550       14.8181751944        8.5379869327
  O         0.7721106441        2.1048038897        8.5340877944
  O         2.8302331651        0.4678322013        8.6121946664
  O         0.3925802348        4.7022850503        8.6595831690
  O         1.2400713206        3.5773555167        6.3803328868
  O         3.6693027140        7.8143708757        6.3722050704
  O         0.4014396925       16.4248368416        8.3968899548
  O         2.8756470476        3.7265470263        8.4641403091
 Si         1.3609311997        0.7148005114        7.9609671343
 Si         3.8177448839        4.9662033103        7.9927109620
 Si         3.7613476180       16.2399276459        7.9922644596
 Si         1.3321991653        3.5386748578        8.0189537016
  O         6.3468154507        0.7895989755        6.3249971927
  O         8.8264295172        5.0254740999        6.3136906541
  O         8.0550319644       14.8974356961        8.5322630435
  O         5.6229016646        2.1216950485        8.5315344340
  O         7.7198620493        0.5410165945        8.6130409858
  O         5.3051338247        4.7387170785        8.6154666952
  O         6.0944167965        3.5753371112        6.3613685654
  O         8.5052007147        7.8049205880        6.3159745013
  O         5.3071311397       16.4286439265        8.4198354069
  O         7.7689258013        3.6906805415        8.4069471497
 Si         6.2370238278        0.7352035980        7.9724910764
 Si         8.7035566373        4.9378230129        7.9568125261
 Si         8.6574237233       16.3123235564        8.0059447099
 Si         6.2099722323        3.5395104478        7.9946162713
  O         1.4909956659        9.2653446937        6.3147341077
  O         3.9305993633       13.4965497288        6.3505202761
  O         3.2068524986        6.3568990377        8.5397017460
  O         0.7179770957       10.5869178504        8.4792060979
  O         2.8163852664        8.9645796132        8.6154787183
  O         0.3468784109       13.1783809175        8.5921889482
  O         1.1932145642       12.0565362335        6.3178893340
  O         3.6632702638       16.2810884652        6.3580399747
  O         0.4023969478        7.9571760090        8.4170562727
  O         2.8265568788       12.1890444349        8.4102595092
 Si         1.3471415848        9.1971883476        7.9565773462
 Si         3.8012598121       13.4213967200        7.9937638233
 Si         3.7588231048        7.7905846949        8.0084149703
 Si         1.2861296355       12.0160295055        7.9545971160
  O         6.3455775882        9.2768467088        6.3485524767
  O         8.8435210786       13.5550619822        6.3648596334
  O         8.0336785709        6.3075718575        8.4855303080
  O         5.6942843599       10.6134671294        8.5443463475
  O         7.7426357723        8.9250642889        8.6062280419
  O         5.2681381516       13.1820442689        8.6582800133
  O         6.1419624350       12.1053255288        6.3761823832
  O         8.5711586217       16.3520351148        6.3691047275
  O         5.2937502646        7.9985524229        8.4681900116
  O         7.7797247621       12.2606020870        8.4651617627
 Si         6.2603012917        9.2122354264        7.9920574405
 Si         8.7138877095       13.5175940763        8.0076143054
 Si         8.6091181736        7.7212428783        7.9468749666
 Si         6.2411985267       12.0501398805        8.0142145573
 Si        12.2200369128       -0.1556270039        5.4500041941
 Si        14.6498587080        4.0441804592        5.4125968800
  O        12.8808071785        0.4721878977        4.0847128684
  O        10.4059537299        4.6436447567        4.0667198721
  O        12.4835141963        2.6465537867        2.5598795833
  O        10.0084338120        6.8814599055        2.6224518401
  O        13.6853702075        2.8271402171        4.9350376050
  O        11.3188190180        6.9538522061        4.9382620025
  O        10.3994843669        3.9086844011        1.1835459784
  O        12.8815934367        8.0893990809        1.1172290199
  O        10.0701677910        1.7167409390        2.9537929671
  O        12.5037714105        5.8938552160        2.8756024811
 Si        10.9409723671        2.8281001796        2.1064813669
 Si        13.3898739345        7.0409469315        2.0916908353
 Si        13.4974697969        1.9097245906        3.5889343734
 Si        11.0382298132        6.0770016350        3.5815986958
 Si        17.0954281829       16.7718811362        5.4125247788
 Si        19.6092767779        4.0286496389        5.4390086968
  O        17.7341527197        0.5112628423        4.0725091760
  O        15.3132446671        4.7030435351        4.0717323317
  O        17.3769228983        2.7228277153        2.6198871128
  O        14.8986340215        6.9462063679        2.6788160115
  O        18.6524620814        2.7912875094        4.9856381485
  O        16.2129193255        7.0162767537        4.9933352753
  O        15.3093453141        3.9131833885        1.1258597109
  O        17.7736547927        8.1577745986        1.1748963014
  O        14.9740644991        1.7305361880        2.9008778826
  O        17.3923453628        5.9524439701        2.9010083711
 Si        15.8514851154        2.8651351622        2.0844508699
 Si        18.2875595905        7.0842324587        2.1187160815
 Si        18.3973544323        1.9364614616        3.6082878704
 Si        15.9409663712        6.1505529315        3.6308934779
 Si        12.2040394421        8.2500283642        5.3480056068
 Si        14.5894156899       12.5183636505        5.3726798364
  O        12.8296477606        8.9373278433        4.0101676571
  O        10.5211525952       13.1695552279        4.2006174072
  O        12.4897938507       11.0652145864        2.4384003009
  O         9.9740944898       15.3595757010        2.6813268595
  O        13.6146832483       11.3151580971        4.8603615957
  O        11.2562945221       15.5620521654        5.0063873741
  O        10.4024630339       12.3861176689        1.1204577714
  O        12.8228942730       16.6269823261        1.1237594727
  O        10.0576812665       10.2519383832        2.9526065039
  O        12.4967908006       14.4862315767        2.9498355841
 Si        10.9383116737       11.3215446464        2.0635521383
 Si        13.3671334491       15.5830272442        2.0850887447
 Si        13.4715404872       10.3739139755        3.5264830050
 Si        11.0347356550       14.6347855222        3.6760268758
 Si        17.1373172679        8.2800365884        5.4349086059
 Si        19.5676962852       12.5155993602        5.3742787340
  O        17.7841382362        8.9344170284        4.0787337269
  O        15.2969455878       13.2011966908        4.0621461222
  O        17.3793703421       11.1256728149        2.5593093769
  O        14.9070562995       15.4122945162        2.5655703810
  O        18.6338956883       11.2619822219        4.9264478312
  O        16.1495982539       15.5412048395        4.9318703317
  O        15.3082093433       12.3857007544        1.1200750870
  O        17.7289836673       16.6872376294        1.1819288778
  O        14.9725432248       10.1967053340        2.8939547076
  O        17.3915210095       14.4500191701        2.8893672039
 Si        15.8472791736       11.3195425680        2.0596468744
 Si        18.2672913800       15.6077782780        2.1074787074
 Si        18.4016346850       10.3720150502        3.5711628484
 Si        15.9156032149       14.6421408737        3.5821463517
  O        11.3095821029        0.8463028085        6.3727303552
  O        13.7392218511        5.0638202395        6.3104921833
  O        13.0161823660       14.8573033720        8.5282280112
  O        10.5899205570        2.1634142797        8.5866093332
  O        12.6425870942        0.5158972200        8.6672079973
  O        10.1874924824        4.7601534898        8.6059327766
  O        10.9953658191        3.5747536430        6.3697214788
  O        13.4704978484        7.8833243057        6.3149266421
  O        10.1986815673       16.4908474076        8.4618356013
  O        12.6804237257        3.7765274090        8.4106838682
 Si        11.1717743790        0.7667231512        8.0176773977
 Si        13.6321522223        5.0104167253        7.9555069709
 Si        13.5723668362       16.2956094023        8.0241972617
 Si        11.1286142019        3.5792383202        8.0027875121
  O        16.1715663752        0.7932090452        6.3515213161
  O        18.6978697958        5.0329757264        6.3528001842
  O        17.9104299024       14.8230715097        8.4785921374
  O        15.4894776738        2.1381492952        8.5466604904
  O        17.5674421311        0.4782375488        8.6064201597
  O        15.1091791779        4.7636806766        8.6008555343
  O        15.8949777386        3.5766449811        6.3571607566
  O        18.3846455070        7.8196638035        6.3748573617
  O        15.1138254478       16.4765431012        8.4724938377
  O        17.5825078109        3.7223587435        8.4078188260
 Si        16.0813694788        0.7404516312        7.9974728907
 Si        18.5513858382        4.9584798975        7.9935549811
 Si        18.4798475505       16.2506571506        7.9559165197
 Si        16.0282729566        3.5650497062        7.9906627486
  O        11.1963236449        9.2029967054        6.2314308413
  O        13.6777645866       13.5111250906        6.2972893803
  O        13.0056369086        6.4050457462        8.4800666162
  O        10.1871139356       10.4300353623        8.2839865268
  O        12.5488136430        9.0030094500        8.5358102625
  O        10.1861352336       13.3584527318        8.6708761052
  O        10.9876635823       12.0540159580        6.5676747959
  O        13.4793354609       16.3473743990        6.3863928540
  O        10.1873085079        7.8160331198        8.3390316564
  O        12.6935096207       12.2469530986        8.4705812450
 Si        11.0826216534        9.0698258291        7.8529273187
 Si        13.6052034884       13.4707122959        7.9460823915
 Si        13.5471765818        7.8406636054        7.9525630180
 Si        11.0927657642       12.0609498053        8.2553334638
  O        16.2139918883        9.2632539785        6.3604127716
  O        18.6396913609       13.5069385975        6.2849124583
  O        17.9252202896        6.3444388284        8.5391733567
  O        15.4504497473       10.6083599484        8.5338723173
  O        17.5333812477        8.9367697073        8.6614623022
  O        15.1097953490       13.2429472009        8.5376057688
  O        15.8253649000       11.9917160631        6.3025214417
  O        18.3686803219       16.2974175523        6.3198667744
  O        15.0661429262        8.0190946852        8.4552505776
  O        17.5440010927       12.1873712137        8.3379354959
 Si        16.0712939425        9.2166775208        8.0035630414
 Si        18.5054119512       13.4291393181        7.9267500837
 Si        18.4734433874        7.7788095968        8.0100396394
 Si        15.9881901906       12.0226575095        7.9330098187
  H         0.1884502100        4.0213942600        0.5029856200
  H         5.0942002200        4.0213942600        0.5029856200
  H         9.9999502200        4.0213942600        0.5029856200
  H        14.9057002200        4.0213942600        0.5029856200
  H         2.6413252100        8.2583942600        0.5029856200
  H         7.5470752100        8.2583942600        0.5029856200
  H        12.4528252200        8.2583942600        0.5029856200
  H        17.3585752100        8.2583942600        0.5029856200
  H         0.1884502100       12.4953942600        0.5029856200
  H         5.0942002200       12.4953942600        0.5029856200
  H         9.9999502100       12.4953942600        0.5029856200
  H        14.9057002200       12.4953942600        0.5029856200
  H         2.6413252200       16.7323942600        0.5029856200
  H         7.5470752100       16.7323942600        0.5029856200
  H        12.4528252200       16.7323942600        0.5029856200
  H        17.3585752100       16.7323942600        0.5029856200
