Atoms  # charge
 
         256  atoms
           3  atom types
 
      0.000000000000      19.623000000000  xlo xhi
      0.000000000000      16.948000000000  ylo yhi
      0.000000000000      22.000000000000  zlo zhi
 
Masses
 
            1   28.08500000             # Si
            2   15.99900000             # O
            3   1.00800000              # H
 
Atoms  # charge
 
1	1	0.0	2.217189726700	0.618272900000	5.704344380000
2	1	0.0	4.674649296700	4.832733810000	5.742242896700
3	2	0.0	2.800068393300	1.299428930000	4.348989203300
4	2	0.0	0.309572376700	5.502784426700	4.351388713300
5	2	0.0	2.457045313300	3.478985313300	2.898631333300
6	2	0.0	0.001908240000	7.682361843300	2.902651463300
7	2	0.0	3.758440646700	3.569122973300	5.278158833300
8	2	0.0	1.303730783300	7.766603366700	5.280677723300
9	2	0.0	0.645688200000	3.915979400000	1.121044700000
10	2	0.0	3.067288630000	8.214126140000	1.181554390000
11	2	0.0	0.004150283300	2.404933043300	3.200235903300
12	2	0.0	2.453034240000	6.625977556700	3.207959893300
13	1	0.0	1.145501960000	2.850552470000	2.082441270000
14	1	0.0	3.569546500000	7.111906710000	2.099222340000
15	1	0.0	3.494417716700	2.714906243300	3.921679190000
16	1	0.0	1.025902923300	6.908800140000	3.932583240000
17	1	0.0	7.108417096700	0.613586686700	5.738732576700
18	1	0.0	9.584697243300	4.851544746700	5.732431490000
19	2	0.0	7.666543470000	1.311881546700	4.380897763300
20	2	0.0	5.218424080000	5.535208840000	4.380603486700
21	2	0.0	7.383084916700	3.462881543300	2.884375773300
22	2	0.0	4.908116910000	7.686258593300	2.906644003300
23	2	0.0	8.653177863300	3.584791490000	5.303102046700
24	2	0.0	6.241148020000	7.794944830000	5.300498360000
25	2	0.0	5.555286910000	3.912229380000	1.121105260000
26	2	0.0	7.977275710000	8.087783610000	1.114227870000
27	2	0.0	4.918370460000	2.413198820000	3.199052676700
28	2	0.0	7.357543050000	6.645644156700	3.212340973300
29	1	0.0	6.059649390000	2.846168650000	2.079001620000
30	1	0.0	8.485661930000	7.039657100000	2.088867820000
31	1	0.0	8.394011713300	2.712887383300	3.951733506700
32	1	0.0	5.938364020000	6.940252513300	3.952329143300
33	1	0.0	2.222113810000	9.037034420000	5.721886850000
34	1	0.0	4.669985180000	13.296173430000	5.707783030000
35	2	0.0	2.790657256700	9.727500793300	4.365592260000
36	2	0.0	0.304615993300	14.028231150000	4.345637116700
37	2	0.0	2.485863366700	11.888178983300	2.878584816700
38	2	0.0	0.009733420000	16.196614100000	2.840777570000
39	2	0.0	3.759775120000	12.011196143300	5.274416996700
40	2	0.0	1.301578316700	16.292765150000	5.269177600000
41	2	0.0	0.648950600000	12.384864450000	1.116469810000
42	2	0.0	3.072984360000	16.686343300000	1.121448380000
43	2	0.0	0.029924426700	10.895122083300	3.217659050000
44	2	0.0	2.453768770000	15.142423703300	3.195805463300
45	1	0.0	1.151362550000	11.319826470000	2.076669500000
46	1	0.0	3.575494050000	15.605686240000	2.065491320000
47	1	0.0	3.499994663300	11.134658890000	3.931206853300
48	1	0.0	1.024930163300	15.431746890000	3.918992810000
49	1	0.0	7.166942803300	9.067806190000	5.761426930000
50	1	0.0	9.587251003300	13.293952066700	5.778217770000
51	2	0.0	7.694056090000	9.786539610000	4.400054883300
52	2	0.0	5.212585710000	14.011662843300	4.352152463300
53	2	0.0	7.380813996700	11.919544743300	2.875368213300
54	2	0.0	4.900892106700	16.192197466700	2.895086250000
55	2	0.0	8.618979910000	12.105339950000	5.254793813300
56	2	0.0	6.200409076700	16.293148943300	5.277146273300
57	2	0.0	5.498235210000	12.387180360000	1.118918470000
58	2	0.0	7.974426330000	16.688114260000	1.180008350000
59	2	0.0	4.931287486700	10.856694530000	3.203714733300
60	2	0.0	7.351145820000	15.131893843300	3.211735793300
61	1	0.0	6.039817280000	11.344696660000	2.082940640000
62	1	0.0	8.476972010000	15.590290490000	2.102768020000
63	1	0.0	8.408482230000	11.182888796700	3.943334973300
64	1	0.0	5.921662103300	15.426389536700	3.932465666700
65	2	0.0	1.256186930000	1.580396610000	6.613527713300
66	2	0.0	3.734565150000	5.796967673300	6.669345616700
67	2	0.0	3.035399330000	15.637009630000	8.802986386700
68	2	0.0	0.556000073300	2.939009640000	8.790917773300
69	2	0.0	2.629394763300	1.299612700000	8.892901046700
70	2	0.0	0.193423120000	5.530847266700	8.928606273300
71	2	0.0	1.042296983300	4.403577480000	6.644657630000
72	2	0.0	3.493137850000	8.596776150000	6.647071186700
73	2	0.0	0.177966070000	0.325207700000	8.730643110000
74	2	0.0	2.661175753300	4.542098676700	8.759812920000
75	1	0.0	1.149180533300	1.537438520000	8.256578236700
76	1	0.0	3.635775410000	5.761644880000	8.311932173300
77	1	0.0	3.574798660000	0.129758826700	8.274852963300
78	1	0.0	1.129362360000	4.367791036700	8.283951410000
79	2	0.0	6.183446836700	1.586226293300	6.670003786700
80	2	0.0	8.662271656700	5.840367953300	6.653679890000
81	2	0.0	7.967393696700	15.623142153300	8.876839213300
82	2	0.0	5.511910373300	2.946497076700	8.863022750000
83	2	0.0	7.557576763300	1.277747016700	8.960626480000
84	2	0.0	5.111338983300	5.525972620000	8.958117663300
85	2	0.0	5.947251676700	4.398907306700	6.673229160000
86	2	0.0	8.425263156700	8.643628543300	6.709864686700
87	2	0.0	5.107675420000	0.323049966700	8.743088343300
88	2	0.0	7.594779403300	4.568575136700	8.775934196700
89	1	0.0	6.087921546700	1.542876086700	8.312871566700
90	1	0.0	8.554171870000	5.801398616700	8.301810296700
91	1	0.0	8.487087880000	0.109124473300	8.313485750000
92	1	0.0	6.059467573300	4.372179576700	8.314003680000
93	2	0.0	1.276923470000	10.017068873300	6.626880993300
94	2	0.0	3.730695300000	14.269725806700	6.624792080000
95	2	0.0	3.033997533300	7.162807066700	8.839093696700
96	2	0.0	0.559825126700	11.394327353300	8.782724336700
97	2	0.0	2.630229086700	9.747749763300	8.896031370000
98	2	0.0	0.181505826700	13.972145160000	8.898645076700
99	2	0.0	1.044327920000	12.892808400000	6.609736063300
100	2	0.0	3.490058420000	0.197558996700	6.637677103300
101	2	0.0	0.177372350000	8.767395260000	8.731221760000
102	2	0.0	2.660580046700	13.006684960000	8.713768743300
103	1	0.0	1.150201793300	9.983651030000	8.266647053300
104	1	0.0	3.629041933300	14.234553330000	8.267257546700
105	1	0.0	3.585126776700	8.585699663300	8.286889350000
106	1	0.0	1.125556573300	12.821059493300	8.249361246700
107	2	0.0	6.202263826700	10.039513406700	6.657863243300
108	2	0.0	8.664995653300	14.308096443300	6.675442830000
109	2	0.0	7.956072526700	7.193195060000	8.840984463300
110	2	0.0	5.460866370000	11.402814983300	8.806422420000
111	2	0.0	7.554949500000	9.792137986700	8.943255196700
112	2	0.0	5.105876563300	13.990853043300	8.908554543300
113	2	0.0	5.947640823300	12.879027130000	6.635373296700
114	2	0.0	8.364494720000	0.168458960000	6.676946546700
115	2	0.0	5.113854443300	8.784913856700	8.760714143300
116	2	0.0	7.573507110000	12.992683393300	8.737471370000
117	1	0.0	6.084227010000	10.003744606700	8.296215040000
118	1	0.0	8.556158720000	14.222608696700	8.320495596700
119	1	0.0	8.537335980000	8.636548413300	8.359828476700
120	1	0.0	6.039091006700	12.822866530000	8.274044003300
121	1	0.0	12.021986646700	0.620775196700	5.738900936700
122	1	0.0	14.475352966700	4.838769630000	5.750135826700
123	2	0.0	12.610868990000	1.299062166700	4.380598480000
124	2	0.0	10.130881876700	5.522372166700	4.353760740000
125	2	0.0	12.266887496700	3.463301880000	2.903600766700
126	2	0.0	9.834557973300	7.655783116700	2.850898010000
127	2	0.0	13.561176540000	3.569393300000	5.300330703300
128	2	0.0	11.132369106700	7.783075633300	5.277510643300
129	2	0.0	10.399484370000	3.908684400000	1.183545980000
130	2	0.0	12.881593440000	8.089399080000	1.117229020000
131	2	0.0	9.823417643300	2.385055783300	3.248433446700
132	2	0.0	12.286572460000	6.616228946700	3.226191556700
133	1	0.0	10.940972370000	2.828100180000	2.106481370000
134	1	0.0	13.389873930000	7.040946930000	2.091690840000
135	1	0.0	13.299149266700	2.713953026700	3.941487810000
136	1	0.0	10.847962200000	6.931854873300	3.931712503300
137	1	0.0	16.884360420000	0.621858010000	5.714626296700
138	1	0.0	19.382997236700	4.819950843300	5.721636480000
139	2	0.0	17.455649150000	1.304206876700	4.349808520000
140	2	0.0	15.029094426700	5.502756870000	4.371970706700
141	2	0.0	17.179086886700	3.470838130000	2.880025313300
142	2	0.0	14.744156353300	7.632603030000	2.845819506700
143	2	0.0	18.472267653300	3.545875096700	5.277213013300
144	2	0.0	15.993655660000	7.794222606700	5.248403256700
145	2	0.0	15.309345310000	3.913183390000	1.125859710000
146	2	0.0	17.773654790000	8.157774600000	1.174896300000
147	2	0.0	14.724724300000	2.421007366700	3.208677196700
148	2	0.0	17.183954230000	6.599061033300	3.229847776700
149	1	0.0	15.851485120000	2.865135160000	2.084450870000
150	1	0.0	18.287559590000	7.084232460000	2.118716080000
151	1	0.0	18.199230740000	2.697181316700	3.918935333300
152	1	0.0	15.741490753300	6.898537723300	3.925716466700
153	1	0.0	11.952317076700	9.137268246700	5.733124036700
154	1	0.0	14.438660750000	13.340566240000	5.710888553300
155	2	0.0	12.615180880000	9.762888993300	4.372295913300
156	2	0.0	10.195653556700	13.984802006700	4.431493803300
157	2	0.0	12.283486533300	11.919396643300	2.844578366700
158	2	0.0	9.810638676700	16.145607480000	2.924618483300
159	2	0.0	13.537345750000	12.076283486700	5.245890846700
160	2	0.0	11.093546610000	16.302944233300	5.299606250000
161	2	0.0	10.402463030000	12.386117670000	1.120457770000
162	2	0.0	12.822894270000	16.626982330000	1.123759470000
163	2	0.0	9.832497623300	10.877144820000	3.209166043300
164	2	0.0	12.272232113300	15.137437030000	3.231510150000
165	1	0.0	10.938311670000	11.321544650000	2.063552140000
166	1	0.0	13.367133450000	15.583027240000	2.085088740000
167	1	0.0	13.294732666700	11.173461770000	3.917524920000
168	1	0.0	10.842811976700	15.405573013300	3.970154843300
169	1	0.0	16.918447130000	9.057367016700	5.695552353300
170	1	0.0	19.377565326700	13.309831693300	5.696491886700
171	2	0.0	17.522367993300	9.741856710000	4.349819886700
172	2	0.0	14.997037653300	14.040715520000	4.351684120000
173	2	0.0	17.182410730000	11.905672710000	2.870595213300
174	2	0.0	14.711678516700	16.191158513300	2.860410063300
175	2	0.0	18.452781953300	12.036995590000	5.266309223300
176	2	0.0	15.948690503300	16.312473030000	5.271707466700
177	2	0.0	15.308209340000	12.385700750000	1.120075090000
178	2	0.0	17.728983670000	16.687237630000	1.181928880000
179	2	0.0	14.737509843300	10.894397833300	3.206776770000
180	2	0.0	17.160738603300	15.140919706700	3.228382650000
181	1	0.0	15.847279170000	11.319542570000	2.059646870000
182	1	0.0	18.267291380000	15.607778280000	2.107478710000
183	1	0.0	18.207165440000	11.160790220000	3.917858540000
184	1	0.0	15.715808603300	15.437338320000	3.924047336700
185	2	0.0	11.094266543300	1.604658860000	6.663761186700
186	2	0.0	13.567231220000	5.840453813300	6.669224983300
187	2	0.0	12.823767766700	15.632362913300	8.854708853300
188	2	0.0	10.397560860000	2.952660500000	8.852827646700
189	2	0.0	12.468137063300	1.306772170000	8.954670893300
190	2	0.0	10.036557016700	5.549353596700	8.932343520000
191	2	0.0	10.855819783300	4.400487160000	6.655309476700
192	2	0.0	13.176470556700	8.705152513300	6.735083770000
193	2	0.0	10.029545146700	0.322361513300	8.740725886700
194	2	0.0	12.497778660000	4.548586826700	8.755845376700
195	1	0.0	10.991021646700	1.554277683300	8.307047556700
196	1	0.0	13.446684120000	5.792986716700	8.314434780000
197	1	0.0	13.376835120000	0.115160076700	8.311869316700
198	1	0.0	10.959167233300	4.374022923300	8.296909820000
199	2	0.0	15.964295536700	1.594935426700	6.647342316700
200	2	0.0	18.449952016700	5.797904443300	6.642232413300
201	2	0.0	17.728165773300	15.621122880000	8.794797293300
202	2	0.0	15.276586623300	2.929037986700	8.855185603300
203	2	0.0	17.344499856700	1.294040253300	8.932580426700
204	2	0.0	14.920522233300	5.527846436700	8.957419433300
205	2	0.0	15.750180153300	4.396365720000	6.671772656700
206	2	0.0	18.181703136700	8.614900683300	6.629843263300
207	2	0.0	14.924612956700	0.295876286700	8.739347873300
208	2	0.0	17.385069803300	4.521893456700	8.741836170000
209	1	0.0	15.867288613300	1.536086270000	8.291819820000
210	1	0.0	18.334188370000	5.756652043300	8.284783520000
211	1	0.0	18.263323713300	0.118978156700	8.281460230000
212	1	0.0	15.837601743300	4.353731740000	8.312163483300
213	2	0.0	10.948849296700	10.095030686700	6.512379283300
214	2	0.0	13.501364510000	14.304506350000	6.647459703300
215	2	0.0	12.820229726700	7.168157773300	8.858878116700
216	2	0.0	10.422115976700	11.392262563300	9.074261490000
217	2	0.0	12.453289976700	9.720430693300	9.170389776700
218	2	0.0	10.009315643300	13.947174276700	8.990555813300
219	2	0.0	10.783098583300	12.810321586700	6.755904776700
220	2	0.0	13.286524233300	0.174286893300	6.672390743300
221	2	0.0	10.001700620000	8.814241886700	8.976212416700
222	2	0.0	12.483275073300	12.970919240000	8.738257936700
223	1	0.0	10.961541143300	9.990281853300	9.000133293300
224	1	0.0	13.402645570000	14.227957590000	8.293341516700
225	1	0.0	13.307542803300	8.633020560000	8.363295450000
226	1	0.0	10.926965313300	12.743981773300	8.388199453300
227	2	0.0	15.962287030000	10.021621466700	6.599688903300
228	2	0.0	18.447769930000	14.271435986700	6.631430453300
229	2	0.0	17.696739810000	7.151002136700	8.792459023300
230	2	0.0	15.249065880000	11.397140196700	8.763112380000
231	2	0.0	17.324460776700	9.755608536700	8.872083280000
232	2	0.0	14.892181453300	13.993476170000	8.911111686700
233	2	0.0	15.728442223300	12.902617490000	6.617163886700
234	2	0.0	18.146320273300	0.172996210000	6.645199873300
235	2	0.0	14.876425086700	8.789335546700	8.749358073300
236	2	0.0	17.360245610000	12.985235536700	8.706774656700
237	1	0.0	15.836970490000	9.987877816700	8.244809593300
238	1	0.0	18.325258776700	14.217257370000	8.268359413300
239	1	0.0	18.261414536700	8.581699380000	8.266412610000
240	1	0.0	15.815113090000	12.828009583300	8.254685760000
241	3	0.0	0.188450210000	4.021394260000	0.502985620000
242	3	0.0	5.094200220000	4.021394260000	0.502985620000
243	3	0.0	9.999950220000	4.021394260000	0.502985620000
244	3	0.0	14.905700220000	4.021394260000	0.502985620000
245	3	0.0	2.641325210000	8.258394260000	0.502985620000
246	3	0.0	7.547075210000	8.258394260000	0.502985620000
247	3	0.0	12.452825220000	8.258394260000	0.502985620000
248	3	0.0	17.358575210000	8.258394260000	0.502985620000
249	3	0.0	0.188450210000	12.495394260000	0.502985620000
250	3	0.0	5.094200220000	12.495394260000	0.502985620000
251	3	0.0	9.999950210000	12.495394260000	0.502985620000
252	3	0.0	14.905700220000	12.495394260000	0.502985620000
253	3	0.0	2.641325220000	16.732394260000	0.502985620000
254	3	0.0	7.547075210000	16.732394260000	0.502985620000
255	3	0.0	12.452825220000	16.732394260000	0.502985620000
256	3	0.0	17.358575210000	16.732394260000	0.502985620000
